    77
VM2 Rank=1      G=194.386           E=102.709           -TS=91.677              
C         22.6629978695       23.1223254648        6.4525294328
C         22.8054211764       22.5241742038        7.7143722759
C         22.4179570298       24.5010112911        6.3557990070
C         22.7004225788       23.3038302509        8.8782906722
C         22.3143207026       25.2803650679        7.5198720005
C         22.4492271618       24.6872277579        8.7907482700
N         22.3467088557       25.4774602416        9.9701699646
C         22.9982673369       26.7775858932       10.0766368363
C         21.6749666350       25.1393649496       11.1298013463
C         22.6623940754       27.2406322986       11.5068254569
O         21.0250537397       24.1297265200       11.3407909915
O         21.8697737591       26.1437415602       12.0297273925
C         21.9029036571       28.5825132751       11.5496420922
N         20.8675064053       28.6471951948       12.4569755384
O         22.1610726815       29.5123675707       10.8033226382
C         19.7558898634       29.6043869367       12.3687072085
C         18.4975297058       28.9015760113       11.7928291004
C         19.5180504228       30.2766941580       13.7499928576
C         18.7645491296       28.1785250103       10.4775977099
C         18.4471666238       31.3981505318       13.6764545325
O         19.1437579074       29.2928290555       14.7199133196
C         19.0400609949       28.9107346939        9.3083732346
C         18.7495391551       26.7723127929       10.4234974517
N         18.4481038433       32.3435583816       14.8262097531
C         19.2956174662       28.2450829669        8.0978688561
C         19.0012483345       26.1056122690        9.2129874038
C         19.6965360818       33.1213151577       15.0517213282
S         17.5880543522       31.8610687701       16.2222219447
C         19.2722463972       26.8421404366        8.0492553399
C         20.2108737182       33.8993938759       13.8128251145
C         17.3884319860       33.3959399312       17.1570307902
O         16.2488276954       31.5138325338       15.7315672920
O         18.4326084694       30.8878319507       16.9272072445
C         19.1621247104       34.9171777777       13.3093174148
C         21.5256192555       34.6302298227       14.1567728168
C         18.0990966175       33.5975697969       18.3567033142
C         16.5385053404       34.4109582452       16.6756961575
C         17.9562644759       34.8015939073       19.0671532624
C         16.3997371285       35.6132247666       17.3896462054
C         17.1073824360       35.8100975236       18.5854732094
N         16.9701842245       36.9936411563       19.2854732223
H         22.7436481747       22.5190029551        5.5515927265
H         22.9979487242       21.4568539761        7.7909495848
H         22.3080085608       24.9659406204        5.3791703874
H         22.8175114304       22.8283975867        9.8486982765
H         22.1200557716       26.3451135877        7.4278986870
H         22.5917637054       27.4720795733        9.3302486460
H         24.0823335836       26.6767495705        9.9405192317
H         23.5788748712       27.3566118525       12.0980407819
H         20.7355331348       27.8329547451       13.0449003751
H         20.0410675006       30.4009145388       11.6674508488
H         18.1088796454       28.1925022097       12.5348459082
H         17.7017736074       29.6392075740       11.6361663898
H         20.4758395622       30.7268393845       14.0409036186
H         18.6037044739       31.9623072031       12.7493784807
H         17.4572031055       30.9334101287       13.5794523050
H         19.0859173190       29.7465665256       15.5938736509
H         19.0624309557       29.9966343978        9.3397881326
H         18.5476145835       26.1938436438       11.3211975348
H         19.5098706044       28.8166649430        7.1984114161
H         18.9911297050       25.0188215579        9.1786988921
H         19.5382547158       33.8596260878       15.8477900962
H         20.4883776000       32.4497455717       15.4095225454
H         19.4665789244       26.3260431500        7.1124019644
H         20.4342127035       33.1912987125       13.0032844231
H         18.9129931709       35.6461092295       14.0913126808
H         19.5390779720       35.4688926930       12.4387672943
H         18.2335767407       34.4167418820       13.0076656457
H         21.9184472540       35.1615922478       13.2803422693
H         21.3737195292       35.3650399664       14.9581216900
H         22.2943199697       33.9200125550       14.4877023166
H         18.7625779847       32.8239606316       18.7360964127
H         15.9909592467       34.2676578727       15.7470379105
H         18.5068597136       34.9518301127       19.9918217240
H         15.7433286819       36.3927818566       17.0127132555
H         17.4773388006       37.1436307650       20.1507734265
H         16.3584272559       37.7271652628       18.9446904170
    77
VM2 Rank=2      G=194.453           E=102.495           -TS=91.959              
C         23.4049301511       24.2098885890        6.4490431915
C         24.1507047544       24.0990969018        7.6330588219
C         22.3564332579       25.1394784220        6.3673479616
C         23.8465095620       24.9155795480        8.7350729726
C         22.0536034148       25.9566649511        7.4690068394
C         22.7923883548       25.8473942215        8.6637864907
N         22.4865797826       26.6781472117        9.7783656727
C         22.2062822310       28.0998580070        9.6141433477
C         22.4395756352       26.2913154535       11.1049185643
C         22.0414131169       28.6077316978       11.0568486912
O         22.6130873520       25.1726210944       11.5572325517
O         22.1570290595       27.3977611762       11.8494041894
C         20.7091213823       29.3492683579       11.2789277408
N         19.8903286747       28.8214914054       12.2534364022
O         20.3692711774       30.3043482734       10.6017350398
C         18.4308484566       29.0119912995       12.2781432146
C         17.7497116839       27.6202658166       12.2756765725
C         17.9937242867       29.9033007203       13.4748870468
C         18.2495253114       26.7196556812       11.1511634240
C         18.5796985851       31.3388116493       13.3654439518
O         16.5677412033       29.9791375048       13.5322395452
C         17.9591579514       27.0330974086        9.8106416162
C         19.0217294709       25.5795216570       11.4414312513
N         18.5685095706       32.1195396636       14.6324124831
C         18.4326977606       26.2147744151        8.7715526502
C         19.4924177112       24.7584774555       10.4033955075
C         19.3408373684       31.5517533432       15.7709979455
S         17.1199322856       32.9379986785       15.0208794240
C         19.1971115643       25.0751745257        9.0683213404
C         20.8076192208       31.1697475820       15.4396630724
C         17.6166045925       34.1089757621       16.3061120076
O         16.8208009923       33.7480335588       13.8338052442
O         16.1826200107       31.9263642059       15.5266571847
C         21.6172759226       32.3946624126       14.9568943774
C         21.4855309970       30.5504186752       16.6796246515
C         17.2097960988       33.9169317812       17.6412414056
C         18.4358294618       35.2082298915       15.9822719733
C         17.6167476164       34.8187825929       18.6391733006
C         18.8403626389       36.1067147871       16.9840293392
C         18.4315590716       35.9138374427       18.3126357224
N         18.8313522598       36.7981561781       19.2963772703
H         23.6397237422       23.5774991933        5.5963233303
H         24.9648773404       23.3813798767        7.6970192879
H         21.7777717919       25.2265017787        5.4510455961
H         24.4353014969       24.8224212552        9.6439314862
H         21.2347849648       26.6663401200        7.3921752980
H         21.2804425480       28.2430149979        9.0417596395
H         23.0399259266       28.6048621753        9.1100849906
H         22.8550793194       29.2982698500       11.3104693870
H         20.2705477345       28.0199093279       12.7419052591
H         18.1256085274       29.5286973821       11.3572823118
H         17.9100423235       27.1386225146       13.2484342493
H         16.6639835240       27.7461596600       12.1777181471
H         18.3742084060       29.4250664692       14.3863226522
H         19.6119039811       31.2753424721       13.0056730616
H         18.0330440323       31.8794662331       12.5814052533
H         16.3324541113       30.4882635418       14.3443349987
H         17.3685754246       27.9142657116        9.5746386353
H         19.2620416242       25.3298084732       12.4713581993
H         18.2059151869       26.4629331894        7.7378173813
H         20.0923707564       23.8814578981       10.6339333652
H         19.3778705914       32.2750620046       16.5952064100
H         18.8199991020       30.6670543337       16.1609448286
H         19.5645227353       24.4408853429        8.2653876632
H         20.8170292622       30.4066526547       14.6497451482
H         21.6352978569       33.1816315102       15.7218452351
H         22.6544491153       32.1143831375       14.7334476934
H         21.1858480574       32.8228539101       14.0435524210
H         21.5200258493       31.2653327569       17.5119915640
H         20.9427422623       29.6588509421       17.0191034530
H         22.5152262920       30.2465075858       16.4513565249
H         16.5818143135       33.0692495253       17.9052086605
H         18.7608993628       35.3612475616       14.9557805455
H         17.3000759959       34.6658038629       19.6673038706
H         19.4730069434       36.9522362233       16.7280681819
H         19.4212445578       37.5911389772       19.0691319979
H         18.5414246798       36.6653228533       20.2590498846
    77
VM2 Rank=3      G=194.616           E=102.293           -TS=92.324              
C         21.0030585311       23.1122457696        6.9690315027
C         20.9500491743       24.5032576589        6.7889886218
C         21.3139900675       22.5817868383        8.2308567818
C         21.2063829506       25.3627321132        7.8701012205
C         21.5690335887       23.4417711944        9.3120449631
C         21.5124282689       24.8390957534        9.1418669740
N         21.7749010595       25.7102041587       10.2366770603
C         22.6140030308       26.8932160752       10.0862396267
C         21.3210716045       25.5600579450       11.5336008360
C         22.6653495118       27.4899514418       11.5052935638
O         20.5903818362       24.6847496960       11.9651295349
O         21.8448231902       26.5751740407       12.2764049583
C         22.1474838926       28.9411355329       11.5753716025
N         21.3544795300       29.2336276598       12.6639080440
O         22.3778702479       29.7679654314       10.7084247626
C         20.4086863119       30.3571057240       12.7142458404
C         18.9651979591       29.8445393429       12.4584591517
C         20.5685810521       31.1254044441       14.0563169600
C         18.8412051702       29.0031447328       11.1933394335
C         19.6952844781       32.4076390461       14.1027369735
O         20.2577375072       30.2632061137       15.1551190093
C         18.9846620917       29.5995158042        9.9273080391
C         18.5925726713       27.6207124771       11.2805849728
N         19.9970318154       33.3327969128       15.2318940940
C         18.8787127052       28.8233161470        8.7611176654
C         18.4825022251       26.8441887104       10.1152242596
C         21.3699656593       33.8981593806       15.2809697768
S         19.2958885731       33.0258524314       16.7623260353
C         18.6233945493       27.4459395841        8.8549762238
C         21.8431220679       34.5901715382       13.9755082431
C         17.6167489590       32.4651288573       16.3855097139
O         20.0932156346       31.9573785207       17.3791020862
O         19.1578428002       34.3522597410       17.3762370963
C         20.9124560747       35.7599549744       13.5823957865
C         23.2878981515       35.1052211936       14.1442890321
C         16.6434907838       33.3897288777       15.9577516568
C         17.2773014982       31.1012667203       16.4879969133
C         15.3467804839       32.9535996235       15.6370807650
C         15.9797182385       30.6701162703       16.1644951257
C         15.0133157014       31.5943471983       15.7390899510
N         13.7383803530       31.1673343244       15.4199851421
H         20.8051929005       22.4468442128        6.1322041412
H         20.7101914437       24.9157413680        5.8120661427
H         21.3583327601       21.5045642994        8.3713221509
H         21.1572464318       26.4366841162        7.7149461141
H         21.8133707199       23.0171964664       10.2823290464
H         22.1588606516       27.5973091108        9.3778376988
H         23.6169651398       26.6126712313        9.7409071680
H         23.6935669810       27.4835013790       11.8869308900
H         21.2291726035       28.4899754459       13.3401834018
H         20.6611982749       31.0583800176       11.9067984547
H         18.6293280535       29.2620914622       13.3259144513
H         18.2778459882       30.6951527824       12.3839010919
H         21.6231831557       31.4243878435       14.1191209059
H         19.8353976698       32.9436558593       13.1565207092
H         18.6392188961       32.1164519496       14.1150076339
H         20.4839754554       30.7454867229       15.9844693903
H         19.1850601909       30.6644909565        9.8479044897
H         18.4889672027       27.1452883475       12.2524298831
H         18.9926507486       29.2898535843        7.7859412575
H         18.2931072788       25.7760415523       10.1897003997
H         21.4202794776       34.6441817464       16.0862992623
H         22.0831915909       33.1067632025       15.5477935520
H         18.5375306388       26.8449637094        7.9531801455
H         21.8531952817       33.8570001943       13.1576580873
H         21.2612406224       36.2452638516       12.6619758926
H         19.8872052899       35.4118283527       13.4056922851
H         20.8779540529       36.5189468292       14.3744862833
H         23.9711076580       34.2826880180       14.3922749008
H         23.6484324403       35.5697407811       13.2174491149
H         23.3516437528       35.8533927983       14.9450739861
H         16.8952780300       34.4440056425       15.8692051129
H         18.0189812346       30.3746439509       16.8107699822
H         14.6014659832       33.6718191432       15.3064466698
H         15.7258926494       29.6165178858       16.2424460837
H         13.4902416301       30.1865598455       15.4884971718
H         13.0349185537       31.8285497721       15.1098870533
    77
VM2 Rank=4      G=194.627           E=103.357           -TS=91.270              
C         23.5193767269       23.4984800437        7.0211383160
C         23.1095668898       24.8322181002        6.8682036412
C         23.5111541453       22.9057800792        8.2935496097
C         22.6911278055       25.5720079230        7.9865774747
C         23.0911259121       23.6456021304        9.4115179332
C         22.6731666968       24.9830106529        9.2663788435
N         22.2510666587       25.7343536214       10.3990724308
C         22.6871766254       27.1106195513       10.6055765158
C         21.4364440074       25.2901900409       11.4240453212
C         22.0888654991       27.4809099168       11.9734985330
O         20.9071705591       24.1970730985       11.5295715510
O         21.3143187724       26.3053589978       12.3256876914
C         21.2450420073       28.7692185165       11.9226697318
N         19.9114898800       28.6203208072       12.2350173443
O         21.7052676005       29.8403102415       11.5658034958
C         18.8593985561       29.5191659186       11.7351821700
C         17.7490611158       28.6702261036       11.0685563884
C         18.3158707892       30.4493619486       12.8544477869
C         18.2938688189       27.7175886355       10.0101501269
C         19.4425664233       31.3157615705       13.4781472154
O         17.2986810358       31.3081312481       12.3320939416
C         18.8185151277       28.2225987214        8.8063381603
C         18.2963881668       26.3284088493       10.2350258911
N         18.9736078058       32.3486854326       14.4371446256
C         19.3378712257       27.3489786257        7.8364834285
C         18.8122327277       25.4538250530        9.2643529716
C         19.9895622152       33.3924128983       14.7116022704
S         17.9039845117       31.8480031187       15.6820404620
C         19.3323952424       25.9636853026        8.0645919543
C         19.4569813843       34.8198711920       14.4349204624
C         17.9821020498       33.1045771240       16.9869234715
O         16.5729348654       31.8973521248       15.0633623604
O         18.4846682515       30.6097197793       16.2146766365
C         20.4588930973       35.8747971070       14.9471927049
C         19.1807693523       35.0314896031       12.9297292934
C         17.0363403428       34.1490956600       17.0293105778
C         18.9739985542       33.0326383083       17.9860983564
C         17.1016881400       35.1226817595       18.0403475034
C         19.0349901307       34.0085664834       18.9950394644
C         18.1020010210       35.0560776663       19.0219098475
N         18.1652692622       36.0158460445       20.0140234953
H         23.8436809978       22.9257875256        6.1556799381
H         23.1150576924       25.2926938082        5.8833431140
H         23.8307076359       21.8735733296        8.4140296625
H         22.3699379022       26.6007712796        7.8506667229
H         23.0939830861       23.1755152195       10.3915171268
H         22.2878895560       27.7607001597        9.8161292385
H         23.7825729812       27.1728409131       10.6233410412
H         22.8896132112       27.6336565925       12.7074360997
H         19.6398881589       27.6851888473       12.5134629410
H         19.2910632035       30.1642582308       10.9567614887
H         17.2076222706       28.1110333512       11.8419645409
H         17.0099902144       29.3368290453       10.6061502473
H         17.8881869503       29.8096754663       13.6385525166
H         20.1587084410       30.6533419936       13.9819720597
H         19.9789355376       31.8000507758       12.6511850433
H         16.8959119144       31.7577238063       13.1119090962
H         18.8262943128       29.2939962296        8.6245204937
H         17.9026730555       25.9241921501       11.1637174501
H         19.7431065184       27.7453060011        6.9089410080
H         18.8160303642       24.3818049247        9.4460543558
H         20.3497276266       33.3162035186       15.7446431857
H         20.8728461661       33.2419509068       14.0757841432
H         19.7353886374       25.2863052811        7.3157111089
H         18.5135540731       34.9679680857       14.9727151898
H         20.0811321113       36.8902837677       14.7719611970
H         20.6250368605       35.7636352942       16.0267714540
H         21.4282101042       35.7806880986       14.4407934254
H         18.7964856245       36.0418036800       12.7405397040
H         20.0948090718       34.8988683786       12.3369827608
H         18.4327727698       34.3170479612       12.5617521205
H         16.2567511846       34.2117736857       16.2737539427
H         19.7009293649       32.2238706461       17.9762981002
H         16.3742264995       35.9295342207       18.0611264215
H         19.8073199731       33.9503534475       19.7571315142
H         18.8840020277       35.9736869293       20.7281101189
H         17.4937361235       36.7751669408       20.0413685572
    77
VM2 Rank=5      G=194.668           E=102.813           -TS=91.854              
C         23.4797618995       23.6835545499        6.9528259009
C         23.5400369631       23.0864254543        8.2217615985
C         23.0150594929       25.0014974033        6.8214218059
C         23.1336956442       23.8059861157        9.3578657869
C         22.6103223494       25.7210821815        7.9578726770
C         22.6610293720       25.1272685112        9.2345638176
N         22.2526325837       25.8581904111       10.3854868860
C         22.6447155140       27.2489433708       10.5831384210
C         21.4925346121       25.3802183224       11.4367983757
C         22.0810926885       27.5923050326       11.9726119265
O         21.0088861006       24.2675669555       11.5561331937
O         21.3648734116       26.3870264016       12.3470288811
C         21.1873612537       28.8473299840       11.9557271842
N         19.8680270852       28.6436780959       12.2967576020
O         21.5976132298       29.9389384013       11.6000962023
C         18.7707976297       29.5048143133       11.8285423090
C         17.6683110373       28.6163846679       11.2016820026
C         18.2318873875       30.4226117919       12.9606407805
C         18.2099644484       27.6796974680       10.1275997453
C         19.3514622508       31.3218598345       13.5504968564
O         17.1806276173       31.2522128236       12.4608120412
C         18.6722021243       28.1983440073        8.9041736875
C         18.2723575737       26.2926325402       10.3568265543
N         18.8988260919       32.3530387964       14.5289203224
C         19.1890179471       27.3402054611        7.9192657242
C         18.7857892610       25.4334167656        9.3712643359
C         19.9566703036       33.3335009219       14.9032699492
S         17.8987744680       31.7781943424       15.8002556980
C         19.2435968314       25.9567536159        8.1520458207
C         20.6193152830       34.0898647811       13.7203084646
C         17.8621693998       33.0956947772       17.0423241784
O         16.5575624610       31.7110671620       15.2050952436
O         18.5770336188       30.6017960236       16.3575019340
C         19.5688042741       34.8043644165       12.8392865527
C         21.6361484408       35.1191064145       14.2580422498
C         18.6962941042       33.0308681581       18.1764549021
C         17.0120502259       34.2064770594       16.8713041156
C         18.6777437693       34.0658851152       19.1267234927
C         16.9976954263       35.2387091617       17.8245680685
C         17.8295882537       35.1702143406       18.9525787664
N         17.8146675705       36.1872740487       19.8879259453
H         23.7933609499       23.1264750743        6.0733464830
H         23.9020675023       22.0664964837        8.3254773623
H         22.9673678684       25.4653346485        5.8392836705
H         23.1897790929       23.3328473318       10.3347892571
H         22.2460425326       26.7374935628        7.8387600199
H         22.1947706498       27.8866256172        9.8110201815
H         23.7370495963       27.3514033848       10.5633802878
H         22.9006445152       27.7740683436       12.6786568702
H         19.6392745979       27.6961281624       12.5716843375
H         19.1557715831       30.1595491304       11.0337970311
H         17.1725615666       28.0414618358       11.9939707985
H         16.8917540506       29.2558243354       10.7629424667
H         17.8423369663       29.7728695768       13.7562336747
H         20.0995629130       30.6770532205       14.0300754953
H         19.8414766332       31.7965554961       12.6939524236
H         16.7713903413       31.6717275389       13.2541797630
H         18.6334580110       29.2684413891        8.7186871101
H         17.9272243589       25.8783158097       11.3002747711
H         19.5459539319       27.7470477681        6.9765565566
H         18.8362118853       24.3631422884        9.5562620874
H         19.5365732019       34.1098170182       15.5531026051
H         20.7390669997       32.8215017767       15.4803242937
H         19.6450309211       25.2914449355        7.3915908598
H         21.1806412363       33.3795488202       13.0983343447
H         18.9845877894       35.5238662034       13.4270259891
H         20.0520051148       35.3486813148       12.0180618209
H         18.8689905524       34.0861941892       12.3929082161
H         22.1411486869       35.6375858157       13.4328654635
H         21.1436338553       35.8760066304       14.8823274403
H         22.4077561154       34.6276998804       14.8646298306
H         19.3603385678       32.1817132622       18.3196811950
H         16.3672690814       34.2708062645       15.9978892349
H         19.3239633705       34.0104461680       19.9985439140
H         16.3407328053       36.0930386785       17.6858980218
H         17.2053179469       36.9891670163       19.7691537130
H         18.4132935197       36.1458532350       20.7054704736
    77
VM2 Rank=6      G=194.757           E=102.311           -TS=92.447              
C         22.2775030718       25.4628696638        5.8012853476
C         21.3935021748       26.5066123673        6.1164123559
C         23.1246659069       24.9409250681        6.7913545831
C         21.3561746224       27.0270184756        7.4206104815
C         23.0859093884       25.4607248528        8.0959273124
C         22.1979477575       26.5044928538        8.4224162486
N         22.1611638035       27.0345771949        9.7428669295
C         22.1008611438       28.4714254798        9.9851257820
C         22.2025213742       26.3124411412       10.9211954380
C         22.1900957219       28.5865235707       11.5164751005
O         22.2407599550       25.1004428335       11.0467358566
O         22.1908066737       27.2028266615       11.9533984107
C         21.0360970093       29.4101748990       12.1196421120
N         20.2369970588       28.7427921727       13.0221920668
O         20.8022920894       30.5575322630       11.7804382764
C         18.8387734037       29.1134693675       13.2940188039
C         17.9416327761       27.8729869883       13.0561909674
C         18.6740825203       29.7208721470       14.7156295890
C         18.1659700990       27.2364975668       11.6888328687
C         19.4906531285       31.0332731084       14.8740678147
O         17.2940449753       29.9857257751       14.9733240227
C         17.7873961728       27.9203269279       10.5189631311
C         18.7710697526       25.9703973597       11.5827988821
N         19.6390299960       31.5155009694       16.2763928465
C         18.0084815382       27.3442918499        9.2568740304
C         18.9890822935       25.3918950532       10.3214539512
C         20.3330800116       30.6021876783       17.2209989797
S         18.3799318428       32.4427766031       16.9680207156
C         18.6070077338       26.0781403843        9.1582548452
C         21.7079260817       30.0706869627       16.7346999507
C         17.8617737371       33.5588889198       15.6414213188
O         17.3134350744       31.4988863732       17.3282246416
O         19.0487681678       33.2829527332       17.9691530823
C         22.6998356325       31.2236876300       16.4594499492
C         22.3033198807       29.1075911996       17.7829463046
C         18.6802634898       34.6447418731       15.2726430323
C         16.6501493068       33.3414588548       14.9556500583
C         18.2890991983       35.5029539731       14.2310110877
C         16.2639825961       34.2021792150       13.9142252982
C         17.0815132997       35.2833086737       13.5507674978
N         16.6993995397       36.1279423152       12.5259100286
H         22.3068709737       25.0601938180        4.7917508276
H         20.7366179636       26.9119562778        5.3507596747
H         23.8118618414       24.1342576512        6.5481828167
H         20.6615744252       27.8300045498        7.6502512078
H         23.7508065528       25.0501853487        8.8514025847
H         21.1508219493       28.8811032927        9.6178293444
H         22.9417275523       28.9833558936        9.5004134938
H         23.1320907490       29.0687164550       11.8051882402
H         20.5196099523       27.7904848260       13.2195064864
H         18.5313511965       29.8837523276       12.5725677440
H         18.1217178647       27.1393035393       13.8519331260
H         16.8871632554       28.1629391730       13.1472989150
H         19.0467660066       28.9765861150       15.4311709118
H         20.4910684355       30.8729441399       14.4586996260
H         19.0413759517       31.8021017173       14.2341808223
H         17.2176925349       30.2638003514       15.9165437024
H         17.3243524992       28.9009754527       10.5889514780
H         19.0771559759       25.4342197612       12.4770427362
H         17.7148514731       27.8781510848        8.3566615230
H         19.4613131808       24.4154051770       10.2459079522
H         20.4993561437       31.1290759013       18.1708418357
H         19.6803446730       29.7493251030       17.4504549057
H         18.7794267353       25.6311679648        8.1822857324
H         21.5696467123       29.4962093919       15.8086099666
H         22.8701804347       31.8209379689       17.3643532095
H         23.6686557642       30.8341004085       16.1220342286
H         22.3229635141       31.8961691117       15.6788541790
H         23.2616439843       28.6982383325       17.4382730815
H         22.4775034765       29.6192771947       18.7383895659
H         21.6274498218       28.2627277036       17.9678236103
H         19.6199649418       34.8193733461       15.7914927043
H         16.0107249880       32.5042534794       15.2250321664
H         18.9254795654       36.3380352936       13.9511739372
H         15.3293927144       34.0276470987       13.3882139825
H         15.8293981524       35.9748261107       12.0279482853
H         17.2854922478       36.9101736928       12.2558353016
    77
VM2 Rank=7      G=194.774           E=103.518           -TS=91.255              
C         21.9960930683       24.0700904450        6.3296787520
C         23.2164968388       24.2792010695        6.9913778161
C         20.7891799139       24.3966972156        6.9678892503
C         23.2301415575       24.8152537455        8.2900357287
C         20.8036489284       24.9320440638        8.2664586990
C         22.0231727126       25.1445079864        8.9373993207
N         22.0362196211       25.6972000513       10.2478652069
C         22.9428616237       26.7811654289       10.6080214758
C         21.2179497577       25.3331094415       11.3001658138
C         22.5465713421       27.1212435043       12.0564676863
O         20.3864594741       24.4417458087       11.3156635836
O         21.5419806422       26.1193599003       12.3654124747
C         22.0110426408       28.5598835103       12.2083584283
N         20.8176188585       28.6802381558       12.8830419984
O         22.5772985751       29.5309279035       11.7344820631
C         19.9885969932       29.8921103050       12.8820559191
C         18.4953609105       29.4990438441       12.7463133999
C         20.3002818724       30.7666211955       14.1288501834
C         18.2317278886       28.6698366917       11.4960156315
C         19.6426654375       32.1684623015       14.0295205390
O         19.8820846572       30.0991903781       15.3229216703
C         18.0858146051       27.2729484627       11.5841820443
C         18.1530368285       29.2947341630       10.2381819614
N         20.1405054477       33.1647909430       15.0200750932
C         17.8588816052       26.5095664667       10.4272436202
C         17.9273917430       28.5320463526        9.0801531512
C         21.5886225282       33.4932599244       14.9632167185
S         19.4709279346       33.1656745551       16.5945229444
C         17.7785531307       27.1391155374        9.1746710025
C         22.1175486097       33.9046789200       13.5637110422
C         17.7048837933       32.8688456855       16.3328291071
O         20.1023309228       32.0536154630       17.3173929416
O         19.5905516583       34.5580441599       17.0443287264
C         21.3812397273       35.1507354440       13.0211998822
C         23.6338941183       34.1820778889       13.6328080019
C         17.1416678925       31.6077813355       16.6126616070
C         16.8857373061       33.8934726441       15.8188274972
C         15.7754168971       31.3770145620       16.3793903221
C         15.5196725574       33.6579698615       15.5888287468
C         14.9629693202       32.4004228614       15.8678127550
N         13.6199000601       32.1702718230       15.6379671937
H         21.9857021201       23.6554374106        5.3245995773
H         24.1518434801       24.0256005264        6.4984462252
H         19.8431026661       24.2356978683        6.4569288338
H         24.1818315257       24.9672000872        8.7916079230
H         19.8641426247       25.1826053995        8.7497946730
H         22.8000668638       27.6371678931        9.9351723048
H         23.9859901868       26.4448443957       10.5659429059
H         23.4070342455       27.0149691862       12.7282412559
H         20.4225284481       27.8256425452       13.2540565692
H         20.2546758436       30.4807756156       11.9926269487
H         18.1782714961       28.9456956493       13.6396573036
H         17.8727890339       30.4006920484       12.7149415084
H         21.3901073474       30.8987629627       14.1489710032
H         19.8226784355       32.5534074648       13.0187530341
H         18.5554686013       32.0562941163       14.1054391056
H         20.2144026979       30.6246400033       16.0877148861
H         18.1532994937       26.7769063062       12.5487403345
H         18.2706279882       30.3720664843       10.1580571022
H         17.7500772197       25.4302888855       10.5024835445
H         17.8683423272       29.0203589596        8.1106807391
H         21.7932072014       34.3253610731       15.6512160508
H         22.1725289147       32.6384448237       15.3301074269
H         17.6032550041       26.5488410825        8.2787369888
H         21.9722520758       33.0735126713       12.8600457005
H         21.5088522250       36.0077845944       13.6948674127
H         21.7674431000       35.4343838279       12.0339125075
H         20.3054300480       34.9639143048       12.9153644498
H         24.0288434673       34.4449524812       12.6430157764
H         23.8553137727       35.0112815296       14.3172286440
H         24.1786924455       33.2961513067       13.9838479672
H         17.7621302742       30.8050259986       17.0036795651
H         17.3103115769       34.8690363637       15.5935386047
H         15.3484174603       30.4012868575       16.5943699606
H         14.8939172535       34.4522558942       15.1910861367
H         13.0259408153       32.9046761262       15.2690153429
H         13.2099420625       31.2644251011       15.8369751011
    77
VM2 Rank=8      G=194.816           E=103.597           -TS=91.219              
C         23.8497239453       23.8268267479        7.6985212094
C         24.3465020087       23.8811967236        9.0102707129
C         22.8851490427       24.7552944119        7.2768559767
C         23.8773503396       24.8619273154        9.9000243283
C         22.4174129352       25.7366243134        8.1664590433
C         22.9058254874       25.7944402378        9.4866959014
N         22.4335822664       26.7905937015       10.3866191249
C         22.2836838139       28.1810945484        9.9734570925
C         22.0971818020       26.6053877963       11.7145258067
C         21.8100796111       28.8933183222       11.2527375205
O         22.1138203242       25.5616568876       12.3441278944
O         21.7443190106       27.8186957056       12.2256153283
C         20.4587513640       29.6110154265       11.0682216474
N         19.4800942888       29.2727085347       11.9768662654
O         20.2504339701       30.3952032154       10.1584263381
C         18.0400092327       29.4785510964       11.7511361878
C         17.3302415954       28.1018053245       11.7776852145
C         17.4587024766       30.4853658752       12.7826415354
C         17.9765356246       27.0857522259       10.8421400190
C         18.0641999119       31.9051941804       12.6236347573
O         16.0382419114       30.5747510948       12.6660587003
C         18.6877508955       25.9889968365       11.3636372184
C         17.8866457205       27.2495700115        9.4477500036
N         18.4225286795       32.5187056574       13.9277864928
C         19.2960325840       25.0625915776       10.5005354052
C         18.4970208662       26.3252130245        8.5835942270
C         19.7036102789       33.2699692614       13.9227372700
S         17.1446904090       33.2174351432       14.8260360962
C         19.1990000033       25.2293057488        9.1102734764
C         20.9578467302       32.3754118818       13.7306749323
C         17.8596664872       33.4271311774       16.4734426824
O         16.8201166216       34.5016586907       14.1937630909
O         16.1369378304       32.1576441509       14.9639015488
C         22.2370804197       33.2355389343       13.7937774757
C         21.0280491400       31.2507363331       14.7888622674
C         18.1781358609       32.2972004615       17.2518800679
C         18.1270667852       34.7149690514       16.9782460772
C         18.7567705046       32.4553763141       18.5224522557
C         18.7049804722       34.8676427439       18.2500858179
C         19.0205719070       33.7395830589       19.0231909852
N         19.5906568413       33.8929162557       20.2726520044
H         24.2121050660       23.0673565593        7.0100012915
H         25.0953758213       23.1641975650        9.3376636375
H         22.4991393303       24.7143055004        6.2613044376
H         24.2736556410       24.8954181017       10.9115877032
H         21.6655609150       26.4435439180        7.8272051630
H         21.5345634486       28.2671502411        9.1756549247
H         23.2435786838       28.5865288429        9.6295797995
H         22.5457617719       29.6427103108       11.5697284413
H         19.7616538454       28.6046689101       12.6836110026
H         17.8917640269       29.9081331513       10.7504520238
H         17.3232152088       27.7197603334       12.8062411941
H         16.2771168827       28.2305357719       11.4973470862
H         17.7168819012       30.1051390036       13.7809421904
H         18.9466037023       31.8343055034       11.9807628295
H         17.3597974123       32.5513531634       12.0825030433
H         15.7398403912       31.0688522406       13.4681645263
H         18.7749442183       25.8555291536       12.4385793129
H         17.3466189146       28.0972021252        9.0344259465
H         19.8478757162       24.2197936352       10.9097647694
H         18.4247292077       26.4578423738        7.5071094991
H         19.6763768668       34.0377756058       13.1372749085
H         19.8342104427       33.8011802154       14.8736618128
H         19.6712565419       24.5127022942        8.4428872587
H         20.9267834774       31.9126429149       12.7368063724
H         22.3421014024       33.7188378667       14.7738497489
H         23.1304748081       32.6216604748       13.6217469705
H         22.2192551155       34.0209389677       13.0272288638
H         21.9299029446       30.6406130841       14.6527408963
H         21.0476381029       31.6655510915       15.8049598609
H         20.1628366942       30.5806277999       14.7132231861
H         17.9817048202       31.2988973064       16.8679266505
H         17.8905359906       35.5950882296       16.3849691688
H         19.0018632321       31.5797976421       19.1173263006
H         18.9095272886       35.8631559463       18.6345520717
H         19.7864561859       34.8172224169       20.6409885416
H         19.8238517458       33.0830528810       20.8366247412
    77
VM2 Rank=9      G=194.899           E=103.379           -TS=91.520              
C         23.8442544364       23.5239900893        7.1311032080
C         24.6555760758       24.4291721150        7.8324122262
C         22.5029490157       23.3531811225        7.5063519085
C         24.1254532778       25.1649439090        8.9054946876
C         21.9741022101       24.0885071901        8.5799209847
C         22.7782414422       25.0035593662        9.2881616854
N         22.2388182899       25.7581431980       10.3706363209
C         22.5443806509       27.1753390684       10.5444885735
C         21.3714991906       25.2987156716       11.3462769155
C         21.8854503855       27.5227922755       11.8893387330
O         20.9119491526       24.1753436097       11.4609165915
O         21.1006161925       26.3397526424       12.1842937166
C         21.0578934953       28.8210793989       11.8491882476
N         19.7390653825       28.6970086203       12.2267497966
O         21.5174779820       29.8805456765       11.4580130057
C         18.6820373598       29.6154523421       11.7746066431
C         17.5552997312       28.7934831203       11.1030855892
C         18.1700666632       30.5198788820       12.9285364698
C         18.0862513453       27.8573488256       10.0234266328
C         19.3228755263       31.3523380439       13.5516915153
O         17.1591244419       31.4069236080       12.4446454849
C         18.6417462398       28.3827001043        8.8423328879
C         18.0578674813       26.4633302780       10.2127539828
N         18.9066572391       32.3741708640       14.5557229791
C         19.1632062434       27.5243858620        7.8603660002
C         18.5727347196       25.6039166176        9.2286058614
C         20.0017459176       33.2982358188       14.9647622626
S         17.8722623114       31.8073010109       15.8029995269
C         19.1265475211       26.1343252220        8.0522389940
C         20.7036126358       34.0599253377       13.8081419304
C         17.8827391024       33.0888243313       17.0826372733
O         16.5343055739       31.8155843465       15.1968650483
O         18.4945001807       30.5870427743       16.3305323166
C         19.6899428082       34.8423149918       12.9417638297
C         21.7582329669       35.0302435200       14.3814591772
C         17.0822811619       34.2396216721       16.9386939503
C         18.7049087652       32.9555989254       18.2195227373
C         17.1050929451       35.2436859371       17.9214237793
C         18.7236700801       33.9627096282       19.1993123615
C         17.9249469409       35.1070847053       19.0520551705
N         17.9466169181       36.0964992775       20.0164709943
H         24.2545826188       22.9546511526        6.3006226348
H         25.6961097919       24.5601828673        7.5455609119
H         21.8729397224       22.6507062409        6.9662761286
H         24.7722501380       25.8541248541        9.4403190574
H         20.9348942011       23.9426296700        8.8578600449
H         22.0990337021       27.7542231532        9.7241577947
H         23.6245273676       27.3577918295       10.5875999135
H         22.6582513841       27.6465421834       12.6579756133
H         19.4644008359       27.7672512994       12.5201965751
H         19.1017202727       30.2799581827       11.0061136389
H         17.0156216019       28.2242841965       11.8703667736
H         16.8198542966       29.4772148258       10.6603239824
H         17.7465668737       29.8639768873       13.7014095592
H         20.0381020976       30.6621192632       14.0181118004
H         19.8406874160       31.8288990334       12.7126565079
H         16.7609735041       31.8208572597       13.2465576938
H         18.6756526233       29.4580698838        8.6893169063
H         17.6404298437       26.0440062965       11.1242183211
H         19.5939779123       27.9363920033        6.9512881227
H         18.5454805623       24.5279139191        9.3812733945
H         19.6097245364       34.0725382042       15.6342330414
H         20.7579312990       32.7376311399       15.5314897255
H         19.5272119025       25.4703482458        7.2904056800
H         21.2395168272       33.3450497175       13.1692770067
H         20.2011684260       35.3894411330       12.1395917845
H         18.9643539020       34.1668733622       12.4705248036
H         19.1316506818       35.5682981663       13.5464889691
H         22.5044569412       34.4900995084       14.9782844740
H         22.2901868209       35.5506720718       13.5746475199
H         21.2929398472       35.7888136186       15.0243274917
H         16.4473411671       34.3567196586       16.0635518894
H         19.3308978858       32.0748936020       18.3421179814
H         16.4863642268       36.1291208415       17.8035755620
H         19.3604373573       33.8544701421       20.0731293159
H         18.5353253126       36.0049390996       20.8371336959
H         17.3715471691       36.9260166877       19.9182749455
    77
VM2 Rank=10     G=194.931           E=103.772           -TS=91.159              
C         22.8924131775       22.8401514263        6.7205012371
C         23.1446504380       24.2201572875        6.7659646438
C         22.3332007158       22.1944511227        7.8343190498
C         22.8365927108       24.9537687361        7.9236013282
C         22.0241357638       22.9288149658        8.9913751214
C         22.2684406695       24.3152943570        9.0438215048
N         21.9591254999       25.0584082655       10.2179801656
C         22.8781937484       26.0556379324       10.7538273045
C         20.8209851640       24.9355865278       10.9927322187
C         22.1784809234       26.5497582203       12.0337903454
O         19.8657656907       24.2045990281       10.7939046698
O         20.9453965743       25.7856215380       12.0503679978
C         21.9255399379       28.0712032721       12.0415201337
N         20.6940828029       28.4630678160       12.5203769454
O         22.7333912586       28.8775464298       11.6108654162
C         20.0665840093       29.7569556864       12.2162644191
C         18.9860982165       29.5699552633       11.1167494760
C         19.5317194130       30.4032460132       13.5256245460
C         19.4991473057       28.8250774712        9.8892377917
C         19.0174654652       31.8531174506       13.3213399028
O         18.4993316217       29.5991818303       14.1070402163
C         20.4428602587       29.4267871459        9.0368502313
C         19.0416569770       27.5251868970        9.6035221725
N         18.4429577472       32.4781094749       14.5402710929
C         20.9223922854       28.7381069735        7.9101367367
C         19.5171699774       26.8371486087        8.4749407419
C         17.6099370341       33.6708064679       14.2576464468
S         19.3340341639       32.3752932774       16.0030928976
C         20.4561469968       27.4445121323        7.6266790110
C         16.1664259565       33.5174604482       14.7963359773
C         18.7065080271       33.6783791874       17.0967665332
O         18.9673704523       31.0694584148       16.5663227730
O         20.7119192705       32.7238828206       15.6363539793
C         15.4083386563       34.8563609143       14.6879459966
C         15.4017024087       32.4074605907       14.0412777672
C         17.7120135745       33.3898071375       18.0531938998
C         19.2260240435       34.9864726020       17.0165020218
C         17.2255588595       34.4029598519       18.8965228598
C         18.7364620473       35.9960166398       17.8622613508
C         17.7340693234       35.7070777757       18.8004600103
N         17.2527108332       36.7021119997       19.6297130661
H         23.1312942265       22.2720627494        5.8247313006
H         23.5786118073       24.7216508640        5.9044317288
H         22.1399719475       21.1250049376        7.8018528113
H         23.0342948025       26.0217008100        7.9408877316
H         21.5962096995       22.4147662700        9.8481339837
H         23.0130162497       26.8753733856       10.0364332406
H         23.8488289968       25.6000219376       10.9866064484
H         22.7809962903       26.3068190687       12.9174720539
H         20.0938101572       27.7245025147       12.8672115771
H         20.8368604740       30.4301518985       11.8149990013
H         18.1266587006       29.0366626521       11.5425996097
H         18.6067398855       30.5477417050       10.7993836422
H         20.3842129802       30.4414518528       14.2175696224
H         19.8463264930       32.4701012749       12.9495812435
H         18.2471431233       31.8340505937       12.5413564910
H         18.3629010838       29.9510386860       15.0175223521
H         20.8096660814       30.4266952276        9.2520820218
H         18.3200456611       27.0444087054       10.2587720137
H         21.6530767443       29.2079385461        7.2566950869
H         19.1616235991       25.8319807117        8.2614289992
H         18.0742521053       34.5726499159       14.6743366830
H         17.5431123401       33.8429987710       13.1747570460
H         20.8235325680       26.9120885454        6.7529812510
H         16.2017270229       33.2390778990       15.8561155193
H         14.3897687993       34.7622364981       15.0857892113
H         15.9181577887       35.6413357839       15.2618626956
H         15.3361247186       35.1884474518       13.6442225201
H         15.9038658210       31.4373470949       14.1511565029
H         14.3821267229       32.2993895093       14.4324217440
H         15.3322794425       32.6329462246       12.9695294263
H         17.3099310988       32.3828894473       18.1369601465
H         20.0041655498       35.2213266181       16.2940320619
H         16.4529125983       34.1743547609       19.6254940709
H         19.1367733746       37.0035193535       17.7890249522
H         17.6165160590       37.6466334179       19.5679348294
H         16.5296210224       36.5010108920       20.3116103365
    77
VM2 Rank=11     G=194.938           E=103.967           -TS=90.971              
C         23.7464508312       24.5979136347        6.2471342486
C         24.7100799386       24.8474980094        7.2371982918
C         22.3810945896       24.6878293031        6.5609442620
C         24.3087648124       25.1873416303        8.5400882946
C         21.9806784410       25.0270862895        7.8638853073
C         22.9406916646       25.2780490984        8.8627319184
N         22.5330522004       25.6323099486       10.1781904949
C         23.1369784816       26.7551265355       10.8860325078
C         21.5402253374       25.0229111955       10.9212415215
C         22.3216514692       26.8435133500       12.1890711315
O         20.8848084364       24.0417095564       10.6151087218
O         21.4531691431       25.6822816539       12.1110735252
C         21.5313084120       28.1629711587       12.3081777148
N         20.1916045818       28.0293012722       12.5934551859
O         22.0382508587       29.2574367244       12.1256902171
C         19.2099417160       29.1124067883       12.4564897983
C         17.8765086129       28.5403702508       11.9131140365
C         19.0610338188       29.8890728074       13.7949899401
C         18.0582747924       27.8350322957       10.5752724407
C         18.2361641704       31.1916515809       13.6177638307
O         18.4664448050       29.0571209068       14.7959502977
C         18.1697720163       28.5859358671        9.3909512214
C         18.1365011739       26.4312751142       10.5135559546
N         18.4168439889       32.1975430874       14.6998801543
C         18.3539294761       27.9407391985        8.1566559605
C         18.3198511021       25.7851246433        9.2799794377
C         19.7972212410       32.7140141665       14.9092806851
S         17.4603947347       31.9946138699       16.1017093476
C         18.4272528809       26.5397252896        8.1006886703
C         20.4998087553       33.2413082797       13.6309337774
C         17.5853190228       33.5895257740       16.9445315721
O         16.0827520259       31.9111788701       15.6017064859
O         18.0711519586       30.9086264674       16.8796471012
C         19.7138860059       34.4109111812       12.9956367017
C         21.9348700720       33.6974473942       13.9675668049
C         18.3200350744       33.7079130752       18.1408326028
C         16.9678426295       34.7299130737       16.3944411168
C         18.4311482430       34.9545722993       18.7798154450
C         17.0824914178       35.9742021801       17.0371283601
C         17.8132576656       36.0883167852       18.2298030817
N         17.9254934017       37.3131793929       18.8596518316
H         24.0571812002       24.3351527512        5.2388525798
H         25.7678045445       24.7772925430        6.9954159063
H         21.6334593973       24.4954293058        5.7953798823
H         25.0651862997       25.3734998889        9.2974700586
H         20.9219416493       25.0960230928        8.0952928729
H         23.0530616645       27.6733272089       10.2895851723
H         24.1915088122       26.5504911729       11.1077897976
H         22.9785997226       26.7698108976       13.0642599163
H         19.8548917047       27.0865327665       12.7412728668
H         19.5942743776       29.8189556820       11.7070569435
H         17.4461050531       27.8491193976       12.6491325494
H         17.1453598851       29.3488960865       11.7963157077
H         20.0782996072       30.1607903277       14.1047783041
H         18.5124412523       31.6462865122       12.6590292375
H         17.1743108910       30.9275445759       13.5275378187
H         18.4814004887       29.5606878349       15.6439663077
H         18.1170462087       29.6707362345        9.4279605709
H         18.0603225970       25.8397525420       11.4220079203
H         18.4400850271       28.5263016125        7.2447706447
H         18.3830533205       24.7003215388        9.2401272463
H         19.7807185849       33.5424878436       15.6285247282
H         20.4177911446       31.9281015791       15.3603563148
H         18.5694707323       26.0401558845        7.1456585122
H         20.5823814678       32.4282774819       12.8964762247
H         18.7037795828       34.0998827286       12.7016133413
H         19.6167818125       35.2483382383       13.6985938943
H         20.2221354885       34.7803381192       12.0958906804
H         22.5202386963       32.8697579149       14.3885731386
H         22.4550071196       34.0478127861       13.0667560341
H         21.9306338597       34.5176628573       14.6971824678
H         18.8059146939       32.8362302141       18.5729302336
H         16.4041739458       34.6502994467       15.4677840327
H         18.9991044864       35.0401329664       19.7022285775
H         16.6046164470       36.8503510737       16.6073998035
H         18.4509688087       37.4041064670       19.7222390761
H         17.4814911451       38.1371469250       18.4692909705
    77
VM2 Rank=12     G=194.952           E=103.965           -TS=90.987              
C         23.8278092320       23.2389217786        7.2581930924
C         24.6545374348       24.1145787066        7.9787052540
C         22.4658281042       23.1402973358        7.5812002590
C         24.1193438706       24.8929879872        9.0186729432
C         21.9318703148       23.9181767378        8.6217391690
C         22.7515943676       24.8043182894        9.3486895387
N         22.2077998305       25.6021235703       10.3975488392
C         22.5768822084       27.0050149074       10.5640602819
C         21.2804443227       25.2020909093       11.3437470403
C         21.8889184919       27.4035021296       11.8799165252
O         20.7598234877       24.1052990892       11.4546936596
O         21.0306819875       26.2680828215       12.1566038779
C         21.1356367748       28.7443651064       11.7977876604
N         19.8058437022       28.7016064089       12.1543008727
O         21.6600175255       29.7679514509       11.3927585931
C         18.8090239953       29.6652620041       11.6610270182
C         17.6847527974       28.8957195015       10.9258966198
C         18.2788854788       30.5782676363       12.7992929105
C         18.2290323931       27.9387518846        9.8711552309
C         19.4309898806       31.3641705245       13.4806751135
O         17.3186040159       31.5034329376       12.2828422023
C         18.1038682719       26.5474951374       10.0403102824
C         18.8924565594       28.4392619020        8.7357470655
N         18.9888246184       32.3859622934       14.4639764230
C         18.6297924039       25.6667502290        9.0812296463
C         19.4255685416       27.5591598464        7.7796558650
C         20.0465787480       33.3685317956       14.7994525658
S         17.8622725795       31.8983379626       15.6630698280
C         19.2921918757       26.1723490188        7.9510005626
C         19.5908957196       34.8289741022       14.5600902960
C         17.9706764878       33.1019534165       17.0148824481
O         16.5522779312       32.0386966749       15.0141302155
O         18.3645846889       30.6134649859       16.1641264086
C         20.6289034532       35.8154773573       15.1332132427
C         19.3644032252       35.1047085639       13.0569745982
C         17.0781367503       34.1915435550       17.0735192928
C         18.9320263626       32.9435651917       18.0337590168
C         17.1669813694       35.1238794216       18.1209882316
C         19.0166965941       33.8785380244       19.0791192825
C         18.1374803924       34.9710378492       19.1226348469
N         18.2240632106       35.8903909545       20.1506131799
H         24.2420614935       22.6365855394        6.4533327338
H         25.7108929261       24.1896302613        7.7324582309
H         21.8236805257       22.4608179117        7.0262051592
H         24.7779002423       25.5581547041        9.5692951304
H         20.8764061209       23.8280432768        8.8591927444
H         22.1892420442       27.5928186653        9.7210717964
H         23.6624712686       27.1355187376       10.6432835146
H         22.6386608401       27.4934114953       12.6756123000
H         19.4753626076       27.7948498170       12.4618514591
H         19.2908334745       30.3206226361       10.9218076119
H         17.0805136185       28.3494119070       11.6609926874
H         17.0048984270       29.6128282796       10.4484666661
H         17.8002486808       29.9324991823       13.5481797647
H         20.0996418698       30.6491228237       13.9778731427
H         20.0125173697       31.8485378220       12.6848371751
H         16.9175199006       31.9454002381       13.0679005829
H         17.6021641253       26.1465465502       10.9168821377
H         19.0015005234       29.5117793411        8.5987609860
H         18.5267099322       24.5932241764        9.2178489999
H         19.9401406464       27.9518873249        6.9063263003
H         20.3756610617       33.2398624770       15.8376456578
H         20.9377616219       33.1964385766       14.1804176132
H         19.7018128220       25.4916723736        7.2089169503
H         18.6420519604       35.0049566527       15.0796578260
H         20.3052691853       36.8536395087       14.9845404294
H         20.7613829609       35.6598545410       16.2119556685
H         21.6053824481       35.6910553223       14.6475400891
H         19.0343387242       36.1384996169       12.8940661949
H         20.2860658875       34.9475419157       12.4823118687
H         18.5926022620       34.4407470048       12.6461031223
H         16.3220831465       34.3210701493       16.3027017045
H         19.6171728616       32.0993514176       18.0112264115
H         16.4809317361       35.9658191236       18.1543929535
H         19.7655489549       33.7535953412       19.8564707091
H         18.9215109949       35.7860046866       20.8792720534
H         17.5913668692       36.6818525204       20.1900736138
    77
VM2 Rank=13     G=194.965           E=103.270           -TS=91.695              
C         22.8398917683       22.8473089107        6.7766193221
C         21.9541914353       22.2364030565        7.6780445645
C         23.3081404827       24.1463557869        7.0282620816
C         21.5352806207       22.9251365269        8.8285890973
C         22.8899431866       24.8341182980        8.1794788526
C         21.9955054817       24.2314984241        9.0862179950
N         21.5744009252       24.9274691943       10.2544810398
C         22.5144238267       25.6873640682       11.0700679616
C         20.2934820656       24.9643565571       10.7727564570
C         21.6533455934       26.2038387998       12.2378565267
O         19.2922321061       24.4461375526       10.3087856378
O         20.3327667176       25.6914500323       11.9244766736
C         21.6696077167       27.7400428721       12.3739836658
N         20.4497498059       28.3225936540       12.6421658107
O         22.6775747758       28.4072476566       12.2093519031
C         20.1347097299       29.7329283518       12.3736660922
C         19.2961772327       29.8434582247       11.0711429660
C         19.4568029052       30.3673383163       13.6215000968
C         19.9193046180       29.1073557870        9.8901568873
C         19.2620899316       31.9020275865       13.4922461789
O         18.1986874704       29.7406378407       13.8913909824
C         19.3116761160       27.9474331294        9.3744023772
C         21.1136307540       29.5752236070        9.3122962502
N         18.5667190168       32.5530353875       14.6410122135
C         19.8877436977       27.2667769428        8.2890230488
C         21.6930729575       28.8929684481        8.2294846844
C         18.2102690869       33.9807455845       14.4051429024
S         19.1578205464       32.1513467183       16.2024041011
C         21.0776154200       27.7407842716        7.7148995073
C         17.3544576528       34.2588191669       13.1398998789
C         18.4640558404       33.3820007233       17.3357228245
O         18.5170775532       30.8665758717       16.5130420685
O         20.6151976918       32.3159801335       16.1406346826
C         16.0593025996       33.4144586703       13.1292469961
C         16.9995955238       35.7590614045       13.0645330283
C         19.2275141006       34.4987667754       17.7309614217
C         17.1462211171       33.2404477831       17.8143751950
C         18.6769549610       35.4605371826       18.5949566373
C         16.6006264297       34.2053078306       18.6779788595
C         17.3642052139       35.3157188324       19.0692333680
N         16.8249353246       36.2639440395       19.9175091617
H         23.1638345920       22.3146447260        5.8858208654
H         21.5928594850       21.2290707256        7.4861428999
H         23.9948997156       24.6206413918        6.3315038992
H         20.8532321093       22.4377643456        9.5204550314
H         23.2585489460       25.8402903401        8.3572933237
H         22.9351230090       26.5201745514       10.4919175006
H         23.3220843305       25.0393257843       11.4328871634
H         22.0029919066       25.7806222942       13.1873689906
H         19.6711155252       27.6881886405       12.7739019354
H         21.0773561350       30.2731143363       12.2089067237
H         18.2861094208       29.4573548222       11.2583972809
H         19.1702169130       30.8972722505       10.7986455947
H         20.1369385440       30.1800588873       14.4636496113
H         20.2481674388       32.3651876427       13.3540257659
H         18.6912343283       32.0720058583       12.5758484684
H         17.9522248771       30.0213368660       14.8036838240
H         18.3941188338       27.5691194377        9.8173235683
H         21.5963631147       30.4648661768        9.7075020372
H         19.4145629886       26.3696595011        7.8970564412
H         22.6170577218       29.2586187950        7.7888308027
H         17.6245937582       34.3660390145       15.2476719421
H         19.1288091257       34.5813947561       14.3528066081
H         21.5228558886       27.2142311541        6.8744855594
H         17.9397091292       34.0227386745       12.2412834415
H         15.4570357590       33.6330175427       12.2383394158
H         16.2835398667       32.3400402183       13.1210538229
H         15.4450312901       33.6235748382       14.0143549257
H         16.4251600591       35.9798850852       12.1556628805
H         16.3977910312       36.0692732539       13.9287290367
H         17.9071095650       36.3761407827       13.0432842358
H         20.2445203467       34.6231557338       17.3666142331
H         16.5449904735       32.3858057492       17.5129596307
H         19.2704434629       36.3198242764       18.8951942679
H         15.5833436540       34.0907441980       19.0422858093
H         17.3705382311       37.0685771004       20.2061904449
H         15.8775652776       36.1660626001       20.2658742513
    77
VM2 Rank=14     G=194.998           E=103.033           -TS=91.964              
C         23.8980763421       24.0717942837        6.7088314173
C         24.4462215102       25.3452030397        6.9264023812
C         22.8987170415       23.5862716564        7.5659055291
C         23.9933148614       26.1333695756        7.9976370690
C         22.4472919463       24.3745382811        8.6372444679
C         22.9870382364       25.6566229331        8.8623019465
N         22.5213340830       26.4616518560        9.9427913559
C         22.2775462631       27.8924005971        9.7833516293
C         22.2188051852       26.0314929197       11.2229546028
C         21.9504018003       28.3619596655       11.2102493965
O         22.2912202176       24.8957751303       11.6601669109
O         21.8100007161       27.1170318193       11.9398561094
C         20.7083999162       29.2688349833       11.2900432104
N         19.7394940638       28.8704852405       12.1847050728
O         20.5629649336       30.2469714495       10.5769208381
C         18.3225339370       29.2521865583       12.0643463261
C         17.4748879117       27.9676776827       11.8867217965
C         17.8680144676       30.1289561973       13.2641266066
C         18.0154749668       27.0552428529       10.7908362292
C         18.6366239440       31.4793346693       13.3041877444
O         16.4647795802       30.3856901459       13.1787890513
C         18.0343457126       27.4884300895        9.4521490613
C         18.5321957113       25.7867720052       11.1130424411
N         18.5960091793       32.1852921999       14.6136725234
C         18.5652901906       26.6638364685        8.4466050206
C         19.0555144428       24.9580671210       10.1073748547
C         19.1773538122       31.4626373855       15.7778052043
S         17.2247618942       33.1571370318       14.9212966567
C         19.0740856799       25.3971291087        8.7737270780
C         20.6124230420       30.9158865122       15.5571964253
C         17.7245574639       34.1783717119       16.3273816568
O         17.1487358059       34.0665884132       13.7715531822
O         16.1252466102       32.2452187151       15.2638038898
C         21.6085202508       32.0524540741       15.2331860376
C         21.0840921578       30.1483161390       16.8097910178
C         18.6984770421       35.1824209836       16.1608403241
C         17.1636627130       33.9609667638       17.6013861818
C         19.1035840233       35.9620173237       17.2574539536
C         17.5719518772       34.7438174062       18.6946636503
C         18.5412814235       35.7444206617       18.5247281394
N         18.9417690434       36.5117283483       19.6019730101
H         24.2485596477       23.4619327218        5.8797109607
H         25.2233225721       25.7216620146        6.2656861782
H         22.4740860180       22.5990739485        7.4009987842
H         24.4364884418       27.1124706167        8.1534316133
H         21.6743758250       23.9825920856        9.2910866179
H         21.4245933897       28.0500923920        9.1095322786
H         23.1599406607       28.4172199750        9.3989982656
H         22.7986470484       28.9263368597       11.6168707164
H         19.9606902804       28.0312160859       12.7067636883
H         18.1940443316       29.8562764022       11.1552720183
H         17.4320896634       27.4301334076       12.8422839378
H         16.4398487185       28.2440041759       11.6488371037
H         18.0838994146       29.5602052601       14.1774055670
H         19.6833595403       31.3011880356       13.0351665867
H         18.2413477551       32.1283397692       12.5114474080
H         16.2057699425       30.8753029090       13.9957276973
H         17.6452351492       28.4693332961        9.1927442637
H         18.5323186901       25.4425668761       12.1437434108
H         18.5810077865       27.0060028087        7.4149196208
H         19.4495923350       23.9781196699       10.3642744568
H         19.2204820164       32.1293294065       16.6481473107
H         18.5170460243       30.6314784770       16.0591546866
H         19.4818855042       24.7578644922        7.9947102600
H         20.6072522420       30.2022561103       14.7223899285
H         21.6463357119       32.7874808049       16.0474958560
H         22.6209493367       31.6551868238       15.0869693552
H         21.3245533327       32.5816205774       14.3150373477
H         22.0867832445       29.7288687878       16.6567791177
H         21.1225641038       30.8063198734       17.6876728862
H         20.4061902027       29.3157773092       17.0380154374
H         19.1425430404       35.3533170072       15.1828998253
H         16.4149295416       33.1853575651       17.7443345284
H         19.8558633446       36.7344123287       17.1227603921
H         17.1360329211       34.5717990895       19.6750312203
H         18.5398596144       36.3615220677       20.5208584846
H         19.6410969528       37.2371928109       19.4876153988
    77
VM2 Rank=15     G=195.070           E=104.549           -TS=90.522              
C         22.7999365217       24.6017460384        6.0219204352
C         22.9436151313       23.6354785035        7.0299967070
C         22.5074716733       25.9313165789        6.3639548449
C         22.7928170983       23.9982953047        8.3787898086
C         22.3584570986       26.2939157850        7.7128195039
C         22.4948431788       25.3292824419        8.7304644995
N         22.3430233694       25.6975710983       10.0964645304
C         22.9639079874       26.9028448631       10.6345192596
C         21.6494416794       24.9951727224       11.0640964634
C         22.5825909633       26.8757059084       12.1245717032
O         21.0280204037       23.9559575832       10.9237403263
O         21.7761115574       25.6745964290       12.2393854296
C         21.8285885764       28.1480354249       12.5558567650
N         20.4679499574       28.0073604160       12.7141249122
O         22.3756621153       29.2315581484       12.6699980363
C         19.5249308514       29.1203847805       12.5398649134
C         18.2203763106       28.5891605551       11.8931629110
C         19.3016986589       29.8642747879       13.8853334129
C         18.4897443392       27.8335632919       10.5975826502
C         18.3810005797       31.1012680720       13.7343292546
O         18.7561907925       28.9631440600       14.8476821896
C         18.8344605286       28.5359376790        9.4284309164
C         18.4247881148       26.4281288680       10.5655547416
N         18.5550952016       32.1341256729       14.7907052603
C         19.1088853899       27.8413463376        8.2386029456
C         18.6991017110       25.7329548480        9.3762402968
C         19.8669516319       32.8338929310       14.8321274808
S         17.8312763759       31.8334148138       16.3107307812
C         19.0405950699       26.4392380442        8.2123516398
C         20.3043631738       33.4856881118       13.4949515347
C         17.5975474873       33.5025527370       16.9661666734
O         16.4791807456       31.3456532813       16.0076641139
O         18.7716853360       31.0579367936       17.1289849128
C         19.2673576830       34.5215311191       13.0038602522
C         21.6808769083       34.1623419225       13.6631033013
C         16.6785486902       34.3785037042       16.3557208887
C         18.3485299483       33.9470435355       18.0723539092
C         16.5112843517       35.6833466338       16.8495351957
C         18.1770331670       35.2528016195       18.5627329855
C         17.2592586379       36.1220095302       17.9529658002
N         17.0938010033       37.4059190234       18.4365578125
H         22.9153668095       24.3208543574        4.9779323108
H         23.1719492857       22.6056234308        6.7667215563
H         22.3943515765       26.6806041450        5.5843881868
H         22.9097528724       23.2410717189        9.1497360851
H         22.1223510595       27.3247053195        7.9611256951
H         22.5606239731       27.7976382229       10.1429617360
H         24.0530616834       26.8653021767       10.5062659752
H         23.4819152944       26.7896718936       12.7467573795
H         20.1135383473       27.0672091810       12.5877532736
H         19.9753473630       29.8370930584       11.8380267406
H         17.6926636353       27.9414363170       12.6049918093
H         17.5410554971       29.4247298484       11.6860040382
H         20.2899050013       30.2021192884       14.2230679606
H         18.5611078035       31.5531805295       12.7523586995
H         17.3381129440       30.7584333046       13.7175170039
H         19.3484357939       28.1827215920       14.8367126901
H         18.8937971580       29.6208794153        9.4433429740
H         18.1672374028       25.8719496964       11.4629853020
H         19.3770053850       28.3888385806        7.3386069149
H         18.6549704293       24.6466753692        9.3592607966
H         19.8335663362       33.6324529413       15.5845389686
H         20.6465071150       32.1344483665       15.1624700786
H         19.2593208187       25.9002164977        7.2938011698
H         20.4178621903       32.7056491035       12.7299118893
H         18.2919375395       34.0534795431       12.8218984206
H         19.1251096114       35.3187017429       13.7449833634
H         19.5926818347       34.9855856080       12.0641207103
H         22.4386978195       33.4345462870       13.9810191601
H         22.0186782937       34.6023036006       12.7159739532
H         21.6413241150       34.9627070257       14.4134035278
H         16.0991850029       34.0471647872       15.4970976475
H         19.0652978088       33.2827533986       18.5493465760
H         15.8013881405       36.3542913092       16.3736054263
H         18.7589365453       35.5901122315       19.4161532793
H         17.6299527389       37.7305603479       19.2337919160
H         16.4324837585       38.0401244282       18.0019721548
    77
VM2 Rank=16     G=195.104           E=104.032           -TS=91.071              
C         23.1977551221       23.2625110280        6.6627402144
C         23.0659220993       22.5768974365        7.8804917176
C         23.0419419863       24.6569682996        6.6248118209
C         22.7762181560       23.2851171140        9.0586635527
C         22.7535493778       25.3647932086        7.8033761255
C         22.6131235040       24.6840223072        9.0288723693
N         22.3228995961       25.4013720577       10.2233870590
C         23.0076354791       26.6461165183       10.5518427530
C         21.4199237566       25.0339040355       11.2029803059
C         22.4129012811       27.0432752233       11.9163197805
O         20.6908254483       24.0568542524       11.2080300107
O         21.4856489680       25.9633437187       12.1971291801
C         21.7159685797       28.4194253042       11.8998296214
N         20.5324114992       28.4906797343       12.6025378506
O         22.1484390637       29.3722737778       11.2726664263
C         19.4989792983       29.5098765583       12.3716377307
C         18.3515812262       28.9132141551       11.5129828114
C         19.0149120997       30.1009162335       13.7260850033
C         18.8410976174       28.2835908124       10.2139606336
C         18.0154695862       31.2700101196       13.5305894833
O         18.4239855810       29.0701946997       14.5233057600
C         18.7977381067       26.8877302059       10.0399593437
C         19.3515697410       29.0917470937        9.1818142299
N         18.0637722429       32.3033396191       14.6009068411
C         19.2547756451       26.3065441626        8.8455994150
C         19.8120908354       28.5114888221        7.9880984606
C         17.7797326121       33.6703429610       14.0925744751
S         17.3667619350       31.8951872531       16.1135411119
C         19.7602594076       27.1187483311        7.8184292864
C         18.9703256815       34.2915462536       13.3167076386
C         17.7284460116       33.3166665662       17.1739241454
O         15.9231095099       31.7454662860       15.8963337582
O         18.1914371176       30.8031230306       16.6459202801
C         18.5766536533       35.6758790985       12.7604131361
C         20.2216896639       34.4222001707       14.2141581193
C         19.0493829579       33.5629333647       17.5970366306
C         16.6999210833       34.1961300976       17.5668540616
C         19.3374256228       34.6782672631       18.4015129436
C         16.9932543875       35.3097082789       18.3722640226
C         18.3108874977       35.5527318122       18.7898025868
N         18.5965769609       36.6498627346       19.5799093030
H         23.4213764712       22.7145223063        5.7506593009
H         23.1888431959       21.4970811960        7.9119949325
H         23.1442321104       25.1895215563        5.6824881035
H         22.6811842397       22.7421896141        9.9954979710
H         22.6315143314       26.4431156801        7.7563991318
H         22.8007016996       27.4101304412        9.7915705762
H         24.0895467279       26.4802968598       10.6283770470
H         23.1965169919       27.0750610965       12.6830348120
H         20.2579832592       27.6547889916       13.1045133342
H         19.9486883657       30.3347493901       11.8015447693
H         17.8082504097       28.1666313191       12.1061179917
H         17.6215622684       29.6960068526       11.2756529133
H         19.9048451928       30.4974143007       14.2350602533
H         18.2498364088       31.7331809780       12.5654368555
H         16.9966618988       30.8697010337       13.4378026583
H         18.3711110972       29.4314852382       15.4402368037
H         18.4142576126       26.2507307519       10.8327250775
H         19.3974014597       30.1699959968        9.3080111641
H         19.2214253325       25.2270908489        8.7188011034
H         20.2074451287       29.1413307444        7.1952374147
H         16.8898620278       33.6459680950       13.4483612580
H         17.5442597546       34.3573912467       14.9133185026
H         20.1134829464       26.6689605217        6.8939070355
H         19.2269043318       33.6515780204       12.4621479212
H         19.4010242285       36.1144063336       12.1834744170
H         17.7079002341       35.5981939935       12.0940937081
H         18.3228754551       36.3716317500       13.5707939905
H         21.0546045285       34.8729004348       13.6597154744
H         20.0168922531       35.0522211138       15.0894216171
H         20.5563477946       33.4404389928       14.5722755863
H         19.8512036898       32.8926040204       17.2965019551
H         15.6762312623       34.0193685883       17.2453985668
H         20.3588918274       34.8639027842       18.7220373456
H         16.1963542716       35.9853306925       18.6709187584
H         17.8608055336       37.2872862502       19.8639682373
H         19.5461634189       36.8332795411       19.8848244597
    77
VM2 Rank=17     G=195.150           E=103.673           -TS=91.477              
C         21.1624895370       24.1575138337        6.5465413209
C         21.4038493618       23.3283832213        7.6532244853
C         21.1442239568       25.5517307473        6.7079036707
C         21.6244236842       23.8931366646        8.9205111698
C         21.3665206158       26.1159635423        7.9749206093
C         21.6029389787       25.2910676703        9.0923043726
N         21.8275425984       25.8639185012       10.3754925718
C         22.7093871105       27.0121344973       10.5537356018
C         21.2978481933       25.4259809316       11.5749602623
C         22.7025145328       27.2450097366       12.0742212901
O         20.5298786999       24.4958882857       11.7510799235
O         21.7887224638       26.2285145267       12.5618413993
C         22.2634617446       28.6746151735       12.4437178755
N         20.9747756092       28.7968759907       12.9129319441
O         22.9708560791       29.6501171284       12.2584862586
C         20.1857736878       30.0282215033       12.7714750511
C         18.7028993871       29.6570613997       12.5107749213
C         20.3962236725       30.9534501964       14.0017681350
C         18.5496005505       28.6863631161       11.3461324646
C         19.6550676046       32.3068363507       13.8627696694
O         19.9797150134       30.2766550184       15.1847613832
C         18.2653012228       27.3286336583       11.5831132650
C         18.7211629029       29.1357444005       10.0241495026
N         20.0616411391       33.3445951993       14.8520370736
C         18.1513073083       26.4305840955       10.5091126810
C         18.6071467555       28.2381922537        8.9495358833
C         21.4797700352       33.7842392671       14.8159894358
S         19.3619739480       33.3441557377       16.4165377239
C         18.3218791693       26.8850269245        9.1921036692
C         22.0027179205       34.2207107391       13.4219612097
C         17.7000203534       32.6544669906       16.2058635919
O         20.1798589373       32.4921326086       17.2882402557
O         19.1675208037       34.7704775909       16.7074314409
C         21.1823854103       35.3992398298       12.8498619931
C         23.4911659698       34.6165874275       13.5162943574
C         16.7048879169       33.4042423332       15.5472182743
C         17.3894407935       31.3670730487       16.6863535504
C         15.4190123985       32.8676962517       15.3651778128
C         16.1026339418       30.8340125695       16.5006083304
C         15.1164476263       31.5823064266       15.8398691846
N         13.8520123649       31.0554446113       15.6569863840
H         20.9905652480       23.7205448161        5.5659103040
H         21.4203693064       22.2483561842        7.5294472966
H         20.9562662622       26.1953127243        5.8520825342
H         21.8135698824       23.2397566115        9.7682775386
H         21.3400023962       27.1962154139        8.0853925560
H         22.3146941723       27.8875431588       10.0219084681
H         23.7205087578       26.7816590651       10.1950782975
H         23.7051916215       27.0827065334       12.4884689934
H         20.4697565939       27.9256719733       13.0198541658
H         20.5544065583       30.5657292728       11.8859308431
H         18.2637741066       29.2270011440       13.4203228559
H         18.1240682673       30.5634396723       12.2971684229
H         21.4737762410       31.1557666485       14.0620194656
H         19.8374120732       32.6876059101       12.8511275676
H         18.5761573050       32.1253701798       13.9128679765
H         20.4300121082       29.4075099929       15.1566900234
H         18.1377216013       26.9660956297       12.5996543424
H         18.9473284636       30.1807241763        9.8300865440
H         17.9392527902       25.3811244589       10.6985022410
H         18.7427965546       28.5901901074        7.9300755547
H         21.6048456248       34.6358326504       15.4992010407
H         22.1189698245       32.9795919150       15.2040697982
H         18.2402308779       26.1881060694        8.3615900166
H         21.9366680126       33.3725589600       12.7269158357
H         20.1265740331       35.1278171524       12.7270876373
H         21.2298226806       36.2711974055       13.5147530558
H         21.5642364498       35.7008912681       11.8662376172
H         23.6335907893       35.4678732224       14.1945632507
H         24.0960218075       33.7796855003       13.8887508560
H         23.8841495952       34.8987240593       12.5310474143
H         16.9321311826       34.3995780050       15.1726152555
H         18.1490700318       30.7762294206       17.1927910604
H         14.6578278156       33.4503191920       14.8535687807
H         15.8730787679       29.8377137166       16.8681760194
H         13.6264585984       30.1261446900       15.9941110629
H         13.1346873707       31.5888915310       15.1784170441
    77
VM2 Rank=18     G=195.163           E=102.777           -TS=92.386              
C         22.8940928044       25.3984446295        5.8695982721
C         23.6030826582       26.5164495609        6.3351768781
C         21.9672024109       24.7608111390        6.7082414338
C         23.3830916773       26.9981871857        7.6364871675
C         21.7486960395       25.2425168326        8.0094465116
C         22.4512979079       26.3673134504        8.4857872745
N         22.2218175273       26.8633316664        9.8025089931
C         22.1197755809       28.2939899333       10.0761103531
C         22.0423003183       26.1099266689       10.9495099634
C         22.0371619483       28.3608333139       11.6097391490
O         22.0441878520       24.8946719445       11.0464871198
O         21.8528250213       26.9733880004       11.9877841745
C         20.9276960858       29.2958775513       12.1255476366
N         20.0297425329       28.7255207683       13.0007836570
O         20.8148262293       30.4501251851       11.7496287854
C         18.6604053615       29.2303328788       13.1940145662
C         17.6595555808       28.1060138234       12.8288621654
C         18.4579886077       29.7929765249       14.6280830255
C         17.9475421676       27.4879961746       11.4649220734
C         19.3844682931       31.0118458131       14.8929520615
O         17.0954953490       30.1817998280       14.8105024396
C         17.8253131227       28.2618415991       10.2960798046
C         18.3714478539       26.1499808949       11.3657304332
N         19.5005819162       31.4126198344       16.3236231630
C         18.1244580785       27.7051393524        9.0416832234
C         18.6630187356       25.5899305685       10.1113833636
C         20.0555275554       30.3951296355       17.2536955451
S         18.2936118188       32.4191316845       16.9972241274
C         18.5411925204       26.3679391434        8.9487737097
C         21.3993728482       29.7582138918       16.8092367385
C         17.9627888129       33.6468367282       15.7098826340
O         17.1242284588       31.5649593316       17.2444035055
O         18.9761709387       33.1387280177       18.0797339762
C         22.5072969809       30.8230074726       16.6426846019
C         21.8455389379       28.6952101333       17.8348211114
C         18.9011661238       34.6644030083       15.4472192781
C         16.7784337642       33.5845096078       14.9489609248
C         18.6554449403       35.6086317154       14.4359885470
C         16.5379011417       34.5307402718       13.9383535057
C         17.4745949512       35.5434011028       13.6806207446
N         17.2356585459       36.4722931327       12.6857273611
H         23.0643449446       25.0257364032        4.8624672474
H         24.3244888725       27.0095880192        5.6882293320
H         21.4184000331       23.8929653191        6.3508569552
H         23.9482024204       27.8594957639        7.9801475315
H         21.0289431757       24.7361065176        8.6450870256
H         21.2084432144       28.6957639283        9.6129784992
H         22.9967653075       28.8432975515        9.7142662679
H         22.9899493496       28.7231225264       12.0151088798
H         20.2119867197       27.7550367820       13.2261864547
H         18.4874943165       30.0600432698       12.4942113930
H         17.6833264270       27.3350464995       13.6091894282
H         16.6392716182       28.5100842315       12.8339940092
H         18.7095357054       28.9881772346       15.3308125651
H         20.3862371124       30.7760625231       14.5179774920
H         19.0432151367       31.8490510117       14.2724165549
H         16.9828353784       30.4234737199       15.7601656520
H         17.5062021571       29.2985623089       10.3615518490
H         18.4789887980       25.5431288457       12.2607097582
H         18.0319010681       28.3092930875        8.1427227269
H         18.9869245739       24.5545291871       10.0430061151
H         20.2186954888       30.8596718715       18.2360497634
H         19.3153583989       29.5985273012       17.4074381247
H         18.7692723307       25.9364597339        7.9773783935
H         21.2585323398       29.2430634346       15.8493024181
H         22.2369219603       31.5639703510       15.8801659517
H         22.6834070969       31.3585084495       17.5843859104
H         23.4525464511       30.3590127478       16.3337317923
H         22.7790016560       28.2129233967       17.5173293218
H         22.0145863469       29.1431090641       18.8226697865
H         21.0853077998       27.9108543605       17.9425706079
H         19.8210354574       34.7193525376       16.0247717927
H         16.0474953814       32.8015487241       15.1361378632
H         19.3837739619       36.3903131959       14.2380900318
H         15.6235382180       34.4757352242       13.3539500547
H         17.9075093560       37.2070620201       12.4931842792
H         16.3849751438       36.4319548219       12.1352392549
    77
VM2 Rank=19     G=195.166           E=106.724           -TS=88.442              
C         26.6125959792       25.4780663911       11.0676532620
C         26.0208239579       26.6935241929       11.4474193589
C         25.8124062604       24.4288565343       10.5874821129
C         24.6292641575       26.8594614242       11.3478405469
C         24.4209242555       24.5950638784       10.4878225491
C         23.8219046952       25.8110839911       10.8672294121
N         22.4148108416       25.9767837241       10.7725447025
C         21.6189169368       26.4065500516       11.9157240198
C         21.6357964517       25.7310609182        9.6582310480
C         20.2036382232       26.5394211754       11.3252368056
O         22.0102506659       25.3155856300        8.5746718195
O         20.3383406384       25.9605631188       10.0060575555
C         19.7379948487       28.0040369057       11.2246524194
N         18.4319333221       28.2346242164       11.6022743731
O         20.4576894029       28.9007147340       10.8162249987
C         17.6974381672       29.4724359569       11.2893637386
C         16.2931594600       29.1002864222       10.7523116818
C         17.6309317805       30.4288244864       12.5135648648
C         16.3595406713       28.1551679516        9.5590075038
C         19.0452857857       30.8246095289       13.0160626176
O         16.9074542144       31.6154411037       12.1764654092
C         16.7668627558       28.6350321141        8.3009354938
C         16.0395975985       26.7928684389        9.7089177006
N         19.0601585551       31.8634737711       14.0774289074
C         16.8551227812       27.7624892305        7.2034251899
C         16.1280921668       25.9192073360        8.6123124336
C         20.3903851069       32.4919653926       14.2575407733
S         18.0365688469       31.6246012414       15.4336973531
C         16.5362406959       26.4038404272        7.3591539973
C         20.3353960566       34.0341501651       14.1295281757
C         18.6810687569       32.6598843705       16.7754963013
O         16.7366475934       32.1605323416       15.0097439099
O         18.2277047886       30.2207353086       15.8171260014
C         21.6840311746       34.6553702685       14.5471171035
C         19.9721271784       34.4628765080       12.6904675755
C         18.1497780082       33.9456822656       17.0028670375
C         19.7015082676       32.1770865220       17.6198823194
C         18.6537433260       34.7463268907       18.0417694224
C         20.2019447461       32.9815530579       18.6574306758
C         19.6818389174       34.2675223419       18.8677841300
N         20.1770819628       35.0576396718       19.8875346985
H         27.6895664758       25.3497050998       11.1446562927
H         26.6400547159       27.5070516292       11.8174289372
H         26.2698069532       23.4874233477       10.2930974814
H         24.1818253143       27.8064702162       11.6379780884
H         23.8086859646       23.7769688526       10.1166933780
H         21.9819817247       27.3617917567       12.3161708114
H         21.6436682232       25.6397998854       12.7003146342
H         19.4804966816       25.9762142107       11.9280458331
H         17.8958050910       27.4331288078       11.9058289283
H         18.2282638850       30.0024003567       10.4856143740
H         15.6995286691       28.6546451639       11.5604337141
H         15.7612880274       30.0136729824       10.4569100302
H         17.1066220149       29.8979979625       13.3199274022
H         19.5532664461       29.9246870971       13.3863798777
H         19.6135347940       31.1811874292       12.1465256698
H         16.7724806600       32.1014892829       13.0237892332
H         17.0213585182       29.6842894426        8.1763621215
H         15.7268129671       26.4090135921       10.6761609738
H         17.1730351607       28.1386465969        6.2342353431
H         15.8821019207       24.8672988455        8.7342713783
H         20.8224933867       32.2072752157       15.2244607782
H         21.0926198351       32.1239741755       13.4969058722
H         16.6061556986       25.7277067441        6.5106419911
H         19.5647184000       34.4289598128       14.8013736779
H         21.6485442306       35.7501145310       14.4771217791
H         21.9282705519       34.3964514366       15.5857494698
H         22.5005618158       34.3001023679       13.9052942715
H         19.9271172554       35.5561582048       12.6073276926
H         20.7141294406       34.0973143189       11.9692100091
H         18.9914070235       34.0665065704       12.3965301289
H         17.3532505474       34.3280866275       16.3689381412
H         20.1105056505       31.1810528708       17.4673624129
H         18.2448799592       35.7396968097       18.2051434061
H         20.9939378844       32.6050899266       19.2990599421
H         20.9188670238       34.7182560283       20.4898913701
H         19.8055947335       35.9876063887       20.0469775181
    77
VM2 Rank=20     G=195.241           E=102.919           -TS=92.322              
C         20.6846558470       22.8651904473        7.3507729150
C         21.8710350881       23.6010491443        7.2095234018
C         19.8729572037       23.0598993723        8.4785454045
C         22.2437344322       24.5323577208        8.1931440355
C         20.2467788453       23.9903670731        9.4621206759
C         21.4343245543       24.7382448540        9.3292948760
N         21.8070239841       25.6952173280       10.3194631148
C         22.3948673930       26.9816676215        9.9568732680
C         21.6394510580       25.5787371610       11.6884954123
C         22.7018130411       27.6385572145       11.3131636813
O         21.1681122821       24.6360040935       12.3012377459
O         22.1022920641       26.7240034541       12.2644954754
C         22.1696948454       29.0795645071       11.4252729980
N         21.3868068819       29.3448985168       12.5280405085
O         22.3845577871       29.9225779679       10.5703211153
C         20.4386611433       30.4647650151       12.6111720215
C         18.9967731148       29.9652816710       12.3189683913
C         20.5817915861       31.1807904959       13.9837897477
C         18.8915165901       29.1217585881       11.0528803954
C         19.6926091706       32.4496002379       14.0754537094
O         20.2752429628       30.2716253968       15.0453943699
C         18.5215622699       27.7664853497       11.1335111125
C         19.1740129180       29.6853275582        9.7947883343
N         19.9704370300       33.3286840678       15.2467561283
C         18.4311753695       26.9855558577        9.9698983317
C         19.0986326344       28.9006876527        8.6318263940
C         21.3357404636       33.9073452762       15.3359782157
S         19.2557910085       32.9488142407       16.7544503532
C         18.7268899354       27.5496128998        8.7190950717
C         21.8139907552       34.6620537140       14.0676570589
C         17.5901597133       32.3785476762       16.3343158755
O         20.0621264447       31.8678443027       17.3367607436
O         19.0901195480       34.2467408465       17.4201968069
C         20.8729686380       35.8367883788       13.7161665601
C         23.2503595521       35.1864461964       14.2750226235
C         17.2711200589       31.0065655849       16.3761402118
C         16.6075431505       33.3050664219       15.9329083637
C         15.9844971006       30.5693554393       16.0187900732
C         15.3218199546       32.8627838089       15.5782252586
C         15.0087465628       31.4955116172       15.6197435684
N         13.7446070168       31.0626252296       15.2673456510
H         20.3960907703       22.1447368333        6.5892855017
H         22.5029821145       23.4496443301        6.3378333242
H         18.9539671215       22.4899798200        8.5912122996
H         23.1692001015       25.0860453611        8.0665247440
H         19.6049585040       24.1273034737       10.3274646787
H         21.6699189682       27.5744141889        9.3830377972
H         23.3166983559       26.8560217149        9.3770246097
H         23.7863932303       27.6729351899       11.4732359303
H         21.2798426957       28.5906819658       13.1960107312
H         20.7014595765       31.1969897095       11.8351732877
H         18.6353352607       29.3873143752       13.1790487361
H         18.3203960764       30.8231765323       12.2278987803
H         21.6323560202       31.4893602880       14.0653378487
H         19.8367239980       33.0274729788       13.1548174115
H         18.6400860226       32.1457604366       14.0626501712
H         20.4881628335       30.7237331429       15.8949912799
H         18.3010584994       27.3175810958       12.0982994821
H         19.4672844907       30.7289021033        9.7201169846
H         18.1301224309       25.9442551211       10.0376194672
H         19.3276230487       29.3401681983        7.6643430134
H         21.3684108323       34.6174931141       16.1739935360
H         22.0557282267       33.1133075484       15.5754047514
H         18.6651980226       26.9416249600        7.8198858268
H         21.8418190563       33.9659447231       13.2184502479
H         20.8204672016       36.5594759611       14.5405661035
H         21.2254308452       36.3665680055       12.8220460543
H         19.8541212512       35.4844566709       13.5127573952
H         23.6148497863       35.6957932939       13.3736304864
H         23.2962882474       35.8991896248       15.1086710748
H         23.9411246088       34.3620168622       14.4940972220
H         18.0202869392       30.2786190646       16.6779484134
H         16.8436505599       34.3658392567       15.8910846676
H         15.7464744697       29.5096667620       16.0499902693
H         14.5692175421       33.5825886900       15.2681927530
H         13.5111784774       30.0761893722       15.2923292246
H         13.0344794782       31.7252989968       14.9761445093
    77
VM2 Rank=21     G=195.241           E=105.261           -TS=89.980              
C         23.7379780691       24.8618377264        6.1538331168
C         22.3714210467       24.9009314902        6.4727676009
C         24.6969603523       25.0822239367        7.1552617116
C         21.9652142053       25.1604290933        7.7921348914
C         24.2898045653       25.3422786707        8.4746083266
C         22.9204920624       25.3821415079        8.8023638271
N         22.5062783888       25.6556364169       10.1350073937
C         23.0783689289       26.7583998662       10.8988717991
C         21.5297221206       24.9826013173       10.8441400085
C         22.3023621897       26.7218210567       12.2273582191
O         20.8905616398       24.0099324813       10.4817557347
O         21.4180996008       25.5817326830       12.0635835107
C         21.5412853831       28.0328155157       12.5089968060
N         20.1814491424       27.9058275992       12.6860196264
O         22.0871280595       29.1231909077       12.5262324907
C         19.2402022480       29.0261703894       12.5517509743
C         17.8907559834       28.4996936081       12.0012211386
C         19.1087110982       29.7905790388       13.8982821359
C         18.0558964669       27.7970435583       10.6599556754
C         18.2136645626       31.0500574227       13.7821096412
O         18.5930060012       28.9163222091       14.9012905790
C         18.2033177535       28.5522965587        9.4823447902
C         18.0827400056       26.3918232914       10.5879628308
N         18.4998831162       32.1048115661       14.7912138052
C         18.3710065379       27.9103152382        8.2441518507
C         18.2507258369       25.7489912856        9.3503916502
C         19.8273380829       32.7706787634       14.7039681370
S         17.9024498691       31.8559606491       16.3741757200
C         18.3922325694       26.5081187090        8.1776659098
C         20.1703974405       33.3711133026       13.3161165133
C         17.7793650723       33.5428962596       17.0140652592
O         16.5145163493       31.4078486503       16.1990744825
O         18.8866526511       31.0644049476       17.1225512416
C         19.1222122597       34.4191218408       12.8773778021
C         21.5718596331       34.0157312349       13.3519230100
C         16.8369904069       34.4375132192       16.4699285847
C         18.6392142185       33.9818155100       18.0403314130
C         16.7545645485       35.7553956510       16.9503982919
C         18.5523126220       35.3006902337       18.5177121245
C         17.6110078434       36.1885377337       17.9742869768
N         17.5288510683       37.4852688597       18.4448143990
H         24.0532356068       24.6608730875        5.1328267088
H         21.6273300874       24.7307384599        5.6985422956
H         25.7556491417       25.0510721420        6.9095433623
H         20.9055625505       25.1899057702        8.0277621672
H         25.0429581515       25.5060978504        9.2403186862
H         22.9262405561       27.7077349164       10.3682113773
H         24.1489385104       26.5979036353       11.0753014913
H         22.9877784939       26.5491388723       13.0661081023
H         19.8187045333       26.9626060439       12.6183232420
H         19.6523513418       29.7274827449       11.8118413821
H         17.4326086649       27.8198395165       12.7310423450
H         17.1863264895       29.3316981273       11.8833402803
H         20.1217223635       30.1067548240       14.1783092917
H         18.3274187202       31.4695723130       12.7761732159
H         17.1635269210       30.7385343181       13.8574781733
H         19.1668060715       28.1228413025       14.8755186467
H         18.1902319683       29.6380150797        9.5273478704
H         17.9765802872       25.7960849667       11.4906092843
H         18.4842638757       28.4992064543        7.3373856743
H         18.2747193419       24.6629664708        9.3019322390
H         19.8748584564       33.5916755411       15.4310047531
H         20.6144904222       32.0610108492       14.9917362569
H         18.5210021255       26.0109084511        7.2195089609
H         20.2032257787       32.5661711145       12.5693631835
H         19.0599843538       35.2414879544       13.6018122021
H         19.3812330657       34.8461870767       11.9002288062
H         18.1241990145       33.9720635635       12.7894882199
H         21.8421720350       34.4187914998       12.3674429549
H         21.6126257123       34.8383514866       14.0776826476
H         22.3352235215       33.2775883293       13.6303257462
H         16.1735154078       34.1103980797       15.6727573900
H         19.3748773573       33.3029788404       18.4652320733
H         16.0260341754       36.4406900275       16.5258426826
H         19.2180284831       35.6336164904       19.3093575813
H         16.8526347229       38.1335964018       18.0564513870
H         18.1450288103       37.8066483890       19.1833772735
    77
VM2 Rank=22     G=195.265           E=102.587           -TS=92.678              
C         20.4255907556       25.7284457475        6.4018795180
C         20.4124707074       27.0046618916        6.9864188844
C         20.9226503897       24.6325237167        7.1249080554
C         20.8962424161       27.1846192530        8.2928275732
C         21.4049147188       24.8126963540        8.4320455807
C         21.3924620517       26.0893146408        9.0263496114
N         21.8802427720       26.2720343038       10.3495615595
C         22.7949086559       27.3581981476       10.6818855889
C         21.5929233340       25.4807410133       11.4453669035
C         23.0391170086       27.1791337182       12.1902518901
O         20.8712935017       24.4991442403       11.4820214780
O         22.2686059584       25.9923051794       12.5134318208
C         22.5968092082       28.4164839477       12.9940745619
N         21.4072544760       28.2911731843       13.6777456242
O         23.2042408717       29.4729269774       12.9593147722
C         20.5291642040       29.4380236207       13.9395626426
C         19.0509060659       28.9792274341       13.8852240939
C         20.9215540547       30.1442835836       15.2688622925
C         18.6792828481       28.4245812728       12.5173770028
C         20.1630050130       31.4752077587       15.5044000156
O         20.6861433243       29.2729638629       16.3732267844
C         18.4392488732       29.3025364817       11.4448175277
C         18.5910611785       27.0361211761       12.3080173561
N         20.1867212028       32.4201065192       14.3492046381
C         18.1145950902       28.7982789487       10.1746706626
C         18.2660840919       26.5310326306       11.0382158764
C         21.5649749317       32.8511424283       13.9763150375
S         18.9926359652       33.6574539929       14.3479037591
C         18.0267650868       27.4117661588        9.9716554363
C         21.7154852889       33.4392695857       12.5487680064
C         17.5215996997       32.9069407489       15.0915985570
O         19.4975088519       34.7229327148       15.2224929801
O         18.6443846910       33.8888718312       12.9415852165
C         23.1788787331       33.8669916637       12.3096918516
C         21.2890339357       32.4259349512       11.4624583127
C         17.2184321687       33.1227657162       16.4509473734
C         16.6801999349       32.0827538491       14.3177640809
C         16.0894751661       32.5162144531       17.0273273198
C         15.5538025141       31.4773755811       14.8994988545
C         15.2571015190       31.6925407983       16.2539692950
N         14.1492287407       31.0952799218       16.8243616044
H         20.0509821655       25.5889164828        5.3907917190
H         20.0250537704       27.8538265048        6.4289901344
H         20.9341402136       23.6437290609        6.6730504479
H         20.8680660537       28.1756120831        8.7371522639
H         21.7888974737       23.9570223669        8.9814837603
H         22.3365096391       28.3327697923       10.4696686243
H         23.7308344750       27.2562619612       10.1182263379
H         24.1043938156       27.0105274172       12.3902669232
H         20.9826648683       27.3730053148       13.6404901531
H         20.6783235437       30.1587775700       13.1249397850
H         18.8630348201       28.2313274973       14.6660770020
H         18.3912208243       29.8225133042       14.1143488509
H         21.9966746056       30.3604331762       15.2270827757
H         19.1371718386       31.1934558213       15.7618414310
H         20.5840694412       31.9669852597       16.3913189124
H         21.1152099223       28.4253796161       16.1295166354
H         18.5069549352       30.3762953217       11.5956222121
H         18.7781415552       26.3462587817       13.1265601635
H         17.9329326181       29.4809392879        9.3485086451
H         18.2067877008       25.4569917783       10.8796439738
H         21.9173164327       33.5951222688       14.7041435568
H         22.2616404377       32.0073220642       14.0299122652
H         17.7813470910       27.0196676806        8.9877864668
H         21.0947915556       34.3404588825       12.4562461242
H         23.8583126538       33.0068959412       12.3762284554
H         23.2977324205       34.3163105960       11.3153923433
H         23.4968247042       34.6103924309       13.0519623235
H         20.2363085076       32.1421470659       11.5777300219
H         21.4060018957       32.8565580740       10.4600776904
H         21.8969659950       31.5134126397       11.5124938333
H         17.8595502811       33.7546523034       17.0610347211
H         16.9030271499       31.9069583963       13.2679716792
H         15.8623415331       32.6845532364       18.0765045931
H         14.9118050004       30.8398958424       14.2976976146
H         13.9284309115       31.2446969816       17.8027048600
H         13.5435432640       30.4976819610       16.2728256274
    77
VM2 Rank=23     G=195.294           E=103.183           -TS=92.110              
C         23.0190739444       23.0983480593        6.4065736560
C         24.0713926512       23.7886749213        7.0276840107
C         21.7271708077       23.1575423371        6.9514511215
C         23.8314938512       24.5395827256        8.1906351167
C         21.4884431749       23.9077805420        8.1147049936
C         22.5369125376       24.6075895981        8.7439061221
N         22.2934612142       25.3786191879        9.9170631341
C         22.8603438592       26.7123650326       10.0857704447
C         21.5033393333       25.0174886514       10.9934061333
C         22.4411727200       27.1071794181       11.5130424840
O         20.8800718887       23.9797052332       11.1384173576
O         21.5399995054       26.0381181478       11.8965570784
C         21.7991892812       28.5047395357       11.6073561116
N         20.7298044827       28.6098724317       12.4704885504
O         22.1733756360       29.4483812275       10.9305455163
C         19.6986559699       29.6528647863       12.3665264441
C         18.4167548616       29.0711151874       11.7114068276
C         19.4493797184       30.3069997840       13.7544246966
C         18.6987649150       28.2730119667       10.4428340326
C         18.4614009244       31.5009884255       13.6650503064
O         18.9671495604       29.3292179883       14.6819639781
C         18.4330704911       26.8918588795       10.4031220551
C         19.2508527491       28.9015928275        9.3113675095
N         18.4682367193       32.4116602180       14.8424950585
C         18.7128272998       26.1480722433        9.2456220453
C         19.5427555371       28.1561098778        8.1569373854
C         19.7536950939       33.0939615873       15.1526356295
S         17.5076172119       31.9525695412       16.1795236064
C         19.2730091213       26.7787239190        8.1232631744
C         20.3796327818       33.8718110800       13.9660944518
C         17.3596374806       33.4740170407       17.1453095588
O         16.1759018871       31.7066293199       15.6130405808
O         18.2498219337       30.9085215152       16.8982347596
C         19.4277210477       34.9739554359       13.4480045506
C         21.7219549745       34.4998454123       14.3958901394
C         16.6045928101       34.5549581756       16.6495465812
C         18.0175135241       33.5984095939       18.3849184405
C         16.5071529462       35.7460182306       17.3886665295
C         17.9163151978       34.7915791883       19.1203941590
C         17.1619076045       35.8659721882       18.6241550785
N         17.0654327511       37.0385485385       19.3489705896
H         23.2047398347       22.5172989084        5.5065025562
H         25.0736187930       23.7413295951        6.6088072191
H         20.9107763876       22.6219079965        6.4732514777
H         24.6599855010       25.0608989595        8.6612124564
H         20.4837375891       23.9421767980        8.5241377034
H         22.4288588320       27.3936194992        9.3401110222
H         23.9528358584       26.7028757960        9.9947089479
H         23.3165925499       27.0994002364       12.1738616415
H         20.4969357036       27.7771227344       12.9978971802
H         20.0763855152       30.4435345192       11.7035797978
H         17.8983967107       28.4348400953       12.4398936165
H         17.7221296290       29.8857563583       11.4746003742
H         20.4223874247       30.6825631511       14.0962835048
H         18.7020685078       32.0789101370       12.7648569772
H         17.4486828511       31.1080562946       13.5052945186
H         18.8997560778       29.7658210998       15.5638718272
H         18.0134479022       26.3915393878       11.2717801814
H         19.4691494023       29.9658272151        9.3327995017
H         18.4988280485       25.0827706310        9.2230809610
H         19.9777102945       28.6461128538        7.2895602805
H         19.6065876623       33.8168990854       15.9648112256
H         20.4797332336       32.3586860876       15.5245070299
H         19.4967682695       26.2022465102        7.2290936411
H         20.5944487389       33.1747370501       13.1447685805
H         18.4838198706       34.5477331111       13.0860331109
H         19.1895676015       35.6941896646       14.2413997481
H         19.8834661056       35.5246780397       12.6153343459
H         22.4239115707       33.7288185289       14.7388167288
H         22.1923747141       35.0290864507       13.5572019708
H         21.5804384386       35.2189017428       15.2132702900
H         16.0987527978       34.4712209016       15.6904523001
H         18.6079601141       32.7731908112       18.7760801184
H         15.9239747350       36.5766129319       17.0004979439
H         18.4258214885       34.8820993279       20.0758769604
H         17.5347497091       37.1331633545       20.2429705826
H         16.5217995704       37.8193523547       18.9979063006
    77
VM2 Rank=24     G=195.302           E=101.253           -TS=94.049              
C         22.4045333905       23.2431394181        8.9174333094
C         22.8711796663       24.5669435938        8.8983753723
C         21.4754045010       22.8425127473        9.8906045204
C         22.4090773258       25.4891505819        9.8518751109
C         21.0123500379       23.7655944700       10.8430446507
C         21.4734994129       25.0961374489       10.8287099918
N         21.0049566672       26.0303914650       11.7930825652
C         21.9210117001       26.9057742092       12.5152111436
C         19.6917627525       26.2194989235       12.1794340387
C         20.9946719689       27.7271682507       13.4279143092
O         18.7049125372       25.6435142078       11.7550005234
O         19.6772978056       27.1951670624       13.1306358033
C         21.1008647275       29.2382864203       13.1506628982
N         20.0462503558       29.7905934599       12.4597658479
O         22.0792611690       29.9003020514       13.4506633500
C         20.1343219090       31.0198296946       11.6550614643
C         19.2282966940       30.8776527754       10.4087416790
C         19.8147687283       32.2929457697       12.4899904535
C         19.5941494820       29.6558449872        9.5747586992
C         18.4353675872       32.2171434913       13.2022512715
O         20.8617593337       32.4947876231       13.4349433871
C         18.8077486165       28.4901378987        9.6362866214
C         20.7393523391       29.6737046443        8.7579731288
N         18.1313888559       33.3481679216       14.1217083879
C         19.1616902429       27.3557206335        8.8874710403
C         21.0936184242       28.5397439423        8.0080142386
C         18.1097641742       34.7036632344       13.5183364221
S         18.6453401365       33.2962524089       15.7583044113
C         20.3035763212       27.3808241703        8.0716219777
C         17.1686393055       34.8622409530       12.2951891316
C         19.0985936809       31.5748103901       16.1112422833
O         19.8373537561       34.1445810078       15.8832941233
O         17.4210103845       33.5789120017       16.5179170959
C         15.7035755392       34.5291641197       12.6578441512
C         17.2575044318       36.3000631357       11.7421583550
C         18.0963631597       30.5926180803       16.2461082081
C         20.4492763576       31.2052919424       16.2704996989
C         18.4440356897       29.2575458602       16.5139413422
C         20.7914495137       29.8709705843       16.5471106437
C         19.7908073173       28.8951249980       16.6667292971
N         20.1302140014       27.5830834212       16.9380890520
H         22.7620321018       22.5292165685        8.1794381964
H         23.5887527794       24.8793989075        8.1437851955
H         21.1139061085       21.8172846764        9.9070779456
H         22.7699742906       26.5132982478        9.8177772946
H         20.2944152843       23.4433077259       11.5928776520
H         22.4673705620       27.5564840256       11.8202985019
H         22.6300395132       26.3135506325       13.1073620848
H         21.2479846222       27.5582992268       14.4808436447
H         19.2799961900       29.1567411737       12.2712578636
H         21.1680535335       31.1187769237       11.2928555154
H         18.1759590251       30.8170082906       10.7111359248
H         19.3161484479       31.7809413339        9.7915867400
H         19.7979228726       33.1516333375       11.8059052349
H         17.6606007774       32.1789210219       12.4291074236
H         18.3531996651       31.2615695791       13.7280170134
H         21.2741441802       31.6089900240       13.5795679267
H         17.9247590649       28.4582281568       10.2689702809
H         21.3578929963       30.5658351245        8.7083357387
H         18.5546965202       26.4554194677        8.9452286644
H         21.9807811739       28.5584909662        7.3801285985
H         17.7898615149       35.4274610281       14.2807685957
H         19.1314798645       34.9859823398       13.2291178450
H         20.5795994173       26.5008025220        7.4959368040
H         17.4956298238       34.1848762677       11.4950166255
H         15.0471903962       34.6506167804       11.7868092065
H         15.6053746750       33.4932285679       13.0055935522
H         15.3357635503       35.1876069411       13.4551966693
H         18.2868000353       36.5443478793       11.4493813703
H         16.6215196660       36.4184088911       10.8554416007
H         16.9340441496       37.0341075067       12.4915464873
H         17.0496210423       30.8651036203       16.1338851424
H         21.2345166450       31.9514001745       16.1745280349
H         17.6660598570       28.5049654565       16.6076724711
H         21.8360664444       29.5954610685       16.6623054478
H         19.4052505691       26.8922178300       17.0942249025
H         21.0860910707       27.3396291247       17.1700285542
    77
VM2 Rank=25     G=195.326           E=104.462           -TS=90.864              
C         22.1272867731       24.1197103962        6.4493352067
C         23.3128057516       24.3018480780        7.1789680299
C         20.8923320056       24.4568836528        7.0253890073
C         23.2636434636       24.8216921903        8.4833538550
C         20.8440278382       24.9759968835        8.3297100470
C         22.0281943249       25.1617342169        9.0683970793
N         21.9773521380       25.6980979733       10.3846830582
C         22.8726338994       26.7699162945       10.8052531406
C         21.0971169681       25.3326236754       11.3854180564
C         22.4341374482       27.0643339612       12.2506151685
O         20.2476847350       24.4594434741       11.3407033635
O         21.3623980550       26.1103064945       12.4731869057
C         21.9867978555       28.5258551436       12.4523256180
N         20.7001252424       28.6963482635       12.9123954351
O         22.6977154502       29.4781584872       12.1787833727
C         19.9546223240       29.9563006130       12.7857438595
C         18.4477383310       29.6427929418       12.6004123250
C         20.2559036330       30.8865272430       13.9937416991
C         18.1940663559       28.7363733778       11.4028321292
C         19.5875074581       32.2774261393       13.8562962579
O         19.8412766626       30.2535932061       15.2016436623
C         17.9575651259       27.3611032728       11.5851506746
C         18.2148576807       29.2673582907       10.1003464983
N         20.1136919477       33.3151408703       14.7874523563
C         17.7395228658       26.5267504169       10.4763839112
C         17.9962905005       28.4338790802        8.9908993032
C         21.5487522618       33.6728449955       14.6495931261
S         19.5197348372       33.3887740445       16.3931089648
C         17.7558914711       27.0635467719        9.1790050134
C         22.0070228464       34.0354218830       13.2122624929
C         17.8041726600       32.8141692836       16.3025097860
O         20.3337686535       32.4974244145       17.2282931016
O         19.4415698360       34.8297625993       16.6656585333
C         21.2190503073       35.2408100829       12.6507095671
C         23.5180452016       34.3481529649       13.2027275175
C         17.4355498281       31.5636627670       16.8363549142
C         16.8243539377       33.6174777758       15.6853854794
C         16.1054619346       31.1197596077       16.7447961953
C         15.4952214378       33.1700744337       15.5974707774
C         15.1341771060       31.9210346710       16.1253624124
N         13.8269328468       31.4818890678       16.0353420981
H         22.1655292849       23.7175650601        5.4398583532
H         24.2697535694       24.0398137646        6.7342682803
H         19.9731643666       24.3165422047        6.4619213368
H         24.1887361256       24.9524490451        9.0378267211
H         19.8834722960       25.2345500458        8.7651947042
H         22.7441601292       27.6477712597       10.1580690833
H         23.9181724721       26.4394205783       10.7812638499
H         23.2595408529       26.8708789051       12.9466118227
H         20.1782096459       27.8438044835       13.0753686007
H         20.3043212144       30.4671804255       11.8770328509
H         18.0489341762       29.1832035329       13.5140369539
H         17.8863196778       30.5745154541       12.4641962078
H         21.3442577831       31.0294459239       14.0156666883
H         19.7292921638       32.6191450144       12.8244481221
H         18.5049065825       32.1623031426       13.9764403736
H         20.2464567394       29.3625916798       15.1801700414
H         17.9451925813       26.9365969448       12.5854500600
H         18.4027812252       30.3267901611        9.9479484927
H         17.5613949743       25.4642268244       10.6235468390
H         18.0131007759       28.8499221919        7.9866833289
H         21.7626270290       34.5367748905       15.2941925986
H         22.1665798376       32.8460851302       15.0255463759
H         17.5853202159       26.4184934969        8.3207239417
H         21.8513997430       33.1712380350       12.5520598766
H         21.5546150670       35.4892210432       11.6358148527
H         20.1441726735       35.0270180979       12.6019170253
H         21.3564909640       36.1288666328       13.2808708881
H         23.8637424218       34.5770649587       12.1864407239
H         23.7494065778       35.2101800692       13.8417847934
H         24.0977489194       33.4896735759       13.5659834379
H         18.1825714414       30.9320585875       17.3113885636
H         17.0964906158       34.5851238112       15.2703294526
H         15.8305318042       30.1512493402       17.1532357846
H         14.7458089740       33.7935369299       15.1176006449
H         13.5586298488       30.5793782601       16.4117039554
H         13.1197420360       32.0541060051       15.5874268228
    77
VM2 Rank=26     G=195.364           E=103.374           -TS=91.990              
C         22.9613171786       26.3714169882        6.2158395527
C         21.6459856214       26.2566979634        6.6925297436
C         24.0221600039       26.5313605981        7.1213089176
C         21.3927544985       26.3025090793        8.0734083862
C         23.7678859550       26.5776792083        8.5023450161
C         22.4507034136       26.4629961539        8.9886142388
N         22.1904714617       26.5205021144       10.3860167614
C         22.7976423363       27.5415126768       11.2322437899
C         21.3443132746       25.6913302120       11.0978437246
C         22.2194349217       27.2491780839       12.6281813471
O         20.7111991458       24.7400930687       10.6731568216
O         21.3590885138       26.1027355403       12.3974798864
C         21.4660437834       28.4525699376       13.2282537809
N         20.1687117241       28.2069319347       13.6191202341
O         21.9565123649       29.5655230599       13.3046831038
C         19.1513068474       29.2599461890       13.7482419785
C         17.7851637140       28.6984888638       13.2834456889
C         19.1421833373       29.8531122051       15.1852462182
C         17.8262833641       28.2808791666       11.8197164928
C         18.0773509039       30.9663055758       15.3676814872
O         18.9217960727       28.8131150470       16.1377856034
C         17.8509065730       29.2619019618       10.8109643106
C         17.8681475701       26.9205288244       11.4629883011
N         18.4740598044       32.0393476267       16.3204143783
C         17.9105903867       28.8874351548        9.4587945790
C         17.9259222527       26.5451918497       10.1105475895
C         18.5600542336       31.6457246585       17.7489501948
S         19.6534018867       33.1814243227       15.8284838962
C         17.9445646843       27.5284552247        9.1080279098
C         17.2540448577       31.0599122518       18.3465502051
C         19.5449959732       33.2076941287       14.0208673452
O         19.1461286276       34.4701544629       16.3141385579
O         20.9582644711       32.6435900972       16.2311569666
C         17.4645905024       30.7095405485       19.8346409994
C         16.0680567290       32.0404679060       18.2004593001
C         20.5246518212       32.5633946246       13.2402915001
C         18.4497200722       33.8246433513       13.3840841197
C         20.3934029059       32.5096054187       11.8428259806
C         18.3242322466       33.7706059556       11.9853875590
C         19.2903204045       33.1062685688       11.2140907669
N         19.1526355600       33.0342293959        9.8411927658
H         23.1582259614       26.3358693380        5.1471118547
H         20.8230685375       26.1325918545        5.9929214250
H         25.0415305943       26.6188711009        6.7533622543
H         20.3712890663       26.2134934513        8.4306580721
H         24.5996968371       26.6965676813        9.1909589058
H         22.5142368242       28.5423809933       10.8800593531
H         23.8901488140       27.4458205435       11.2419184598
H         23.0229972257       26.9799606244       13.3245349759
H         19.8511702758       27.2550754896       13.4802922643
H         19.4189709070       30.0745051945       13.0615486232
H         17.4955525106       27.8534710558       13.9213566691
H         17.0000908461       29.4530497870       13.4085791464
H         20.1374937609       30.2874184707       15.3510349210
H         17.8499569770       31.4052600170       14.3903469571
H         17.1397495719       30.4983117058       15.6895605551
H         19.5403728089       28.0967712986       15.8835018125
H         17.8298994518       30.3165996454       11.0744127253
H         17.8600239180       26.1529487530       12.2321689617
H         17.9312709409       29.6507029379        8.6848541638
H         17.9613328393       25.4924029849        9.8409980364
H         19.3717005371       30.9165338703       17.8782253501
H         18.8307187049       32.5279754638       18.3454620158
H         17.9892379859       27.2382420312        8.0613504304
H         17.0070319100       30.1254247653       17.8244441216
H         16.5594727475       30.2597317514       20.2624638855
H         18.2833351752       29.9880189400       19.9531942420
H         17.7101345242       31.6033629389       20.4225623688
H         16.2800326724       32.9929539829       18.7028111870
H         15.8584700099       32.2549346490       17.1450794804
H         15.1553955588       31.6190299276       18.6405178320
H         21.3767233469       32.0844764507       13.7166561137
H         17.6864422380       34.3247119062       13.9758005001
H         21.1442169008       31.9932812530       11.2507733718
H         17.4701685795       34.2360759530       11.5011359551
H         18.3670998600       33.4763387348        9.3779015802
H         19.8530804668       32.5674145138        9.2769487815
    77
VM2 Rank=27     G=195.396           E=103.595           -TS=91.801              
C         23.6126918327       23.6329149260        7.0203756733
C         23.6086888438       23.0221499380        8.2842357662
C         23.1737624349       24.9590708115        6.8830779040
C         23.1638958505       23.7363376080        9.4092721604
C         22.7305422942       25.6732541736        8.0085316193
C         22.7166986084       25.0658698648        9.2797591591
N         22.2697185529       25.7913581546       10.4197317970
C         22.6735482413       27.1738188952       10.6490496240
C         21.4578570262       25.3145504650       11.4321257478
C         22.0564338196       27.5115043330       12.0171375430
O         20.9524246654       24.2085033049       11.5180695520
O         21.3072699013       26.3133823342       12.3475660031
C         21.1823648880       28.7799530378       11.9773598235
N         19.8559574438       28.5994467189       12.3036040317
O         21.6140590459       29.8620013476       11.6178660718
C         18.7785791004       29.4782661614       11.8221125763
C         17.6952821942       28.6137236722       11.1313492040
C         18.2068037971       30.3662794157       12.9613960418
C         18.2705069360       27.7013937770       10.0536425005
C         19.3166911355       31.2289092219       13.6264117834
O         17.1606904167       31.2016191180       12.4588301507
C         18.3063633723       26.3075724239       10.2443631984
C         18.7899816693       28.2488234357        8.8662262671
N         18.8277675343       32.2789853713       14.5586819471
C         18.8498224708       25.4702660322        9.2560423151
C         19.3370588772       27.4125741366        7.8788229011
C         18.6416951186       33.6284170636       13.9703551408
S         17.7657273151       31.8030548253       15.8061654571
C         19.3645765656       26.0223478962        8.0727494439
C         19.9780961862       34.3599259323       13.6870219146
C         17.9569689934       33.1053986609       17.0454106960
O         16.4253220546       31.7765607383       15.2054473227
O         18.3793008055       30.5937589817       16.3683035271
C         19.7049921916       35.7219961231       13.0153309965
C         20.7972244288       34.5670285364       14.9811560229
C         19.1156373796       33.1575911866       17.8448401292
C         16.9587408181       34.0863364518       17.2070052294
C         19.2742829495       34.1828704600       18.7924264178
C         17.1220297693       35.1093336695       18.1564563019
C         18.2790188193       35.1597079386       18.9491783227
N         18.4379256521       36.1681428566       19.8805117159
H         23.9560981964       23.0800248132        6.1494252979
H         23.9507226576       21.9958229148        8.3926271089
H         23.1759392821       25.4334959318        5.9048460251
H         23.1703784902       23.2525857749       10.3825823471
H         22.3871654204       26.6963656942        7.8846770002
H         22.2662708783       27.8260235834        9.8654567902
H         23.7671195793       27.2598790590       10.6766768224
H         22.8476762814       27.6731852550       12.7594144790
H         19.6085546720       27.6572008361       12.5806060138
H         19.1925227697       30.1544486380       11.0606936533
H         17.1672850562       28.0217261928       11.8894607226
H         16.9392109175       29.2695068734       10.6811481921
H         17.7917765917       29.6955508940       13.7264267122
H         19.9726820600       30.5482974825       14.1846930052
H         19.9350437396       31.6716756077       12.8366682686
H         16.7048574901       31.5722355352       13.2507313982
H         17.9171869415       25.8709229950       11.1601943212
H         18.7722474343       29.3242482376        8.7108301191
H         18.8791067170       24.3944978664        9.4113615412
H         19.7380506085       27.8416455581        6.9640944348
H         18.0651541942       33.5531602278       13.0389345459
H         18.0561013094       34.2626739828       14.6476995663
H         19.7886180118       25.3738274766        7.3100789845
H         20.5784421325       33.7593045401       12.9903213620
H         20.6449539018       36.2368875313       12.7786358247
H         19.1507845923       35.5916170916       12.0768763307
H         19.1156560541       36.3763676163       13.6707202987
H         21.7309798450       35.1037690109       14.7710082798
H         20.2305661597       35.1482840108       15.7202538053
H         21.0650663281       33.6056370122       15.4370596270
H         19.8940269156       32.4076151164       17.7256842235
H         16.0603252617       34.0579384670       16.5949036916
H         20.1718275816       34.2194640159       19.4037004279
H         16.3497298693       35.8643811393       18.2753754247
H         17.7243776021       36.8788957703       19.9988128292
H         19.2717817687       36.2128429205       20.4558294287
    77
VM2 Rank=28     G=195.406           E=102.797           -TS=92.608              
C         20.9240077289       22.7826089210        7.3280316250
C         20.7288936841       24.1410137525        7.0334863302
C         21.4219900111       22.4040956338        8.5845991729
C         21.0300971486       25.1196193024        7.9951595621
C         21.7218932538       23.3831175835        9.5464552687
C         21.5235774885       24.7485487223        9.2617134919
N         21.8317522042       25.7407044112       10.2350211146
C         22.5351090582       26.9670940676        9.8778792798
C         21.5495042725       25.6820774387       11.5869306213
C         22.7066890201       27.6972130412       11.2231252299
O         20.9567214851       24.7980645226       12.1814451552
O         22.0629793081       26.8030417029       12.1668655352
C         22.0843194198       29.1083633401       11.2353839141
N         21.4095920134       29.4462441200       12.3885681037
O         22.1381163390       29.8631405684       10.2784097305
C         20.3861751156       30.4980684488       12.4653438150
C         18.9701826502       29.8585571430       12.4306895367
C         20.6385002516       31.3878770594       13.7157874999
C         18.7745072652       28.8860985226       11.2730801372
C         19.6970652708       32.6242234484       13.7585188195
O         20.5225763901       30.6021699022       14.9058875610
C         18.7329204709       29.3580760229        9.9484719854
C         18.6424361033       27.5066349622       11.5183768791
N         19.9364740162       33.5649276569       14.8869607406
C         18.5595477985       28.4616105285        8.8807633694
C         18.4647707026       26.6096894581       10.4520321895
C         21.3014744222       34.1522081486       14.8684829978
S         19.2420404081       33.2150934108       16.4202013503
C         18.4210985926       27.0874209760        9.1329340858
C         21.4241425283       35.5411909870       15.5453832554
C         17.7161722271       32.3110093662       16.0478915096
O         20.1977486030       32.3377716377       17.1090946146
O         18.8105750507       34.5035565416       16.9735766544
C         22.8880914525       36.0268122341       15.4930199615
C         20.5024963013       36.5844082908       14.8738461779
C         17.6301713320       30.9199877308       16.2579341547
C         16.6050319245       32.9987501584       15.5200961500
C         16.4523900930       30.2268447871       15.9315826226
C         15.4286504332       32.3013961919       15.1974297581
C         15.3513562096       30.9151457133       15.4000429412
N         14.1951619515       30.2305235445       15.0774970978
H         20.6914332433       22.0250371985        6.5835951925
H         20.3441874064       24.4359513698        6.0603119367
H         21.5766139233       21.3524811560        8.8132985481
H         20.8696581877       26.1661506388        7.7525227163
H         22.1117018982       23.0757072736       10.5133788527
H         21.9332364985       27.5628506295        9.1795876447
H         23.5089623931       26.7362729293        9.4281858968
H         23.7703606238       27.7991612862       11.4703683163
H         21.4292405780       28.7628346806       13.1360052163
H         20.4842060548       31.1425787045       11.5807641857
H         18.7816605025       29.3442805295       13.3817514293
H         18.2087879442       30.6435180181       12.3595310237
H         21.6705353318       31.7548553037       13.6342569994
H         19.8416495749       33.1742911613       12.8193786384
H         18.6546232771       32.2916076401       13.7450148406
H         20.7675463554       31.1723846349       15.6704205570
H         18.8419705068       30.4201274303        9.7465229638
H         18.6816253701       27.1273335069       12.5361273070
H         18.5304990494       28.8325424880        7.8594129629
H         18.3660115801       25.5447688284       10.6482812662
H         22.0027956681       33.4590426582       15.3531765897
H         21.6351276298       34.2679306544       13.8282859204
H         18.2827805257       26.3932081806        8.3078929469
H         21.1471122633       35.4551409658       16.6047605801
H         22.9969855369       36.9954554448       15.9976629406
H         23.5559168686       35.3137098409       15.9933791874
H         23.2308680028       36.1444107180       14.4568080844
H         19.4483926995       36.2893068153       14.9503254757
H         20.6061361592       37.5648517591       15.3556764774
H         20.7453272493       36.7003934827       13.8099220620
H         18.4768110404       30.3733914468       16.6657036771
H         16.6583951651       34.0720280019       15.3528077222
H         16.3964176447       29.1534407483       16.0901653968
H         14.5777306066       32.8379733210       14.7867728942
H         13.3958205348       30.7204165249       14.6913872232
H         14.1326462765       29.2283656163       15.2179862656
    77
VM2 Rank=29     G=195.436           E=101.952           -TS=93.484              
C         23.4626512294       23.5349950383        8.9805487178
C         23.0689310129       23.1563246357       10.2736180969
C         23.2721893372       24.8575243619        8.5505539690
C         22.4831820519       24.0989804693       11.1349668247
C         22.6877830168       25.8000735801        9.4126629797
C         22.2835796051       25.4270471592       10.7098155209
N         21.6942171227       26.3835269032       11.5833996007
C         22.2279781126       27.7352136445       11.7048057156
C         20.6054125585       26.1810984933       12.4111999626
C         21.3878020934       28.3552403854       12.8335633507
O         19.9293123036       25.1716332507       12.5122300980
O         20.3860744798       27.3385054934       13.0952602505
C         20.7828158245       29.7187461900       12.4513040965
N         19.4072870312       29.7874151677       12.4851550670
O         21.4635338081       30.6568078525       12.0731922681
C         18.6207034367       30.7232018907       11.6667140155
C         17.6002420975       29.9117574715       10.8301632404
C         17.9549906121       31.8232187086       12.5401285746
C         18.2512107066       28.7764561036       10.0473237741
C         19.0135644396       32.6996874271       13.2634529081
O         17.1314750336       32.6608430120       11.7289864374
C         18.0016872036       27.4360667356       10.3959341760
C         19.1269652078       29.0609576522        8.9835233065
N         18.4810925762       33.5402818416       14.3733868746
C         18.6156860520       26.3920434094        9.6844547051
C         19.7448486574       28.0176231990        8.2740993476
C         17.7259334276       34.7704709255       14.0209164606
S         17.9308584754       32.7525463568       15.7893612423
C         19.4870510046       26.6823980846        8.6231311691
C         18.4183188775       35.7095755825       12.9984752001
C         19.0110894910       31.3108441489       15.9713326124
O         18.2807336278       33.6715702193       16.8791581038
O         16.5491587460       32.3313126581       15.5283468593
C         17.5248101246       36.9367562312       12.7207269604
C         19.8048169210       36.1743451265       13.4994490178
C         18.5192031551       30.0131771427       15.7259766602
C         20.3583682704       31.4801293272       16.3471695092
C         19.3675401339       28.9005096720       15.8546861732
C         21.2030145157       30.3641946403       16.4718318612
C         20.7090164103       29.0739624167       16.2276573661
N         21.5418712083       27.9779373914       16.3493369258
H         23.9153014116       22.8053657402        8.3135234737
H         23.2180739980       22.1329193331       10.6089968310
H         23.5765308196       25.1523645009        7.5493155279
H         22.1870881880       23.7933875988       12.1351592481
H         22.5412931597       26.8180676566        9.0630119863
H         22.0854255700       28.2861389170       10.7659285827
H         23.2925592344       27.7132682109       11.9698393828
H         22.0103383736       28.5030461074       13.7238918164
H         18.9499507454       28.9462503988       12.8149687202
H         19.2960042980       31.2287129317       10.9619820340
H         16.8210581193       29.5177212605       11.4946630360
H         17.0875331853       30.5831575047       10.1297323085
H         17.3350280848       31.3124417596       13.2878475803
H         19.7964490868       32.0467084969       13.6635344299
H         19.5250040136       33.3146488834       12.5145731369
H         16.6787070347       33.2768057544       12.3366669750
H         17.3355806774       27.2009658607       11.2216672337
H         19.3315891518       30.0925040686        8.7097300721
H         18.4224354739       25.3585876400        9.9616905679
H         20.4215420986       28.2440161698        7.4540829988
H         16.7305490486       34.5006099318       13.6470125483
H         17.5582520022       35.3525862090       14.9378823392
H         19.9647808838       25.8737541284        8.0755236700
H         18.5455572391       35.1794657319       12.0447778808
H         17.9869427352       37.5958831497       11.9745748464
H         16.5455678928       36.6291095738       12.3318610075
H         17.3595521564       37.5227350912       13.6341594399
H         20.2789792611       36.8451715049       12.7718262481
H         19.7195213712       36.7120546390       14.4524208898
H         20.4789273890       35.3224791972       13.6528643838
H         17.4824083806       29.8664271046       15.4336190798
H         20.7494634600       32.4770469643       16.5365363519
H         18.9837862660       27.9026043835       15.6607542149
H         22.2417352408       30.5021512180       16.7590459537
H         22.4871421906       28.0884186363       16.6975680283
H         21.1742703142       27.0412602527       16.2298482891
    77
VM2 Rank=30     G=195.454           E=103.739           -TS=91.715              
C         25.2333533468       23.6525290694        7.0617841584
C         24.8139790561       22.7260860070        8.0300102839
C         24.7665056225       24.9759568910        7.1096304942
C         23.9285852030       23.1233314231        9.0459026138
C         23.8812413630       25.3730500273        8.1257751009
C         23.4570683138       24.4486549253        9.0992180157
N         22.5671253192       24.8515010061       10.1300222928
C         22.8504498899       26.0052456528       10.9746601188
C         21.3915071185       24.2203376654       10.4877044913
C         21.6028021934       26.0997274767       11.8713017878
O         20.9179742990       23.2101559548        9.9953858424
O         20.8734101460       24.8899386886       11.5557763021
C         20.7483196176       27.3439510677       11.5642049802
N         20.3862223866       28.0999804263       12.6584526611
O         20.4072101120       27.6484988053       10.4327012005
C         19.5576970459       29.3114028716       12.5931308142
C         18.0678785380       28.9054207967       12.7694448425
C         20.0916021950       30.3419366421       13.6322897847
C         17.0629991483       29.9877303528       12.3959744113
C         19.4018297792       31.7284156481       13.5351643717
O         19.9787337014       29.8113601099       14.9563086970
C         17.0497495740       30.5286683007       11.0966777398
C         16.1338518947       30.4523882018       13.3457192524
N         20.1271552466       32.8397642817       14.2115892656
C         16.1354668261       31.5401069866       10.7583591286
C         15.2186846812       31.4627630326       13.0081052391
C         21.4856974714       33.1601902951       13.7028684079
S         19.9231103490       33.0386801102       15.8978009475
C         15.2218062896       32.0100526514       11.7153540396
C         21.5765887305       33.3896145464       12.1710054664
C         18.1541808002       32.7741362468       16.1723366857
O         20.7323721979       31.9973604265       16.5447531045
O         20.1604470623       34.4684994262       16.1309127172
C         20.6629402849       34.5495757229       11.7137132679
C         23.0365028124       33.6827433538       11.7662748462
C         17.6942406299       31.5918618678       16.7857386678
C         17.2221219412       33.7425923757       15.7503893454
C         16.3176095865       31.3850161332       16.9764917422
C         15.8466065371       33.5306190407       15.9430604960
C         15.3925835984       32.3524832768       16.5554019049
N         14.0387890908       32.1426722155       16.7366044703
H         25.9183501384       23.3452166944        6.2752602655
H         25.1749238181       21.7011041707        7.9937407671
H         25.0893327713       25.6933758728        6.3591052487
H         23.6106496581       22.3999454997        9.7925481159
H         23.5208206739       26.3980621128        8.1498727376
H         22.9838155984       26.9132851589       10.3726735931
H         23.7498861721       25.8205941691       11.5755260965
H         21.8908267468       26.1167399834       12.9297945040
H         20.6903617617       27.7933612990       13.5746062537
H         19.6832912737       29.7533797729       11.5952228719
H         17.8679197791       28.0307620736       12.1372963569
H         17.9057550549       28.5658841675       13.8003679070
H         21.1544332318       30.4809330409       13.3957129058
H         19.2774965198       31.9738934336       12.4738761168
H         18.3872742291       31.6449369624       13.9345527847
H         20.4675223311       30.4198514123       15.5590073301
H         17.7496371701       30.1666488315       10.3480567507
H         16.1275745744       30.0397952940       14.3510297350
H         16.1340621790       31.9579244348        9.7547323484
H         14.5089606653       31.8215363735       13.7494208225
H         21.8449617890       34.0745491295       14.1951730115
H         22.1827537200       32.3612945643       13.9889805498
H         14.5141519763       32.7929728673       11.4544279789
H         21.2721181818       32.4734805021       11.6470789644
H         20.9373983573       35.4874419058       12.2133951492
H         20.7418633885       34.7061488198       10.6304039500
H         19.6100921998       34.3424403933       11.9425933326
H         23.1221982976       33.8157115714       10.6801059721
H         23.4064601455       34.5963999000       12.2494324623
H         23.6971979424       32.8547021906       12.0537148853
H         18.4010385639       30.8317205753       17.1094941576
H         17.5651987474       34.6553431731       15.2689897104
H         15.9692642677       30.4701616806       17.4477513075
H         15.1329481693       34.2799983509       15.6121883146
H         13.7043061839       31.3026862048       17.1947958452
H         13.3659649863       32.8481491398       16.4593132649
