    82
VM2 Rank=1      G=195.681           E=99.162            -TS=96.519              
C         21.2850484422       23.3041536876        6.2920088915
C         20.9711339769       24.6794934843        6.2415479079
C         21.7560388110       22.7240762120        7.4806948423
C         21.1464642837       25.4556244250        7.4058871095
C         20.4476235586       25.3320402296        4.9841846032
C         21.9154087531       23.5076741871        8.6333871299
C         21.6080974499       24.8792253430        8.6036247509
C         20.3002791912       24.5028029075        3.7135453391
O         20.1358435286       26.5121239766        4.9649596116
N         21.7599325631       25.6761068590        9.7709804094
C         22.4492132699       26.9602823567        9.7369007644
C         21.3106505099       25.3613958270       11.0385653059
C         22.3218852656       27.4789412345       11.1821811040
O         20.7049590939       24.3600251697       11.3796479453
O         21.6872004903       26.3711278814       11.8722440230
C         21.4914349340       28.7751882663       11.2893903943
N         20.6246216521       28.8340763885       12.3592992458
O         21.5594867271       29.6751333385       10.4687161692
C         19.4874858909       29.7599316308       12.4536639640
C         18.1685102907       29.0123157592       12.1228786636
C         19.4801443865       30.4520736620       13.8456450904
C         18.2021662888       28.3086792738       10.7712933716
C         18.3833300596       31.5458625554       13.9495435554
O         19.3118065696       29.4767471070       14.8796964420
C         18.2610075365       26.9043021407       10.7005971978
C         18.1789237540       29.0589635802        9.5815115101
N         18.5653216457       32.5134091887       15.0660236553
C         18.2880716254       26.2568214788        9.4541735437
C         18.2085896898       28.4128067601        8.3344237997
C         19.8114256023       33.3266988096       15.0503257314
S         17.9860188871       32.0360645911       16.6015932056
C         18.2571623440       27.0113401222        8.2705837924
C         20.0711922056       34.0932646110       13.7275073439
C         17.9160449345       33.5827552570       17.5354073864
O         16.5904147740       31.6462025945       16.3667655246
O         18.9715397882       31.0978390556       17.1547879643
C         18.9199896051       35.0738603047       13.4071879634
C         21.4050043800       34.8640300318       13.8169941692
C         18.8270281554       33.8251713906       18.5824003956
C         16.9641450387       34.5663933518       17.2028379292
C         18.7815617873       35.0385018811       19.2899153693
C         16.9233602481       35.7781291752       17.9130883744
C         17.8308375942       36.0157572051       18.9569374140
N         17.7895944169       37.2085867073       19.6534510952
H         21.1651516834       22.6718948746        5.4172355800
H         21.9943387213       21.6635314778        7.5094478327
H         20.9065342949       26.5148103072        7.3796731685
H         22.2777294198       23.0464731795        9.5487717243
H         19.5881081534       23.6866736773        3.8795582847
H         19.9320091897       25.1327999060        2.8954346961
H         21.2705027107       24.0819658576        3.4264076835
H         21.9695884172       27.6413293480        9.0224455421
H         23.5025762045       26.8185066362        9.4645311146
H         23.3104902124       27.6798824375       11.6124857444
H         20.6438110783       28.0487139820       12.9988209148
H         19.6203552211       30.5495683256       11.7010263771
H         17.9563299762       28.2852634071       12.9171562853
H         17.3306171713       29.7190939668       12.1311672839
H         20.4617241323       30.9308102552       13.9549504249
H         18.3548264483       32.0951156659       13.0009874585
H         17.4051006902       31.0557048511       14.0400933315
H         19.4015090175       29.9436137360       15.7440163702
H         18.2879030758       26.3129397366       11.6121420843
H         18.1417333442       30.1440672392        9.6238330879
H         18.3356042895       25.1715651023        9.4064212921
H         18.1926432997       28.9975724345        7.4181230149
H         19.7787017412       34.0762578203       15.8509431405
H         20.6737018202       32.6825986880       15.2686704136
H         18.2775427320       26.5120708475        7.3047906548
H         20.1649347111       33.3753888633       12.9013649163
H         18.7953412919       35.8115552996       14.2104239275
H         19.1175882246       35.6177602678       12.4747310451
H         17.9669098751       34.5441769340       13.2859681505
H         21.6177944681       35.3879063139       12.8762130121
H         21.3793751406       35.6104053962       14.6216338751
H         22.2409106881       34.1803778549       14.0137145311
H         19.5701961158       33.0760521391       18.8453868516
H         16.2610334018       34.3915239382       16.3917764779
H         19.4866418681       35.2202889763       20.0964822510
H         16.1873624426       36.5333791884       17.6512447191
H         18.4410569712       37.3879469846       20.4096303520
H         17.1053755828       37.9196580161       19.4197978049
    82
VM2 Rank=2      G=195.742           E=99.131            -TS=96.611              
C         22.1243925285       24.3915096113        6.1904445064
C         21.0978096007       25.3549764039        6.2937480796
C         23.0857674159       24.2629261314        7.2058308458
C         21.0648144299       26.1872004766        7.4315322034
C         20.0357808362       25.5066635182        5.2308172861
C         23.0321615662       25.0905997405        8.3374071325
C         22.0182968524       26.0567164282        8.4577590248
C         20.0950834216       24.6355827698        3.9812186193
O         19.1263055683       26.3117125331        5.3534490154
N         21.9522360665       26.8926251534        9.6048413932
C         21.8056590619       28.3381969843        9.4873122337
C         22.0181399075       26.4801648014       10.9214720213
C         21.7466445448       28.8159981306       10.9488392241
O         22.1505037124       25.3405544821       11.3332313882
O         21.9230544398       27.5903683974       11.7068679072
C         20.4227011477       29.5341870288       11.2766496437
N         19.6759939933       28.9764049933       12.2919972196
O         20.0308956761       30.5031886480       10.6492129575
C         18.2320680063       29.2046563228       12.4668828305
C         17.5180202507       27.8313263967       12.5374662185
C         17.9434489206       30.1008172493       13.7054429058
C         17.8456780539       26.9278461348       11.3537149912
C         18.5539973951       31.5215023365       13.5465246677
O         16.5332684626       30.2154717418       13.9076871568
C         18.6385360766       25.7789307639       11.5324488597
C         17.3626728061       27.2397483244       10.0694753281
N         18.6931095550       32.2902984582       14.8131980827
C         18.9356953187       24.9453014839       10.4415869487
C         17.6615062358       26.4080502812        8.9771615324
C         19.5618433443       31.6919869863       15.8633390608
S         17.3145535107       33.1434205275       15.3526095677
C         18.4425593138       25.2567717308        9.1649570694
C         20.9752281809       31.2710876083       15.3809436597
C         17.9713381302       34.2881173723       16.5885850921
O         16.9189471548       33.9723214551       14.2075412983
O         16.4065309070       32.1518808743       15.9443458656
C         21.7661284597       32.4759704470       14.8224243081
C         21.7589967476       30.6236822579       16.5416820411
C         17.6989505257       34.0927509177       17.9569875133
C         18.7817758377       35.3692989307       16.1904123045
C         18.2301371482       34.9735205128       18.9145341676
C         19.3108519866       36.2467277960       17.1519955508
C         19.0358683803       36.0506822550       18.5141809100
N         19.5580485215       36.9142546026       19.4582413673
H         22.1861045574       23.7320211769        5.3298565968
H         23.8714727892       23.5164628263        7.1175123703
H         20.2756551376       26.9280018310        7.5259754159
H         23.7787670016       24.9789670288        9.1197236179
H         20.0153384697       23.5782400467        4.2577761571
H         19.2674771408       24.8886762440        3.3082888450
H         21.0419121971       24.8001675970        3.4546146236
H         20.8835538119       28.5941120037        8.9495174707
H         22.6710288472       28.7694527798        8.9685114750
H         22.5661350147       29.5139826805       11.1595863885
H         20.0883886407       28.1648736164       12.7355476263
H         17.8467667441       29.7317620275       11.5825982537
H         17.7826623767       27.3348178015       13.4794802254
H         16.4323835210       27.9867712553       12.5755211863
H         18.4003281325       29.6056527829       14.5716234580
H         19.5424295967       31.4349928495       13.0843960290
H         17.9458334166       32.0836768932       12.8254136413
H         16.3953832913       30.7214113847       14.7437695299
H         19.0263258075       25.5299808113       12.5165887985
H         16.7549154429       28.1279226931        9.9187519484
H         19.5514376990       24.0608320104       10.5857410377
H         17.2880659426       26.6542676740        7.9859581353
H         19.7043881892       32.4074587391       16.6828951524
H         19.0585189279       30.8193297561       16.3006088686
H         18.6725861366       24.6121009314        8.3203895588
H         20.8813130794       30.5136872862       14.5911250631
H         21.2556743572       32.9232709579       13.9604442949
H         21.8859489528       33.2564161153       15.5848837851
H         22.7661694416       32.1679459006       14.4918891075
H         21.2284994489       29.7454365262       16.9315748358
H         22.7504558301       30.2922608212       16.2071458469
H         21.8998692623       31.3311851932       17.3691614615
H         17.0791382143       33.2587660613       18.2778101897
H         19.0035199292       35.5246148682       15.1370882113
H         18.0168822816       34.8180927249       19.9686199448
H         19.9360201834       37.0783852137       16.8386773937
H         20.1421608655       37.6942646265       19.1775902684
H         19.3651675991       36.7791142702       20.4446035091
    82
VM2 Rank=3      G=195.873           E=98.768            -TS=97.105              
C         20.0378254533       23.3920627448        6.9670356739
C         19.9630557742       24.7943625240        6.8236135810
C         20.5583022064       22.8227262018        8.1401566473
C         20.4267486268       25.6070763992        7.8787355241
C         19.3946587703       25.4395106525        5.5820237628
C         21.0060426671       23.6448675430        9.1850187527
C         20.9397093553       25.0437999892        9.0617777884
C         18.9349011892       24.5619375787        4.4234155425
O         19.2921933187       26.6522931369        5.4879866837
N         21.3846236642       25.8814623690       10.1207791337
C         22.2700081584       27.0144417290        9.8801641326
C         21.0689752739       25.7440668586       11.4584314505
C         22.4418537301       27.6440279110       11.2758912211
O         20.3541796232       24.8964494579       11.9649555499
O         21.7246710935       26.7247534903       12.1400358407
C         21.8794524963       29.0780688309       11.3675171708
N         21.1989743897       29.3717155484       12.5294549710
O         21.9887685394       29.8914003672       10.4649519010
C         20.2694298723       30.4991637789       12.6827578029
C         18.8050275242       29.9936876454       12.5794871172
C         20.5753091737       31.2581549454       14.0047074767
C         18.5315078376       29.2019048305       11.3062448372
C         19.7244667379       32.5482071567       14.1497584365
O         20.3731064196       30.3912389858       15.1249363371
C         18.3253737453       27.8108609246       11.3629701082
C         18.4856822915       29.8559734686       10.0616290171
N         20.1549544276       33.4649378412       15.2435308307
C         18.0679458940       27.0830087585       10.1892950925
C         18.2310106408       29.1288732736        8.8868617102
C         21.5301643343       34.0185278954       15.1464341694
S         19.6209903756       33.1554451342       16.8395181097
C         18.0160322993       27.7431651870        8.9512967111
C         21.8658457713       34.7131097280       13.8003365100
C         17.9050614103       32.6142493271       16.6441079864
O         20.4691734163       32.0749644509       17.3600944634
O         19.5645813773       34.4793451808       17.4715211204
C         20.9084117202       35.8924821121       13.5146396737
C         23.3249146476       35.2153256463       13.8142857519
C         16.9014269125       33.5512876001       16.3283569752
C         17.5639822543       31.2533752193       16.7763191599
C         15.5730403766       33.1303432800       16.1475638352
C         16.2344705101       30.8374469546       16.5928439222
C         15.2378143136       31.7739863059       16.2785922946
N         13.9313313859       31.3619110369       16.0969652229
H         19.6925211522       22.7311114345        6.1775649250
H         20.6110402681       21.7413439855        8.2411512223
H         20.3730042931       26.6875644946        7.7801959368
H         21.4040654158       23.1921315586       10.0897329650
H         18.1213591415       23.9050261918        4.7511875271
H         18.5737597224       25.1881538221        3.5992458808
H         19.7695061283       23.9500497439        4.0629773702
H         21.8146518386       27.7213841374        9.1750145895
H         23.2336651388       26.6669084879        9.4871724098
H         23.5011576504       27.6828734400       11.5573901213
H         21.1688190509       28.6419755294       13.2314037700
H         20.4390374232       31.2036830763       11.8566191158
H         18.5715157101       29.3787579802       13.4580809110
H         18.1150349393       30.8444326554       12.6173258205
H         21.6334806251       31.5474029603       13.9584078820
H         19.7669314589       33.0875118246       13.1960151852
H         18.6731109865       32.2669542970       14.2748984074
H         20.6933174228       30.8640493253       15.9284181539
H         18.3662463411       27.2919541480       12.3171204501
H         18.6514260817       30.9283037534       10.0048010845
H         17.9113467187       26.0081910849       10.2396798482
H         18.1987303398       29.6390621468        7.9274585431
H         21.6737061971       34.7601505880       15.9445946504
H         22.2610988607       33.2200079677       15.3316501419
H         17.8160517627       27.1817447377        8.0417594566
H         21.7812572286       33.9839777166       12.9831821010
H         20.9661195736       36.6478489350       14.3088406376
H         21.1601380866       36.3795046997       12.5639587673
H         19.8670566002       35.5538291965       13.4480822344
H         23.5874523602       35.6814314606       12.8558416561
H         23.4813196872       35.9589987647       14.6064763945
H         24.0237219816       34.3860007652       13.9837435029
H         17.1535457182       34.6034445653       16.2180942733
H         18.3282149413       30.5172868178       17.0137751306
H         14.8042056908       33.8580767742       15.9027246418
H         15.9791503372       29.7860741086       16.6928452376
H         13.2053095897       32.0322641588       15.8696385319
H         13.6809943793       30.3836732731       16.1891583429
    82
VM2 Rank=4      G=195.949           E=98.914            -TS=97.035              
C         22.2409470883       24.3427992068        6.2200813245
C         21.2048154813       25.2979543791        6.2686615592
C         23.1625187803       24.2309888424        7.2725170413
C         21.1128007861       26.1391429135        7.3993709512
C         20.2258826044       25.3972016262        5.1224321181
C         23.0587618637       25.0726158629        8.3895571566
C         22.0309508678       26.0297001052        8.4616337645
C         19.1237798174       26.4499446997        5.1640652114
O         20.2991835071       24.6517195214        4.1586394498
N         21.9246778992       26.8846296069        9.5933869435
C         21.7200330734       28.3212966596        9.4484425744
C         22.0216677328       26.5048830954       10.9185959117
C         21.6821257948       28.8318479747       10.8996064986
O         22.1891860613       25.3792174026       11.3551099934
O         21.8975138317       27.6277813739       11.6810639933
C         20.3531059557       29.5334885060       11.2425523992
N         19.6462260172       28.9879402706       12.2922215385
O         19.9249360541       30.4772370446       10.6006427714
C         18.2031980225       29.1891157289       12.5024507029
C         17.5192493958       27.8016977901       12.5898242625
C         17.9312239351       30.0822956763       13.7465268332
C         17.8052080910       26.9267648956       11.3746755704
C         18.5108450548       31.5133037611       13.5654102629
O         16.5253295749       30.1720254616       13.9872465544
C         18.6896250813       25.8363571847       11.4709716199
C         17.1913525638       27.2101523240       10.1411362591
N         18.6764628060       32.2874676948       14.8255743282
C         18.9520369309       25.0345939048       10.3476079842
C         17.4522999996       26.4087078973        9.0172847342
C         19.5898122477       31.7079360751       15.8480406005
S         17.2995284356       33.1146262914       15.4079190994
C         18.3306937532       25.3182257868        9.1212686840
C         20.9945524443       31.3126009660       15.3208931830
C         17.9726621212       34.2726783933       16.6224722970
O         16.8525297088       33.9348994274       14.2756164211
O         16.4294912334       32.1064867101       16.0280211061
C         21.7442816750       32.5309449347       14.7354731000
C         21.8273423241       30.6822262953       16.4565984238
C         17.7470006525       34.0733280884       17.9987800254
C         18.7493813247       35.3688299129       16.1988367043
C         18.2908842020       34.9649619967       18.9389901623
C         19.2913499595       36.2570780470       17.1431479486
C         19.0628922218       36.0570130914       18.5133215243
N         19.5976530240       36.9312925726       19.4403304076
H         22.3342793822       23.6827919173        5.3609762762
H         23.9579658741       23.4914143049        7.2217802255
H         20.3182655688       26.8747101343        7.4674484536
H         23.7797401737       24.9790750614        9.1977973778
H         19.5632992394       27.4505401708        5.2448483294
H         18.5239131335       26.4008823973        4.2477683746
H         18.4692500927       26.2728168259        6.0240457811
H         20.7731788911       28.5293932717        8.9337032635
H         22.5525375007       28.7736597405        8.8949285793
H         22.4937432358       29.5481847631       11.0765995980
H         20.0893934924       28.1986581323       12.7459836259
H         17.7853060650       29.7080288144       11.6281252745
H         17.8406741929       27.2953724390       13.5086654592
H         16.4340642674       27.9343759605       12.6844509179
H         18.4208955139       29.5983684444       14.6010562926
H         19.4849833235       31.4436548562       13.0708002267
H         17.8693163183       32.0627436530       12.8636468535
H         16.4017657203       30.6762675335       14.8266153534
H         19.1765453360       25.6094758788       12.4156631829
H         16.5097708259       28.0522462406       10.0549996715
H         19.6384087257       24.1950476211       10.4280516401
H         16.9694195405       26.6309436235        8.0693325017
H         19.7452898665       32.4278028274       16.6613720531
H         19.1174501543       30.8269733589       16.3028357676
H         18.5312985270       24.6942328269        8.2541336196
H         20.8894569165       30.5520489803       14.5355804618
H         21.8740355291       33.3149748404       15.4926114660
H         22.7387180684       32.2410113550       14.3731889826
H         21.1979343221       32.9669457812       13.8898669820
H         22.8135369785       30.3687399894       16.0906843972
H         21.9815366121       31.3938536621       17.2781459869
H         21.3262513960       29.7949828067       16.8646014585
H         17.1536167615       33.2279147920       18.3390703653
H         18.9350498468       35.5274469488       15.1390463746
H         18.1137196315       34.8064127949       19.9992763446
H         19.8903610661       37.1002756968       16.8101903317
H         19.4365838828       36.7945673699       20.4321667842
H         20.1559033933       37.7232797252       19.1411974033
    82
VM2 Rank=5      G=195.974           E=99.580            -TS=96.394              
C         21.0477899886       24.2035748051        5.4593599890
C         21.4320013372       23.4740283858        6.6050804815
C         20.8039685050       25.5833411456        5.5420404397
C         21.5620079635       24.1600097985        7.8311245603
C         21.7056328508       21.9895615304        6.5472762836
C         20.9385884243       26.2513105777        6.7679000246
C         21.3132043558       25.5426779299        7.9237315909
C         21.5528638452       21.2489111741        5.2234588764
O         22.0485581707       21.3677566023        7.5403627236
N         21.4507187003       26.2169033419        9.1693474814
C         22.1417941460       27.4966185811        9.2725554781
C         20.9989336999       25.7722425385       10.3974355617
C         22.0669948245       27.8336349284       10.7739400474
O         20.3812872193       24.7475247554       10.6308974176
O         21.3799192988       26.6852017660       11.3343881835
C         21.3239596546       29.1539867831       11.0644385516
N         20.4765033139       29.1286527159       12.1510294857
O         21.4348112409       30.1441838637       10.3605418185
C         19.3715362874       30.0758753093       12.3548598304
C         18.0238158348       29.4059989848       11.9755656355
C         19.4054702055       30.6326500259       13.8058480047
C         18.0305509853       28.7939608653       10.5793496418
C         18.3440358608       31.7431434232       14.0298762346
O         19.2211595922       29.5694557952       14.7463383643
C         17.9913138472       27.3967677715       10.4153147241
C         18.0863353088       29.6204139105        9.4422125001
N         18.5685678036       32.5932847758       15.2309718512
C         18.0011903220       26.8322499384        9.1290672779
C         18.1001150636       29.0569557481        8.1553332580
C         19.8393230521       33.3663478097       15.2754394133
S         17.9917620873       31.9888898500       16.7220674183
C         18.0531876609       27.6625512425        7.9985656435
C         20.1079589961       34.2484345913       14.0285649356
C         17.9786681169       33.4411776051       17.7990256957
O         16.5825610222       31.6638043524       16.4704071536
O         18.9544550633       30.9740627151       17.1702702288
C         18.9845370177       35.2895639198       13.8202209298
C         21.4662547598       34.9664177755       14.1723423837
C         17.0538202979       34.4795184025       17.5737183998
C         18.9076032921       33.5562177645       18.8519710977
C         17.0575254615       35.6190233838       18.3958722414
C         18.9066445916       34.6977028734       19.6716232589
C         17.9827918334       35.7297114696       19.4452675939
N         17.9852780967       36.8516984735       20.2519972883
H         20.9359165168       23.7134339926        4.4967921460
H         20.5092182356       26.1362805467        4.6533870525
H         21.8613399031       23.6104422828        8.7200026333
H         20.7408691533       27.3185003081        6.8154162540
H         20.5242687113       21.3441290456        4.8576472792
H         22.2403531562       21.6664387401        4.4792166642
H         21.7825811201       20.1856771490        5.3598087276
H         21.6329624632       28.2586105054        8.6684525503
H         23.1840755354       27.3966802714        8.9445961067
H         23.0737008552       27.9162445762       11.2012923629
H         20.4586262434       28.2688147640       12.6861908470
H         19.5193334671       30.9295114006       11.6788360996
H         17.7824847055       28.6351143868       12.7184828810
H         17.2151803069       30.1438985175       12.0345259077
H         20.4027959903       31.0698071002       13.9432667115
H         18.3215434158       32.3816648435       13.1387896625
H         17.3523450035       31.2754374619       14.0868547930
H         19.3362831158       29.9497923193       15.6491723240
H         17.9575081815       26.7458886650       11.2850820590
H         18.1249750795       30.7002807324        9.5564806313
H         17.9732331293       25.7518341581        9.0095701920
H         18.1450084457       29.7010644932        7.2808333804
H         19.8392565912       34.0360038981       16.1446137428
H         20.6833601977       32.6784818753       15.4186568907
H         18.0598483053       27.2256213520        7.0031530507
H         20.1696971002       33.6108620587       13.1361858230
H         18.0139908973       34.8029713723       13.6624625325
H         18.8922353624       35.9499592938       14.6921606509
H         19.1885018648       35.9144639946       12.9414463326
H         22.2824517904       34.2420892148       14.2906313880
H         21.6846762029       35.5717112716       13.2831269006
H         21.4732575552       35.6323430644       15.0450803656
H         16.3372370762       34.4032073196       16.7591955545
H         19.6302959078       32.7640036397       19.0329482536
H         16.3422176885       36.4170319384       18.2164971083
H         19.6253809196       34.7812767025       20.4822827098
H         17.3219950179       37.6024561508       20.0945421130
H         18.6511447839       36.9401286229       21.0117226190
    82
VM2 Rank=6      G=195.994           E=99.062            -TS=96.932              
C         22.0180806234       23.7836235166        6.5931120788
C         21.4775473231       25.0843377488        6.5280502437
C         22.4349492189       23.2411995848        7.8184112419
C         21.3621136158       25.8294967501        7.7222474980
C         21.0375364297       25.6444164170        5.1959214912
C         22.3149053707       23.9926687674        8.9964093676
C         21.7744875896       25.2903068900        8.9561608601
C         20.4940120567       27.0668582767        5.1211590539
O         21.1108693100       24.9819862899        4.1732722353
N         21.6520343294       26.0534154458       10.1500689441
C         22.0822596450       27.4455134410       10.2147080332
C         21.1604689298       25.6048068359       11.3611111602
C         21.7757897050       27.8539902610       11.6662750215
O         20.7248380132       24.4957016040       11.6176239417
O         21.2414494893       26.6362552995       12.2483396177
C         20.7895113392       29.0360331784       11.7463023078
N         19.5865749991       28.7677046849       12.3627628008
O         21.0275392069       30.1227746084       11.2477796083
C         18.3608614823       29.5501106162       12.1387103022
C         17.1997562574       28.5786568411       11.8140155006
C         18.0445611728       30.4824833825       13.3414423187
C         17.4984882813       27.6937253783       10.6096818525
C         19.2171168697       31.4566277936       13.6358226811
O         16.8629862063       31.2421624267       13.0765050037
C         17.8509186805       26.3424694047       10.7838268018
C         17.4329112343       28.2276200688        9.3099841547
N         18.9423556872       32.5003949430       14.6656206807
C         18.1309449965       25.5334365738        9.6698872687
C         17.7102053827       27.4190599227        8.1952650721
C         20.0002375600       33.5454740889       14.7615812614
S         18.2938659891       31.9244752338       16.1470240980
C         18.0577365909       26.0705553428        8.3749751449
C         20.3315748331       34.2880988118       13.4389105258
C         18.4697941826       33.2828396466       17.3316506064
O         16.8579894308       31.7703661280       15.8785123161
O         19.1466529096       30.8036298234       16.5605113551
C         19.0688574479       34.9152518191       12.8043431448
C         21.3837841932       35.3863903907       13.7019618938
C         17.5419469687       34.3434071085       17.3355583414
C         19.5448928812       33.3005353561       18.2426943352
C         17.6893528134       35.4078208906       18.2409447352
C         19.6873721766       34.3674156236       19.1460621377
C         18.7611509403       35.4216597210       19.1466435040
N         18.9047176370       36.4702430639       20.0351494574
H         22.1175950084       23.1886293826        5.6884259217
H         22.8518893544       22.2376386487        7.8545084562
H         20.9372383041       26.8275843155        7.7024779587
H         22.6434891107       23.5636820467        9.9397144270
H         21.2428157397       27.7748050211        5.4939859311
H         20.2531983201       27.3219925135        4.0825292172
H         19.5847522688       27.1521592638        5.7253446169
H         21.5155023588       28.0619194878        9.5050457257
H         23.1560002094       27.5254100646       10.0030893230
H         22.6960519409       28.1502325475       12.1844552220
H         19.4937962217       27.8327292088       12.7400926531
H         18.5096863825       30.1913612557       11.2581515124
H         16.9807210437       27.9634284461       12.6958094942
H         16.2868403808       29.1545756232       11.6158467769
H         17.8834654536       29.8445737843       14.2212325987
H         20.0896820625       30.8677262942       13.9474930493
H         19.4717005420       31.9221157773       12.6778817006
H         16.6218796301       31.6691583943       13.9323110121
H         17.9107467079       25.9175811419       11.7822775778
H         17.1646169169       29.2707551453        9.1647538948
H         18.4061805085       24.4909903296        9.8113028097
H         17.6506903934       27.8377005721        7.1941078948
H         19.6959117885       34.3242792830       15.4703306042
H         20.9214712459       33.0952290235       15.1564428276
H         18.2708640436       25.4424230165        7.5137638108
H         20.7760779597       33.5833011662       12.7232335941
H         18.3278199727       34.1467637012       12.5493164044
H         18.5938249428       35.6269951403       13.4915028709
H         19.3203337488       35.4509387767       11.8802341352
H         21.0041890726       36.1413475154       14.4027773439
H         22.3001147921       34.9575412430       14.1276736833
H         21.6570593826       35.8973064928       12.7697341558
H         16.7107714777       34.3439818504       16.6342016236
H         20.2707765347       32.4908359636       18.2486147948
H         16.9710519770       36.2231373124       18.2378017632
H         20.5189885653       34.3756912750       19.8454102653
H         19.6755995076       36.4872627932       20.6938097852
H         18.2391406417       37.2353074263       20.0430448837
    82
VM2 Rank=7      G=196.003           E=99.547            -TS=96.456              
C         21.0368604105       24.2300942015        5.4366575408
C         21.3804067678       23.4853101465        6.5834705480
C         20.8356180037       25.6164346837        5.5169067652
C         21.5172774795       24.1636630459        7.8146743271
C         21.5912930950       21.9936872318        6.4705039301
C         20.9731878870       26.2765572530        6.7464980053
C         21.3094336351       25.5538444425        7.9058549459
C         21.9464702870       21.1885983009        7.7157000035
O         21.4811699361       21.4159806978        5.4006464161
N         21.4476809048       26.2213793558        9.1557635157
C         22.1526919068       27.4928311949        9.2693391210
C         20.9838406185       25.7768879629       10.3797561496
C         22.0755014984       27.8226712652       10.7721739417
O         20.3581596175       24.7552354221       10.6058239292
O         21.3724461647       26.6795694226       11.3233660057
C         21.3470492813       29.1502972189       11.0663785818
N         20.4889605139       29.1275101301       12.1446467446
O         21.4772047161       30.1442730567       10.3711843694
C         19.3921842003       30.0852516568       12.3434129030
C         18.0414913477       29.4332428621       11.9437475839
C         19.4155773376       30.6300028741       13.7992057286
C         18.0579987498       28.8272917191       10.5448936523
C         18.3623691574       31.7487826277       14.0208640339
O         19.2109378949       29.5609556579       14.7288229527
C         17.9947229853       27.4318051102       10.3738842966
C         18.1466126385       29.6573619388        9.4124629717
N         18.5801687685       32.5852097928       15.2327901216
C         18.0132977381       26.8727059518        9.0853695092
C         18.1694454023       29.0992316417        8.1233975789
C         19.8576338036       33.3453841308       15.3003316655
S         17.9791001307       31.9725640589       16.7108772046
C         18.0984206164       27.7066666341        7.9595877031
C         20.1493336383       34.2377670851       14.0660449671
C         17.9644188948       33.4153116749       17.8005322399
O         16.5705415410       31.6618444997       16.4383475970
O         18.9272590962       30.9455025755       17.1621775224
C         19.0382371586       35.2915801853       13.8553847220
C         21.5124609808       34.9413455097       14.2333934223
C         17.0515966627       34.4636423332       17.5724811047
C         18.8802873627       33.5128172140       18.8666101018
C         17.0542018363       35.5956607303       18.4049130036
C         18.8782744761       34.6468778982       19.6965005201
C         17.9663908302       35.6888722401       19.4673744425
N         17.9677840276       36.8034963646       20.2842476101
H         20.9250598610       23.7323720025        4.4763753879
H         20.5708503985       26.1792844477        4.6250892687
H         21.7876578422       23.6154762779        8.7116099670
H         20.8069129323       27.3490665031        6.7936751788
H         22.8947483358       21.5444389817        8.1340060862
H         21.1574031491       21.2957376441        8.4687587995
H         22.0489552744       20.1275548188        7.4597479225
H         21.6546970473       28.2642015789        8.6681256022
H         23.1951193962       27.3834170271        8.9448804469
H         23.0812614909       27.8909938189       11.2042514696
H         20.4555161685       28.2640390562       12.6731850619
H         19.5570950390       30.9424987925       11.6759762369
H         17.7816544350       28.6619562742       12.6799673969
H         17.2410703758       30.1805441997       11.9960886412
H         20.4154464779       31.0564567580       13.9510682778
H         18.3572236540       32.3959140843       13.1357378425
H         17.3655249039       31.2903972129       14.0611111949
H         19.3192590256       29.9327900979       15.6360183425
H         17.9352590239       26.7779468925       11.2400279568
H         18.2039642422       30.7358057787        9.5321658592
H         17.9665247209       25.7935657679        8.9605030689
H         18.2399182707       29.7460891207        7.2526232710
H         19.8536559690       34.0059058455       16.1764642226
H         20.6933083936       32.6479337536       15.4462000821
H         18.1119965410       27.2739288768        6.9624118710
H         20.2157081062       33.6089171493       13.1678300696
H         18.9416202212       35.9436302114       14.7331202664
H         19.2585420805       35.9237159570       12.9857773286
H         18.0651742302       34.8158345574       13.6809219065
H         21.7471162899       35.5537331927       13.3532165986
H         21.5152567594       35.5980988984       15.1130784379
H         22.3203960785       34.2081495462       14.3537492910
H         16.3452030997       34.4008435236       16.7479632670
H         19.5936538420       32.7127256471       19.0499219133
H         16.3481985526       36.4014310114       18.2233929927
H         19.5868781030       34.7169121243       20.5172992231
H         17.3130725123       37.5613490561       20.1249229377
H         18.6242064996       36.8792864413       21.0534977490
    82
VM2 Rank=8      G=196.025           E=99.330            -TS=96.696              
C         20.7265099183       24.7868340421        5.4587120432
C         21.9780261539       25.0370906726        6.0617081528
C         19.5625391781       25.3942427825        5.9548910079
C         22.0318368239       25.9059347506        7.1720512195
C         23.2487985818       24.4020540670        5.5481806920
C         19.6324937938       26.2565897889        7.0587217260
C         20.8679879810       26.5140625943        7.6799467445
C         23.1856280708       23.4535853520        4.3561997870
O         24.3292125975       24.6329982047        6.0676232374
N         20.9419052151       27.3887518392        8.8000900166
C         20.2240017624       28.6578464554        8.8243566558
C         21.6815855867       27.1899088945        9.9510549294
C         20.6572093143       29.2962253871       10.1554515001
O         22.3721146995       26.2248303218       10.2297736962
O         21.5076534044       28.2812737067       10.7490679550
C         19.4612031962       29.6766751954       11.0494645507
N         19.4412821756       29.0916194308       12.2969114239
O         18.5587519793       30.4003576357       10.6646727638
C         18.2112845842       28.8909086371       13.0804649326
C         18.0756184045       27.3834336650       13.4122213175
C         18.1869378793       29.7978603004       14.3433367004
C         18.1871661356       26.4936990822       12.1787620125
C         18.1751381952       31.3060022650       13.9670936115
O         17.0354604931       29.5006056716       15.1359710179
C         19.2997640592       25.6490798995       12.0077584562
C         17.1856686459       26.5235728445       11.1909804916
N         18.5673885740       32.2300730611       15.0657765803
C         19.4060123368       24.8382623639       10.8656026193
C         17.2928994932       25.7159461732       10.0464908228
C         19.9365588247       32.0579781757       15.6235636477
S         17.3418218446       32.6813599751       16.1673851561
C         18.4020728617       24.8704562542        9.8853143617
C         21.0738357636       32.0345823062       14.5683965467
C         18.0369838572       34.1140794941       17.0237667264
O         16.2589642676       33.2034521507       15.3249903314
O         17.1418223255       31.5403694250       17.0707032419
C         21.1177288229       33.3468586444       13.7528009954
C         22.4330752984       31.8035132507       15.2611175892
C         18.4372372959       34.0142290403       18.3708795996
C         18.2056461871       35.3334239327       16.3388920416
C         18.9967044572       35.1253276619       19.0245379626
C         18.7660920766       36.4412154407       16.9970249722
C         19.1617671182       36.3391815122       18.3396433356
N         19.7136097649       37.4296476517       18.9846468273
H         20.6416446816       24.1240292484        4.6026956001
H         18.6033538371       25.1950364816        5.4830985863
H         22.9902668307       26.1101405107        7.6425545862
H         18.7209396641       26.7125489155        7.4348083091
H         22.7887226592       23.9789159600        3.4802086281
H         24.1890659147       23.0804735143        4.1201338232
H         22.5375992405       22.6012996134        4.5897856683
H         19.1399588892       28.4851485818        8.8080965280
H         20.5155921129       29.2849599106        7.9724328147
H         21.2381858663       30.2076072054        9.9682007979
H         20.2356546124       28.4982032222       12.5031101937
H         17.3472548447       29.1700246524       12.4610096808
H         18.8382047033       27.1067343650       14.1510308363
H         17.1078762332       27.2027424376       13.8970788824
H         19.0960271157       29.5742005432       14.9158219555
H         18.8502724426       31.4669508680       13.1202842211
H         17.1755183661       31.5638390077       13.5926959979
H         17.0990692627       30.0380458603       15.9613059190
H         20.0857477737       25.6217654223       12.7576620062
H         16.3247289176       27.1759227089       11.3100173631
H         20.2700987743       24.1907971384       10.7375592111
H         16.5160429034       25.7440177115        9.2866622772
H         20.1628307982       32.8765015138       16.3183319649
H         19.9772296493       31.1329362545       16.2140678796
H         18.4862683644       24.2444083727        9.0004775492
H         20.9147983521       31.1951071635       13.8782275283
H         20.1800975649       33.5084679331       13.2065515815
H         21.2794628770       34.2127973460       14.4076178921
H         21.9303309477       33.3221236441       13.0157222071
H         22.4329044755       30.8589843739       15.8202453881
H         23.2443492908       31.7535081106       14.5235005768
H         22.6638187583       32.6148145430       15.9637367036
H         18.3173404474       33.0769677793       18.9092025555
H         17.9061923569       35.4186114645       15.2968480756
H         19.3037268624       35.0427120954       20.0635970417
H         18.8944160451       37.3788259736       16.4630991200
H         20.0013603690       37.3646908507       19.9548820829
H         19.8357249441       38.3105429823       18.4973267819
    82
VM2 Rank=9      G=196.026           E=99.306            -TS=96.720              
C         21.9476949866       23.9189507214        6.5231686959
C         21.3911506702       25.2163068529        6.5273605456
C         22.4151155213       23.3401222634        7.7141106689
C         21.3232657224       25.9179098378        7.7485733557
C         20.8592227780       25.8605856350        5.2692947471
C         22.3292494286       24.0464939894        8.9232630058
C         21.7797371372       25.3399472073        8.9472113138
C         20.9680812523       25.1180622423        3.9424240091
O         20.3390711534       26.9647259640        5.2932318979
N         21.6798595183       26.0576130299       10.1692232234
C         22.1491723578       27.4327527559       10.2864364944
C         21.1544759491       25.5824144338       11.3549428386
C         21.8075206934       27.8088586544       11.7387504049
O         20.6994786346       24.4721707816       11.5695797436
O         21.2429288650       26.5837323383       12.2759090978
C         20.8339683659       29.0014007726       11.8161819150
N         19.6042875417       28.7356405984       12.3792031225
O         21.1055233932       30.0970934180       11.3557671672
C         18.3994914832       29.5404012066       12.1214173527
C         17.2256855746       28.5914348618       11.7753942440
C         18.0687554243       30.4850632493       13.3112091653
C         17.5478871540       27.6456331314       10.6240352487
C         19.2457117424       31.4462416470       13.6289349183
O         16.9033656704       31.2581529435       13.0150030889
C         17.7415470730       26.2723281218       10.8627116650
C         17.6611470748       28.1406281485        9.3117933352
N         18.9598140168       32.4979644626       14.6475513087
C         18.0351786686       25.4022303885        9.7997379467
C         17.9570097268       27.2715390845        8.2481751617
C         20.0281235541       33.5302921279       14.7639001760
S         18.2697536566       31.9368557436       16.1157626242
C         18.1380066241       25.9008439910        8.4917735322
C         20.4003553703       34.2621385918       13.4461011508
C         18.4350185332       33.2983114182       17.2983831923
O         16.8387494600       31.7993271932       15.8142729107
O         19.0985744570       30.8074404710       16.5539166094
C         19.1611952000       34.9018406514       12.7784650664
C         21.4596908701       35.3485328783       13.7291975193
C         17.5203864568       34.3700796360       17.2764797823
C         19.4890875698       33.3070631600       18.2338068376
C         17.6600257083       35.4366979792       18.1805047418
C         19.6238860686       34.3762017330       19.1356787412
C         18.7108738571       35.4416067428       19.1105203728
N         18.8468750360       36.4923689406       19.9976410606
H         22.0195230879       23.3456286225        5.6036719660
H         22.8402632146       22.3394248556        7.7004571049
H         20.8898998921       26.9140741248        7.7665926470
H         22.6890286946       23.5866946169        9.8403485757
H         20.4074885168       24.1778271415        3.9924952144
H         20.5559755163       25.7330731410        3.1338740456
H         22.0188269322       24.9000648748        3.7204109096
H         21.6269327471       28.0856251815        9.5750868760
H         23.2314144160       27.4834739517       10.1126973711
H         22.7158388505       28.0826370058       12.2893236282
H         19.4819655482       27.7919076049       12.7253083001
H         18.5832428531       30.1729334869       11.2412253031
H         16.9451976358       28.0210045044       12.6698068546
H         16.3427277601       29.1870908885       11.5108832285
H         17.8788756882       29.8544909451       14.1905444519
H         20.1034639621       30.8481973674       13.9634154856
H         19.5279876829       31.9044954347       12.6753214904
H         16.6477978652       31.6925835492       13.8628221162
H         17.6655504565       25.8766215569       11.8719326317
H         17.5194345425       29.2003215873        9.1169301614
H         18.1876698553       24.3428594971        9.9912397571
H         18.0470016104       27.6590848665        7.2360317571
H         19.7167415110       34.3163148221       15.4615356393
H         20.9339413568       33.0705523263       15.1827599338
H         18.3671443253       25.2279016376        7.6693416520
H         20.8530045067       33.5482537508       12.7446432463
H         18.4168626440       34.1414033800       12.5092996833
H         18.6788339704       35.6228564287       13.4506903774
H         19.4414710866       35.4297484402       11.8581719456
H         21.0729315877       36.1116720571       14.4171129500
H         22.3600770356       34.9104229512       14.1788270865
H         21.7616543436       35.8513085050       12.8014063895
H         16.7055814442       34.3775955858       16.5562094741
H         20.2046889109       32.4886545393       18.2598177756
H         16.9520310329       36.2606614874       18.1574035017
H         20.4393063541       34.3775408038       19.8538916191
H         19.6026604441       36.5030358696       20.6736998491
H         18.1907203675       37.2654961417       19.9870019505
    82
VM2 Rank=10     G=196.057           E=98.903            -TS=97.153              
C         21.2806053665       25.3771117095        5.9059026038
C         20.4889447505       26.4710247423        6.3175417541
C         22.2307381106       24.8178762822        6.7755740009
C         20.6791076203       26.9921785909        7.6138487360
C         19.4434430691       27.0835646615        5.4161744675
C         22.3994415428       25.3402152940        8.0667403132
C         21.6214513041       26.4300051273        8.4943214674
C         19.2657283369       26.5468368702        4.0005046571
O         18.7332257556       27.9993825691        5.7997812739
N         21.7797721034       26.9586832175        9.8036162792
C         21.9419701063       28.3889730858       10.0336560641
C         21.8041666804       26.2348439448       10.9798314946
C         22.0422936024       28.5001021284       11.5650223460
O         21.7056898570       25.0265123666       11.1063222782
O         21.9754488388       27.1178955387       12.0042480650
C         20.9198846692       29.3718464817       12.1616715878
N         20.0834284641       28.7407129282       13.0570651385
O         20.7440565712       30.5307925615       11.8270095245
C         18.7240714380       29.2094064233       13.3724722059
C         17.7385337967       28.0260927206       13.2028554090
C         18.6526586090       29.8550025389       14.7860171428
C         17.8357086317       27.3626546381       11.8335715006
C         19.5696261366       31.1047052003       14.8954019317
O         17.3051485749       30.2280458684       15.0798511306
C         18.3740411230       26.0687433599       11.7053044697
C         17.3925699152       28.0426242843       10.6841562852
N         19.7788989978       31.6124684254       16.2808882053
C         18.4583225859       25.4574340622       10.4433982221
C         17.4788233451       27.4331187406        9.4211394001
C         20.4149186014       30.6740077860       17.2414801943
S         18.6113517415       32.6580230118       16.9645378297
C         18.0059186398       26.1374344838        9.3019601825
C         21.7368690561       30.0244283019       16.7517627443
C         18.1476645617       33.7638865751       15.6095522116
O         17.4850186427       31.8114480814       17.3801736196
O         19.3664334085       33.4776900277       17.9202922134
C         22.8099230408       31.0892069462       16.4292225173
C         22.2732969063       29.0477895618       17.8192090974
C         19.0356768437       34.7725479124       15.1864698920
C         16.9086837016       33.6137026225       14.9553875206
C         18.6862643753       35.6210314550       14.1222662506
C         16.5644649357       34.4643005996       13.8911917631
C         17.4513322115       35.4684467652       13.4734383601
N         17.1103834303       36.3032015071       12.4261676490
H         21.1662301730       24.9470975182        4.9152725185
H         22.8342975769       23.9742434278        6.4494819564
H         20.0709531875       27.8293782167        7.9450328413
H         23.1343677546       24.8961367508        8.7335055072
H         18.9720323031       25.4916525795        4.0343084846
H         18.4859641580       27.1146319085        3.4795425769
H         20.2044972579       26.6421968391        3.4432794577
H         21.0762080399       28.9458579084        9.6524150628
H         22.8591549111       28.7522346917        9.5532209850
H         23.0015020797       28.9451094216       11.8566375345
H         20.3125352458       27.7744017415       13.2548399346
H         18.4395518403       29.9821879567       12.6442339323
H         17.9178615392       27.2897843769       13.9963440893
H         16.7115533910       28.3829405126       13.3518857116
H         18.9910004313       29.0982068317       15.5055504329
H         20.5480150907       30.8558800926       14.4719947642
H         19.1709352238       31.8877798141       14.2394764057
H         17.2791364951       30.5330191369       16.0173844061
H         18.7283698947       25.5345216211       12.5827606041
H         16.9807046926       29.0445377783       10.7708432718
H         18.8784303428       24.4588965895       10.3505430442
H         17.1376520577       27.9634491688        8.5351407423
H         20.6363087874       31.2120705495       18.1736825602
H         19.7018994109       29.8809649620       17.5038386527
H         18.0719864851       25.6649668023        8.3251356244
H         21.5399834522       29.4367104630       15.8447804027
H         22.4735626837       31.7667355795       15.6346168582
H         23.0401581160       31.6966793159       17.3138433962
H         23.7404835181       30.6166673163       16.0900920851
H         22.5017932452       29.5709053144       18.7568545116
H         21.5376013183       28.2631790481       18.0381021602
H         23.1916172061       28.5560495970       17.4733201722
H         19.9967856479       34.8945962285       15.6805567980
H         16.2153119874       32.8361306828       15.2668015231
H         19.3762149782       36.3962873314       13.8004155400
H         15.6083990096       34.3416664186       13.3896962692
H         17.7458717644       37.0307026875       12.1177190481
H         16.2204223658       36.1989753733       11.9514733113
    82
VM2 Rank=11     G=196.069           E=99.510            -TS=96.559              
C         21.2231445556       24.1916644150        6.0845532681
C         20.9568418826       25.5560660431        6.3209595616
C         21.7127983276       23.3686055256        7.1105431582
C         21.1891298684       26.0767018363        7.6128795231
C         20.4313614494       26.4204781973        5.1993863546
C         21.9407066478       23.8994880152        8.3885183560
C         21.6776686520       25.2560903389        8.6474554066
C         20.2372742913       27.9149502571        5.4304880221
O         20.1643671560       25.9484599290        4.1058686011
N         21.8982107952       25.7940000223        9.9444582726
C         22.6414984108       27.0330422218       10.1457543044
C         21.4733967818       25.2452396780       11.1391261756
C         22.4827462103       27.3027009652       11.6523547561
O         20.8586614644       24.2050026266       11.2987084866
O         21.8857723398       26.0726359567       12.1409181568
C         21.5926480974       28.5344939914       11.9185133304
N         20.3973582870       28.2847232701       12.5545910785
O         21.8930377429       29.6547414390       11.5416224077
C         19.2703674478       29.2252533051       12.5886590323
C         17.9455485795       28.4621373897       12.3361007172
C         19.2852729097       30.0446792030       13.9092168075
C         17.9389560636       27.7464680545       10.9910563472
C         18.2734149663       31.2209722684       13.8716676763
O         19.0173187914       29.1943748511       15.0284605778
C         18.2218231640       26.3702749205       10.9125953333
C         17.6586540245       28.4614590297        9.8124855103
N         18.5277101267       32.2958953351       14.8693245311
C         18.2267461643       25.7164700416        9.6691876025
C         17.6561732159       27.8073870320        8.5691848809
C         19.8376067149       32.9971991057       14.7779238140
S         17.9089195708       32.0424599234       16.4422672856
C         17.9408901005       26.4342786328        8.4970027639
C         20.1883099995       33.5476398910       13.3708119783
C         17.9812065657       33.6806739505       17.2040836232
O         16.4836163226       31.7566615437       16.2381015437
O         18.8063284112       31.0853163016       17.1027094475
C         19.1359862258       34.5706829799       12.8856093295
C         21.5843406151       34.2045569420       13.3939217562
C         18.9184052432       33.9534974768       18.2200192966
C         17.1154880785       34.7022640068       16.7668447569
C         18.9842189299       35.2348886864       18.7931711659
C         17.1858015854       35.9819518026       17.3429562789
C         18.1190840112       36.2499698469       18.3562420770
N         18.1871892119       37.5095027506       18.9206966464
H         21.0515542831       23.7656165975        5.0989567666
H         21.9154012110       22.3184546780        6.9146210693
H         20.9728690229       27.1180035929        7.8278384625
H         22.3200311649       23.2540807095        9.1768417815
H         21.1847815946       28.3726453535        5.7365269250
H         19.8946358782       28.3958435846        4.5068340202
H         19.4892229604       28.0798421477        6.2128525185
H         22.2241284061       27.8528003691        9.5473794190
H         23.6973598432       26.8844672389        9.8867365658
H         23.4551189450       27.4817074150       12.1271754649
H         20.2425931561       27.3353439914       12.8681762366
H         19.4003494557       29.9367939459       11.7607955790
H         17.7756682266       27.7431101262       13.1478651535
H         17.1015493626       29.1607547120       12.3733487104
H         20.2977629466       30.4585914766       13.9999399318
H         18.2891776153       31.6570024853       12.8657820595
H         17.2604607509       30.8195698774       14.0066699744
H         19.1359120006       29.7356760579       15.8444712570
H         18.4424144173       25.8063766474       11.8150511705
H         17.4406069619       29.5249591715        9.8607280380
H         18.4532843998       24.6542876642        9.6151912110
H         17.4313325382       28.3648745053        7.6636470245
H         19.8528031610       33.8511889622       15.4667090794
H         20.6385495187       32.3222064064       15.1082334624
H         17.9410080929       25.9269113233        7.5355734511
H         20.2331164986       32.7168216836       12.6532110344
H         19.0669828956       35.4222100868       13.5748126326
H         19.3964767437       34.9583179976       11.8925195240
H         18.1405002981       34.1154644806       12.8129200035
H         21.8588918951       34.5742098150       12.3975536414
H         21.6131705152       35.0530335207       14.0898931611
H         22.3516642765       33.4834080296       13.7039106620
H         19.5959275992       33.1749603153       18.5627754265
H         16.3930870753       34.5035752228       15.9785378069
H         19.7090582346       35.4398120786       19.5763389651
H         16.5158917485       36.7660615313       17.0008229015
H         18.8580130671       37.7113194141       19.6539413768
H         17.5652970021       38.2483739135       18.6113531371
    82
VM2 Rank=12     G=196.095           E=99.336            -TS=96.759              
C         20.7004122086       24.7829538531        5.4575937489
C         21.9516683303       25.0280551107        6.0593951312
C         19.5383703469       25.4004437267        5.9445987570
C         22.0110081434       25.9076881284        7.1627773898
C         23.1877802223       24.3502850801        5.5164371411
C         19.6119806233       26.2702127740        7.0421481440
C         20.8483398541       26.5255344229        7.6634137951
C         24.5367617108       24.6038671836        6.1803651566
O         23.1301208112       23.5994325633        4.5555258833
N         20.9242857439       27.4067777755        8.7791641823
C         20.1914574618       28.6674903336        8.8065481115
C         21.6788370265       27.2224302015        9.9232423691
C         20.6306289655       29.3165849788       10.1304905096
O         22.3893790406       26.2699449715       10.1955031752
O         21.5025225117       28.3161488730       10.7173279248
C         19.4394074600       29.6819317531       11.0371239520
N         19.4405575456       29.0974613863       12.2850053219
O         18.5233305636       30.3931997260       10.6615297310
C         18.2215105912       28.8796102258       13.0809672026
C         18.1091429152       27.3700987721       13.4123339635
C         18.1985719446       29.7848432939       14.3450701542
C         18.2241984989       26.4824055407       12.1776449148
C         18.1610342823       31.2930428792       13.9707516262
O         17.0606106728       29.4705592023       15.1505365075
C         17.2198566108       26.5052169284       11.1925330708
C         19.3428052182       25.6464985548       12.0030218023
N         18.5573767747       32.2210746725       15.0646107381
C         17.3304047872       25.6994583014       10.0470453000
C         19.4522876012       24.8373655177       10.8599755251
C         19.9374650519       32.0676179719       15.6005932797
S         17.3427658625       32.6530153611       16.1859639078
C         18.4456133070       24.8626506050        9.8822971633
C         21.0582690403       32.0608925541       14.5276973103
C         18.0319681171       34.0920098518       17.0366515412
O         16.2407065803       33.1634606707       15.3615291073
O         17.1712635243       31.5068483391       17.0885963252
C         21.0710493826       33.3742240372       13.7127190376
C         22.4313126551       31.8483480493       15.1987768687
C         18.1735869812       35.3158881908       16.3537369182
C         18.4547956515       33.9927822046       18.3768994517
C         18.7296203098       36.4287364540       17.0070665074
C         19.0097483901       35.1089331998       19.0257765295
C         19.1478771366       36.3272575778       18.3428659534
N         19.6953095424       37.4227182019       18.9831488693
H         20.6268841269       24.1097487915        4.6068624095
H         18.5793362622       25.2024644529        5.4720732844
H         22.9625912810       26.1191782577        7.6400225567
H         18.7020360321       26.7331019688        7.4134706066
H         24.7892582436       25.6685516046        6.1210011746
H         24.4992406992       24.3003460302        7.2328300582
H         25.3187094068       24.0262465792        5.6736714509
H         19.1094126614       28.4820939344        8.8028546295
H         20.4662989747       29.2947564628        7.9491845475
H         21.1957457412       30.2359375446        9.9339030912
H         20.2451136033       28.5151399145       12.4831930380
H         17.3474821759       29.1480518895       12.4709069853
H         18.8808384305       27.1036711431       14.1454361060
H         17.1475526418       27.1757989972       13.9041222951
H         19.1171998125       29.5734768485       14.9068887954
H         18.8209959263       31.4638748614       13.1139791929
H         17.1525031498       31.5379110200       13.6118560955
H         17.1273492263       30.0066575354       15.9765140222
H         16.3541321145       27.1506747244       11.3143531650
H         20.1309166201       25.6245853715       12.7508637464
H         16.5514241279       25.7221729801        9.2892204806
H         20.3209753738       24.1966741781       10.7291720194
H         20.1632951287       32.8886771509       16.2924957455
H         20.0003213899       31.1427816533       16.1894675559
H         18.5324241298       24.2381747766        8.9965908031
H         20.9001925589       31.2197606640       13.8393548133
H         21.2310206223       34.2418641286       14.3657112996
H         21.8722018657       33.3613269661       12.9629162326
H         20.1227755746       33.5231654694       13.1814467558
H         22.6617072389       32.6622951440       15.8984431773
H         22.4531128124       30.9035087815       15.7569521823
H         23.2315152426       31.8102181509       14.4484666771
H         17.8566094651       35.4007295625       15.3168616299
H         18.3559260509       33.0521144864       18.9135498850
H         18.8370079552       37.3698475673       16.4746802295
H         19.3342466971       35.0267675747       20.0595475491
H         19.7998990174       38.3062958604       18.4966099058
H         20.0011630069       37.3576048958       19.9478201107
    82
VM2 Rank=13     G=196.100           E=99.755            -TS=96.345              
C         22.0498898062       23.6359111503        6.6275186308
C         21.5480421570       24.9503467205        6.5343758525
C         22.4165114835       23.0950587526        7.8694671799
C         21.4198907066       25.7109715984        7.7174682740
C         21.1615787769       25.5083294943        5.1848599668
C         22.2842037180       23.8618991332        9.0361959457
C         21.7817448218       25.1735473295        8.9678951295
C         20.6575346662       26.9434560981        5.0811986773
O         21.2471490367       24.8340684817        4.1709276120
N         21.6470620628       25.9523739488       10.1503059301
C         22.1133519308       27.3328745087       10.2131759974
C         21.1099368096       25.5302652901       11.3514955240
C         21.7804071478       27.7642766010       11.6522617679
O         20.6368767001       24.4362585384       11.6066047127
O         21.1952948875       26.5682840001       12.2306019835
C         20.8276472184       28.9754481599       11.6958496720
N         19.6079377298       28.7525220650       12.2969300586
O         21.1048789732       30.0461336128       11.1830372614
C         18.4092629709       29.5662673764       12.0407326800
C         17.2313353860       28.6248416690       11.6890133969
C         18.0897538088       30.5089297019       13.2341473197
C         17.5380395863       27.7248637583       10.4978431661
C         19.2749253739       31.4610733537       13.5477917372
O         16.9256715372       31.2895843940       12.9500048068
C         17.8397944975       26.3635507344       10.6880807766
C         17.5307618802       28.2542985108        9.1946765126
N         18.9821713391       32.5033561211       14.5648233180
C         18.1268800703       25.5401673965        9.5865312936
C         17.8155286683       27.4315555557        8.0922697547
C         19.9633451672       33.6142934583       14.5600288058
S         18.2751252996       31.9925250098       16.0425175940
C         18.1117988434       26.0730695913        8.2879154236
C         19.2871446822       34.9962839686       14.3843709712
C         18.5834881490       33.3008638894       17.2592821813
O         16.8345433379       31.9434724058       15.7610691707
O         19.0440257476       30.8101575526       16.4488130415
C         20.3107737961       36.1273192253       14.6128761012
C         18.6451010156       35.1307156019       12.9856010911
C         17.6109012939       34.2915627405       17.5037914962
C         19.7885487739       33.3232961581       17.9904767602
C         17.8546918529       35.3057819398       18.4452073071
C         20.0274581730       34.3395251082       18.9308540917
C         19.0634085979       35.3334804345       19.1571392763
N         19.3015815181       36.3331388606       20.0809717500
H         22.1582524793       23.0288884406        5.7318847374
H         22.8039818795       22.0807574178        7.9272398621
H         21.0242091683       26.7203134955        7.6757904952
H         22.5738015620       23.4338963595        9.9926306995
H         19.7341279067       27.0582905862        5.6584825401
H         21.4137089259       27.6357064422        5.4683511987
H         20.4527455860       27.1940468167        4.0337710894
H         21.5821526688       27.9569940538        9.4830449349
H         23.1940016783       27.3816515443       10.0290597643
H         22.6949248338       28.0382531716       12.1923875862
H         19.4820601734       27.8270262349       12.6878502915
H         18.5962344730       30.2017008630       11.1632901919
H         16.9717078948       28.0210391356       12.5676729004
H         16.3402810577       29.2242762233       11.4630610724
H         17.9020593392       29.8780230485       14.1137411443
H         20.1310602655       30.8606548057       13.8823437800
H         19.5673598851       31.9412629768       12.6043790998
H         16.6910269206       31.7450058361       13.7925848214
H         17.8546395798       25.9418536687       11.6895640296
H         17.3020423790       29.3050426861        9.0371339780
H         18.3625931027       24.4898415153        9.7404777423
H         17.8013802342       27.8470812174        7.0881430636
H         20.5645378912       33.6005896772       15.4771380918
H         20.6767981371       33.4899522782       13.7338173721
H         18.3302462707       25.4339164452        7.4362084993
H         18.4922677467       35.1110781864       15.1301734713
H         20.7376287807       36.0696225245       15.6227813012
H         21.1346591162       36.0693756841       13.8898786877
H         19.8359252638       37.1113328345       14.5086512480
H         19.3972003843       35.0275249417       12.1930717931
H         17.8794387562       34.3600043797       12.8272061002
H         18.1609678579       36.1086381750       12.8694596241
H         16.6704380213       34.2810902373       16.9579001108
H         20.5419019918       32.5566945826       17.8248481212
H         17.1035629388       36.0708130490       18.6217728590
H         20.9620949454       34.3542325386       19.4848444096
H         18.6101336386       37.0552661634       20.2502015488
H         20.1725122566       36.3601850927       20.5995834555
    82
VM2 Rank=14     G=196.114           E=99.072            -TS=97.042              
C         19.8882281271       24.3252737531        6.0505907824
C         20.3349282328       23.6144803656        7.1853617226
C         19.8616972093       25.7285841508        6.0539902958
C         20.7495955414       24.3437244053        8.3197780453
C         20.3795613077       22.1047654667        7.2107842840
C         20.2782220013       26.4393375793        7.1890612881
C         20.7198515079       25.7513264382        8.3336933503
C         19.9196952325       21.3193054553        5.9876878048
O         20.7780183672       21.4975173906        8.1920793840
N         21.1435307242       26.4690602475        9.4873051607
C         22.0125917810       27.6352989830        9.3842736368
C         20.8336210659       26.1692635500       10.8004526904
C         22.2331888663       28.0589416177       10.8488532792
O         20.1219604214       25.2655693566       11.2040942645
O         21.4821501953       27.0665962481       11.5945685784
C         21.7547717854       29.4949838842       11.1461604931
N         21.1039179360       29.6634833372       12.3492077037
O         21.8952297193       30.4157115965       10.3582364971
C         20.2002257301       30.7833785396       12.6465711954
C         18.7236583702       30.3208504264       12.5136679613
C         20.5419985697       31.3847792359       14.0389133368
C         18.4243477733       29.6363079173       11.1848447565
C         19.7125296417       32.6607495061       14.3438180726
O         20.3470606259       30.4003373932       15.0588608335
C         18.1434354151       28.2579454726       11.1427244414
C         18.4348938281       30.3747932612        9.9874792943
N         20.1714904107       33.4404585214       15.5284835861
C         17.8696313530       27.6261757554        9.9183485689
C         18.1652089687       29.7433456356        8.7618111853
C         21.5531907118       33.9835409168       15.4739657463
S         19.6551744408       32.9577798575       17.0868825632
C         17.8780847076       28.3694641897        8.7277214716
C         21.8796604903       34.8246224831       14.2117933117
C         17.9306586633       32.4590549291       16.8568151156
O         20.4975945032       31.8168229900       17.4695072804
O         19.6226861008       34.2022384567       17.8650701082
C         20.9353493641       36.0411371455       14.0791276675
C         23.3458728788       35.3033250842       14.2604806327
C         17.5757776466       31.0953965248       16.8395317958
C         16.9337196767       33.4356288724       16.6633168860
C         16.2393022521       30.7160051047       16.6294297806
C         15.5983337744       33.0509441703       16.4553243054
C         15.2493786376       31.6918452336       16.4371958664
N         13.9359754433       31.3158485513       16.2291349752
H         19.5601039369       23.8020237964        5.1573744006
H         19.5167598155       26.2666820839        5.1743341158
H         21.0999979285       23.8080580237        9.1984036809
H         20.2465677625       27.5251721027        7.1764236491
H         18.8716460913       21.5506557825        5.7664167332
H         20.5373463306       21.5803894757        5.1209650881
H         20.0119805258       20.2433405170        6.1763955082
H         21.5205193256       28.4313856110        8.8109673643
H         22.9626328701       27.3650521143        8.9064827433
H         23.2967131922       28.0006110313       11.1104286775
H         21.0457795045       28.8474558006       12.9465198941
H         20.3705149046       31.5728654271       11.9014214939
H         18.4809798185       29.6439147763       13.3427658633
H         18.0544127173       31.1819606256       12.6238470760
H         21.6033667955       31.6638507747       14.0045318883
H         19.7498475550       33.3051600661       13.4574653358
H         18.6589227784       32.3806411898       14.4517804760
H         20.6879954809       30.7759679165       15.9040001032
H         18.1409074743       27.6733296738       12.0589558515
H         18.6583815707       31.4379594806       10.0066577567
H         17.6556084930       26.5604069143        9.8926974414
H         18.1766348989       30.3193467685        7.8400133639
H         21.7191096003       34.6260088783       16.3499701321
H         22.2748028892       33.1594816567       15.5540742861
H         17.6649648624       27.8807081266        7.7803773352
H         21.7729221644       34.1958520457       13.3174867363
H         19.8883881532       35.7256407119       13.9903874530
H         21.0151895760       36.6989086122       14.9541306871
H         21.1805304429       36.6314925258       13.1870977219
H         24.0349850630       34.4511810325       14.3221637975
H         23.6014440021       35.8736072310       13.3581183148
H         23.5242493566       35.9485127060       15.1305350391
H         18.3345849192       30.3296695027       16.9814086096
H         17.1963848910       34.4909623827       16.6688429487
H         15.9733155302       29.6626394807       16.6138462963
H         14.8347043408       33.8092359162       16.3052936009
H         13.6759980582       30.3359291050       16.2122355604
H         13.2150132836       32.0146774260       16.0876889620
    82
VM2 Rank=15     G=196.137           E=99.149            -TS=96.989              
C         21.2242361046       23.4809447363        6.2012297001
C         20.9998381173       24.8730593007        6.1993743177
C         21.6236513235       22.8208988929        7.3736877772
C         21.1836677644       25.5889932554        7.4025323425
C         20.5702118371       25.5599096140        4.9243209021
C         21.8020844502       23.5448194527        8.5616565042
C         21.5799548477       24.9330979918        8.5840070907
C         20.3739952750       27.0721452855        4.9139662081
O         20.3794035517       24.9290449183        3.8969057019
N         21.7572888194       25.6696941917        9.7874813047
C         22.5216960714       26.9111947058        9.8185957692
C         21.2809698253       25.3247330761       11.0380055244
C         22.3439931653       27.4072364930       11.2661207252
O         20.6433513212       24.3299267160       11.3376962117
O         21.6964285043       26.2821244290       11.9144936879
C         21.4897667262       28.6896558978       11.3602434542
N         20.6013876857       28.7325656417       12.4129200240
O         21.5592202089       29.5933159950       10.5436500830
C         19.4617021550       29.6564902705       12.4978393388
C         18.1411649571       28.8975931894       12.2025528361
C         19.4701296416       30.3895396132       13.8685835913
C         18.1639275101       28.1461071233       10.8765128311
C         18.3733193915       31.4850186425       13.9521584813
O         19.3143422130       29.4453623089       14.9329921993
C         18.1978347793       26.7395049635       10.8571208192
C         18.1498242033       28.8521350506        9.6596932657
N         18.5660926330       32.4848469264       15.0379501294
C         18.2087960714       26.0461266596        9.6355594797
C         18.1622475672       28.1599572283        8.4370405624
C         19.8120015712       33.2969561113       14.9863158234
S         18.0021163216       32.0527037007       16.5924748300
C         18.1860092057       26.7560920213        8.4250682268
C         20.0596159878       34.0234560436       13.6387775164
C         17.9402722424       33.6262485501       17.4808821315
O         16.6045456924       31.6555622971       16.3829026119
O         18.9936381239       31.1315307459       17.1633179952
C         18.9058569282       34.9948454565       13.3001595940
C         21.3945446117       34.7955988475       13.6926400376
C         18.8610978835       33.8996874482       18.5114926083
C         16.9846923441       34.5993922420       17.1285783818
C         18.8217164643       35.1333409705       19.1833305724
C         16.9500266067       35.8315371737       17.8031428462
C         17.8673029013       36.1000886421       18.8308033178
N         17.8320363935       37.3129171797       19.4922226436
H         21.0896344295       22.9058275227        5.2882642096
H         21.7949689367       21.7472266295        7.3611282065
H         21.0047144869       26.6586321189        7.4320149965
H         22.1133079670       23.0241067511        9.4637966160
H         21.3032354934       27.5728665593        5.2084504590
H         20.0966499056       27.4069382256        3.9075670234
H         19.5770341182       27.3527085978        5.6109788105
H         22.1319647619       27.6351947317        9.0924637579
H         23.5785228425       26.7067747556        9.6059098048
H         23.3137817643       27.6168733790       11.7334721312
H         20.6182704964       27.9463130118       13.0512203685
H         19.5810968495       30.4253079338       11.7218504844
H         17.9353236317       28.1991541816       13.0237029670
H         17.3032411900       29.6043580049       12.1926856323
H         20.4524342955       30.8719475113       13.9522276643
H         18.3343896911       32.0065031973       12.9884193976
H         17.3965928688       30.9969374236       14.0670006274
H         19.4125356234       29.9378290705       15.7820302393
H         18.2173717626       26.1811900373       11.7894422379
H         18.1296704324       29.9385305894        9.6621168308
H         18.2365471568       24.9591256102        9.6283926124
H         18.1480641342       28.7121604098        7.5009408355
H         19.7867222130       34.0701280712       15.7644391907
H         20.6762226343       32.6593717179       15.2158318861
H         18.1882156633       26.2179581289        7.4808519744
H         20.1452943588       33.2811658396       12.8335875086
H         18.7891667560       35.7563507874       14.0820872292
H         19.0948366850       35.5104372271       12.3500027770
H         17.9514374704       34.4624606471       13.2039086828
H         21.5986558275       35.2910234171       12.7346804766
H         21.3768623584       35.5656546055       14.4748664288
H         22.2319759517       34.1175106806       13.9017461146
H         19.6071564926       33.1588495809       18.7893328149
H         16.2739520103       34.4004843138       16.3297984930
H         19.5343675323       35.3390278903       19.9774065185
H         16.2111388548       36.5785349866       17.5261990265
H         18.4904968550       37.5146185636       20.2366195184
H         17.1451314767       38.0165473437       19.2443557069
    82
VM2 Rank=16     G=196.141           E=99.556            -TS=96.586              
C         21.5703480565       24.6839652923        5.7155940063
C         22.0439311588       24.0104562504        6.8621874349
C         21.0207432279       25.9710840199        5.8216267757
C         21.9500900655       24.6567018428        8.1128682240
C         22.6441673194       22.6267092194        6.7798463551
C         20.9354587899       26.6008411168        7.0718612646
C         21.3943279695       25.9450826759        8.2285684309
C         22.7319348501       21.9255708404        5.4288834498
O         23.0628857672       22.0556953909        7.7743658493
N         21.3079863255       26.5813738959        9.4984669738
C         21.6806536589       27.9799686076        9.6769164171
C         20.9066802965       25.9965025503       10.6851075323
C         21.5106349190       28.2124564266       11.1881279925
O         20.5298377961       24.8498082677       10.8552334388
O         21.0026481705       26.9393822233       11.6649360077
C         20.5712428694       29.3929058128       11.5020102802
N         19.4177780480       29.0718156263       12.1839645506
O         20.7946183001       30.5279618403       11.1171781655
C         18.1833162432       29.8684355337       12.1043466537
C         17.0007244847       28.9289625688       11.7627287518
C         17.9411903223       30.6918151707       13.3997981098
C         17.2599256417       28.0870878475       10.5183406975
C         19.1282304215       31.6453500935       13.7028475433
O         16.7433409104       31.4617633621       13.2746971631
C         17.4664869448       26.6992780273       10.6266794863
C         17.3134020910       28.6956846483        9.2509747835
N         18.9170163858       32.5952300718       14.8335955069
C         17.7173798734       25.9279699635        9.4797682821
C         17.5675817638       27.9256598665        8.1037932519
C         19.9773586952       33.6354319292       14.9526129622
S         18.3635224430       31.8904594612       16.2977382335
C         17.7671551089       26.5406542331        8.2179937148
C         20.2229557220       34.4914669159       13.6807580795
C         18.6083994802       33.1451568069       17.5804013487
O         16.9141392547       31.7480523362       16.1063218199
O         19.2434777244       30.7455809720       16.5612010685
C         18.9214879495       35.1617992381       13.1834615134
C         21.2878072610       35.5705984738       13.9708553364
C         17.6801006168       34.1946577205       17.7304972555
C         19.7371390461       33.0938827466       18.4227020683
C         17.8801216592       35.1798754406       18.7122139275
C         19.9321134795       34.0816905812       19.4029228673
C         19.0052356846       35.1251700676       19.5490885146
N         19.2004232036       36.0960040237       20.5129179108
H         21.6235031153       24.2214759959        4.7345003575
H         20.6585941612       26.4812834581        4.9323387115
H         22.3148658272       24.1502995718        9.0029050307
H         20.4996197302       27.5937974779        7.1376413120
H         21.7293037944       21.8068120495        5.0028296654
H         23.3487351192       22.5144656062        4.7406794209
H         23.1845176165       20.9343732568        5.5493904891
H         21.0095828123       28.6323156616        9.1030826104
H         22.7198231974       28.1468949335        9.3665264537
H         22.4820852163       28.4252454098       11.6509398996
H         19.3352904476       28.0983000732       12.4507562535
H         18.2829587555       30.5849767130       11.2765919287
H         16.7917419202       28.2819090654       12.6239310730
H         16.0936632500       29.5273190980       11.6090013944
H         17.8369641942       29.9797175912       14.2298420584
H         20.0196039573       31.0377932374       13.9071888996
H         19.3213485749       32.1929931174       12.7744622446
H         16.5548950472       31.8118141784       14.1773825761
H         17.4365138468       26.2163007980       11.5996751626
H         17.1600522538       29.7673807751        9.1562436318
H         17.8807610959       24.8568419197        9.5705630543
H         17.6085202454       28.4018133806        7.1274542322
H         19.7175960640       34.3482011511       15.7437731500
H         20.9224342598       33.1592014596       15.2481621798
H         17.9651269660       25.9435587987        7.3312614384
H         20.6224388159       33.8540426722       12.8803666287
H         18.1671768201       34.4127870673       12.9100704234
H         18.4896239607       35.8082184528       13.9580972506
H         19.1130115907       35.7769335529       12.2951443114
H         22.2299981206       35.1133098518       14.2994413439
H         21.5006125340       36.1617619515       13.0708538419
H         20.9520503402       36.2597238580       14.7567110371
H         16.8076193832       34.2482585428       17.0834603975
H         20.4638987945       32.2920319580       18.3158849891
H         17.1610999990       35.9871588379       18.8217931382
H         20.8049014823       34.0370850667       20.0486742001
H         18.5358123234       36.8537416284       20.6247468784
H         20.0110898519       36.0641645785       21.1213498826
    82
VM2 Rank=17     G=196.159           E=99.066            -TS=97.093              
C         19.8710205226       24.3857153982        6.0096427297
C         20.2743252235       23.6557014847        7.1464339055
C         19.8901883416       25.7887252801        6.0157261248
C         20.6974568758       24.3660522707        8.2914750496
C         20.2442195964       22.1456505842        7.1144081676
C         20.3110424217       26.4808976084        7.1604352213
C         20.7122235952       25.7744883110        8.3091829287
C         20.6653151709       21.3592893332        8.3509983714
O         19.8868277052       21.5386160939        6.1172907592
N         21.1383534694       26.4750166640        9.4732001022
C         22.0271259563       27.6280409946        9.3885632557
C         20.8132288831       26.1685969948       10.7814341375
C         22.2412519854       28.0356655166       10.8586250628
O         20.0899094241       25.2679076760       11.1712379568
O         21.4713840028       27.0465200406       11.5890782126
C         21.7785203020       29.4750815535       11.1644125797
N         21.1132019555       29.6404678142       12.3599497094
O         21.9423738778       30.4016134866       10.3879031154
C         20.2190623546       30.7686195396       12.6549834106
C         18.7388605375       30.3243797519       12.5015959208
C         20.5515449323       31.3566661521       14.0552309821
C         18.4475390983       29.6494517321       11.1660176461
C         19.7328981853       32.6397971422       14.3592944235
O         20.3337446759       30.3677193799       15.0661489992
C         18.1400940560       28.2770460030       11.1153665465
C         18.4918048264       30.3906650830        9.9710776263
N         20.1877761969       33.4071156421       15.5535806775
C         17.8734086225       27.6540335072        9.8849456930
C         18.2296162679       29.7678116860        8.7394038266
C         21.5757939133       33.9354059804       15.5169412915
S         19.6499214302       32.9203223010       17.1033820450
C         17.9159092242       28.4000077533        8.6967443017
C         21.9247916302       34.7803502210       14.2634005639
C         17.9222702447       32.4430745329       16.8523192223
O         20.4752244952       31.7673039363       17.4871588121
O         19.6236154952       34.1600036714       17.8893887372
C         20.9952419011       36.0078972546       14.1281194149
C         23.3955199771       35.2426889070       14.3304736292
C         17.5518956953       31.0837548043       16.8227288741
C         16.9387156275       33.4323344220       16.6548010962
C         16.2133771397       30.7212035142       16.5965129414
C         15.6012071886       33.0644628699       16.4306590514
C         15.2368135664       31.7096383828       16.4003202578
N         13.9213834085       31.3501987244       16.1764066192
H         19.5407066218       23.8634044158        5.1149639626
H         19.5766324815       26.3399575236        5.1325125918
H         21.0197854596       23.8285347621        9.1776216937
H         20.3133906434       27.5671984558        7.1517507062
H         20.5701964338       20.2836418712        8.1618840869
H         21.7086369093       21.5834220604        8.6001525060
H         20.0263488356       21.6265002309        9.2004234787
H         21.5535300486       28.4373382844        8.8182413047
H         22.9770379765       27.3466288806        8.9169999820
H         23.3017523476       27.9616489042       11.1283831459
H         21.0361648266       28.8195085805       12.9482910227
H         20.4070621930       31.5612447273       11.9174780386
H         18.4780222206       29.6466523512       13.3245042036
H         18.0786871083       31.1929865995       12.6076861539
H         21.6163121653       31.6239069764       14.0348867259
H         19.7866736452       33.2891960518       13.4774395900
H         18.6751946392       32.3705948341       14.4543419312
H         20.6696808986       30.7336288887       15.9175350569
H         18.1112094986       27.6901782999       12.0296966768
H         18.7358461522       31.4491615081        9.9968448168
H         17.6387131819       26.5928204933        9.8527640128
H         18.2673444449       30.3458178776        7.8195669922
H         21.7393608825       34.5708079426       16.3985223525
H         22.2875314485       33.1030604523       15.5996781695
H         17.7085864619       27.9179544621        7.7446845070
H         21.8207516613       34.1581054748       13.3642235941
H         21.2563284773       36.6008223391       13.2423283092
H         19.9459103985       35.7044263730       14.0263891327
H         21.0729174853       36.6595460307       15.0078857213
H         23.6668498406       35.8154882680       13.4343276631
H         23.5716382564       35.8807138262       15.2062510580
H         24.0746316998       34.3827083582       14.3942734962
H         18.3003167141       30.3084146048       16.9675476780
H         17.2134579223       34.4844990507       16.6697559132
H         15.9354309074       29.6711111904       16.5715236979
H         14.8479631594       33.8324805743       16.2776191452
H         13.6503155691       30.3734853078       16.1505865225
H         13.2100354692       32.0582064378       16.0319604161
    82
VM2 Rank=18     G=196.179           E=99.788            -TS=96.391              
C         21.2336201120       23.1193633523        6.4314196052
C         21.3459055530       24.5259045644        6.3913993930
C         21.1516213860       22.4460232730        7.6607010010
C         21.3798039362       25.2358814002        7.6094091714
C         21.4203819281       25.2829120117        5.0867111682
C         21.1762495454       23.1676169914        8.8635465394
C         21.2871053885       24.5690569881        8.8450412137
C         21.4292639817       24.5125352509        3.7712977253
O         21.4702120538       26.5024116163        5.0633502856
N         21.3045624379       25.3058681868       10.0608074876
C         22.2969243564       26.3438381554       10.3124292900
C         20.4384582313       25.1465692959       11.1249494736
C         21.9132500734       26.8842105016       11.7032640198
O         19.5081208943       24.3633613350       11.2088221397
O         20.8179491276       26.0188404193       12.1003745833
C         21.4969763271       28.3698916740       11.6824434099
N         20.4067787174       28.6881244014       12.4632166582
O         22.0609071201       29.2057862266       10.9959362556
C         19.6092566047       29.9134160901       12.3135688579
C         18.2901098703       29.5896537118       11.5613752938
C         19.4012697116       30.5744369490       13.7060912721
C         18.5158633757       28.8768264079       10.2329579735
C         18.7399699172       31.9765393017       13.6221571516
O         18.6303361137       29.7249665415       14.5619281896
C         18.1751588907       27.5192314283       10.0857435019
C         19.0703349131       29.5710533456        9.1422241948
N         18.4699438834       32.6309666759       14.9359013480
C         18.3781748219       26.8654161052        8.8589924448
C         19.2763838693       28.9176802777        7.9157434657
C         17.6537738028       33.8741786903       14.8388548294
S         19.7775703999       32.6492113536       16.0487723109
C         18.9243635761       27.5664056401        7.7720886923
C         16.2867971683       33.7250501045       14.1178412761
C         19.3356000090       33.8550114048       17.3256850436
O         19.7384084305       31.3210168459       16.6749592737
O         20.9415803461       33.1391352689       15.3004973964
C         15.4240319426       32.6105256764       14.7535612301
C         15.5214879493       35.0648516318       14.1593709785
C         18.4668866507       33.4903542478       18.3736024546
C         19.8392223499       35.1701047204       17.2702660314
C         18.1076559202       34.4313072940       19.3534005191
C         19.4768238645       36.1069921446       18.2528711334
C         18.6113620901       35.7397662175       19.2947080629
N         18.2555423584       36.6637062805       20.2587176529
H         21.2053036039       22.5354853691        5.5161921013
H         21.0647724648       21.3623163485        7.6808430826
H         21.4648282139       26.3186792064        7.5908564397
H         21.1088859866       22.6350563699        9.8089232572
H         22.2831352988       23.8261662611        3.7450564522
H         20.5017263621       23.9383409060        3.6674180557
H         21.5099668683       25.2097435810        2.9291505154
H         22.2399002734       27.1295955546        9.5483939358
H         23.3051489863       25.9112023009       10.3257202885
H         22.7508768968       26.7825832008       12.4039390556
H         20.0082209622       27.9328073466       13.0080228099
H         20.1777810592       30.6254032260       11.6991661563
H         17.6461642418       28.9793413320       12.2073711265
H         17.7339635694       30.5138132649       11.3693677855
H         20.4050121246       30.6974968053       14.1353601245
H         19.3852658131       32.6274144640       13.0172120485
H         17.8011529082       31.8516010393       13.0769441569
H         18.7437625201       30.0893383013       15.4708834876
H         17.7540149157       26.9687102585       10.9229350858
H         19.3449529970       30.6171406463        9.2467368552
H         18.1143889262       25.8159686274        8.7522703578
H         19.7068330882       29.4585384724        7.0766899506
H         17.4186079459       34.2488125088       15.8416837187
H         18.2389831430       34.6555596737       14.3346318123
H         19.0811106739       27.0624813850        6.8213348989
H         16.4539414027       33.4845971844       13.0595237218
H         15.9189977960       31.6334162768       14.6830200159
H         15.2339322876       32.8159139005       15.8147621433
H         14.4552679656       32.5274471161       14.2448288376
H         15.3035227127       35.3666101743       15.1921645230
H         16.1060025624       35.8652602143       13.6876633309
H         14.5678863600       34.9873940704       13.6213850573
H         18.0675433771       32.4800813897       18.4249404710
H         20.5075590947       35.4668458960       16.4653963689
H         17.4363165781       34.1439083981       20.1580190896
H         19.8677763725       37.1196677759       18.2040194348
H         18.6163022941       37.6108439087       20.2244919335
H         17.6318859654       36.4061301427       21.0157445645
    82
VM2 Rank=19     G=196.201           E=98.723            -TS=97.479              
C         21.2649982225       25.2358670781        5.8856107912
C         20.4147711654       26.2955327759        6.2630622647
C         22.2668737222       24.7766317114        6.7543633030
C         20.5913257271       26.8843782485        7.5345646936
C         19.3443578482       26.7705171419        5.3088194234
C         22.4306255766       25.3705349377        8.0142481837
C         21.5914404399       26.4258944213        8.4137474963
C         18.4461731060       27.9364939134        5.7066749881
O         19.1833472316       26.2409745066        4.2208545866
N         21.7567544241       27.0298812156        9.6908222206
C         21.7787328994       28.4790723985        9.8529986640
C         21.9376309391       26.3700155011       10.8915116233
C         21.9969743490       28.6729776770       11.3637968121
O         21.9617959002       25.1656015251       11.0773210207
O         22.0877270752       27.3133324873       11.8637626722
C         20.8592943327       29.4762402823       12.0243285793
N         20.1706779819       28.8222399661       13.0229042002
O         20.5486896649       30.5963791291       11.6572375012
C         18.8098513202       29.1847736293       13.4506988648
C         17.9168456662       27.9209018656       13.3808340521
C         18.8122103987       29.8511188389       14.8559522401
C         17.9190446108       27.2764489044       11.9994845245
C         19.6236750078       31.1763711908       14.8597740396
O         17.4707735177       30.1157691129       15.2702386864
C         18.6218003733       26.0790629879       11.7696894384
C         17.2227792298       27.8823018566       10.9379548097
N         19.9306610594       31.7217320022       16.2123273405
C         18.6231873340       25.4912948378       10.4936668102
C         17.2224496038       27.2949676666        9.6618742417
C         20.7436054904       30.8571124636       17.1065804854
S         18.7511232757       32.6700218750       17.0080048524
C         17.9207204445       26.0971468839        9.4401066830
C         22.0580675422       30.3151393925       16.4838217702
C         18.0621149622       33.7184732295       15.7042391010
O         17.7488423711       31.7346995377       17.5359470227
O         19.5239415775       33.5612313157       17.8820698692
C         22.9950675831       31.4623918183       16.0421743129
C         22.7862290334       29.4048397600       17.4948275614
C         16.7808192101       33.4580884589       15.1788508572
C         18.8150085330       34.7931475621       15.1912382208
C         16.2610133200       34.2653701501       14.1528766881
C         18.2902361506       35.5978779600       14.1657836000
C         17.0136628938       35.3355555151       13.6453392160
N         16.5000788847       36.1275962679       12.6360156877
H         21.1502601375       24.7649573505        4.9122346970
H         22.9170803776       23.9598904858        6.4503179874
H         19.9431703947       27.6933520184        7.8546702109
H         23.2117924898       25.0086174268        8.6780291645
H         19.0536052675       28.8250596875        5.9125151714
H         17.7484277722       28.1666434122        4.8930231905
H         17.8710437138       27.6772562662        6.6018249674
H         20.8255951228       28.9203447635        9.5341646871
H         22.6037513901       28.9176794975        9.2776291619
H         22.9361836656       29.2080133667       11.5503622493
H         20.5071572828       27.8923614919       13.2404369824
H         18.3989306717       29.9175549221       12.7416576247
H         18.2463898663       27.1999457586       14.1394892566
H         16.8858395059       28.1862019621       13.6469940087
H         19.2796063055       29.1411931345       15.5505304614
H         20.5702369334       31.0067789496       14.3363520579
H         19.0914559764       31.9120160778       14.2449640404
H         17.5060093668       30.4318531705       16.2038427749
H         19.1695258674       25.6030274671       12.5786300745
H         16.6798699818       28.8090346703       11.1039817873
H         19.1704434760       24.5674775988       10.3219443921
H         16.6769193235       27.7663106901        8.8486334445
H         21.0143257727       31.4273218879       18.0060697796
H         20.1338947115       30.0103024187       17.4490579547
H         17.9192449783       25.6389143613        8.4544154176
H         21.8186242524       29.6984477038       15.6068460672
H         22.5195189859       32.0964342664       15.2836195032
H         23.2639752652       32.1008781134       16.8934138846
H         23.9220005994       31.0656946842       15.6089647535
H         22.1483380208       28.5637985850       17.7956911563
H         23.7022449504       28.9879513960       17.0567894488
H         23.0657959875       29.9602702557       18.3994701222
H         16.1902310685       32.6286990166       15.5605249535
H         19.8071471169       35.0004623539       15.5854887281
H         15.2731543831       34.0578385604       13.7507994670
H         18.8765665289       36.4245921291       13.7741150867
H         17.0375129170       36.9027367698       12.2637659640
H         15.5786067750       35.9446644469       12.2543720403
    82
VM2 Rank=20     G=196.215           E=99.710            -TS=96.506              
C         21.9898097840       24.5295451234        6.1964018322
C         21.4392385603       24.1826723415        7.4486947181
C         22.5068280569       25.8161851188        5.9781829900
C         21.4254069071       25.1525690322        8.4722629311
C         20.8601326152       22.8130938013        7.7125757732
C         22.4760614591       26.7731027389        7.0036161523
C         21.9325765678       26.4481285805        8.2598033277
C         20.9119060521       21.7529417957        6.6183638000
O         20.3474992615       22.5367716019        8.7853921318
N         21.8737724092       27.4229788839        9.2954290477
C         21.4359516855       28.7887950602        9.0295974319
C         22.1363001234       27.2162368287       10.6374530052
C         21.5232246741       29.4706079860       10.4046837057
O         22.4995174528       26.1817779347       11.1701669662
O         21.8913208181       28.3859378708       11.2935015088
C         20.2124424922       30.1698801201       10.8054600773
N         19.4242013338       29.4908150844       11.7098556405
O         19.8667261108       31.2329519822       10.3198815589
C         17.9962500621       29.7747262695       11.9298846121
C         17.1868877451       28.4661442549       11.7392727896
C         17.7594715296       30.4361401721       13.3174305923
C         17.5253569661       27.7172310445       10.4527635267
C         18.4510037541       31.8245437324       13.4200417526
O         16.3586813341       30.5900117234       13.5552013350
C         17.9224192481       26.3680607133       10.5050035309
C         17.4463743513       28.3630543489        9.2040285187
N         18.6741533306       32.3115154700       14.8083223406
C         18.2343234315       25.6729456964        9.3251912447
C         17.7728782606       27.6728616843        8.0246712393
C         19.5430544918       31.4712189194       15.6774534098
S         17.3588158718       33.0958691235       15.5660810679
C         18.1675659250       26.3270938172        8.0849549997
C         20.9103710268       31.0808336475       15.0559808290
C         18.1058312061       33.9122223639       16.9961414609
O         16.9846234800       34.1710064687       14.6393551617
O         16.4101002413       32.0468714528       15.9629351051
C         21.7540622754       32.3289670488       14.7104548550
C         21.6931324676       30.1729406639       16.0273787873
C         17.8577523562       33.4361259107       18.2987144923
C         18.9619649317       35.0157159712       16.8126234491
C         18.4583469871       34.0616617213       19.4045175964
C         19.5603548313       35.6372243716       17.9217224096
C         19.3094795045       35.1619348650       19.2181584175
N         19.8998280261       35.7740866595       20.3073938776
H         22.0206426182       23.8119814032        5.3818753353
H         22.9289529636       26.0736691067        5.0097486591
H         21.0029829494       24.8974437759        9.4402845956
H         22.8798917471       27.7641154012        6.8167094731
H         21.9517890559       21.5641169628        6.3287523422
H         20.4705626656       20.8174792449        6.9816191914
H         20.3492056066       22.0922672701        5.7414073815
H         20.4056017626       28.7854492617        8.6498440012
H         22.0975038781       29.2865461382        8.3104073449
H         22.3160063983       30.2288464794       10.3955747157
H         19.8002374738       28.6147658323       12.0498185282
H         17.6551109673       30.4883694430       11.1671274453
H         17.3554105558       27.8170131202       12.6076642907
H         16.1149064791       28.7006550852       11.7434479345
H         18.1875006954       29.7613358830       14.0694422073
H         19.4172673222       31.7819139709       12.9075206785
H         17.8558714447       32.5530253235       12.8533950671
H         16.2531468550       30.9209787960       14.4791131998
H         17.9846609464       25.8535344628       11.4600950553
H         17.1382418405       29.4033680691        9.1468769305
H         18.5315253028       24.6280698901        9.3729036038
H         17.7169923136       28.1800845650        7.0648583890
H         19.7583501170       32.0005488863       16.6141029094
H         19.0040254946       30.5563889975       15.9577483084
H         18.4190570729       25.7913202370        7.1730520731
H         20.7430771145       30.5027096845       14.1374491881
H         21.9499770923       32.9325862600       15.6060127242
H         22.7202244330       32.0400078741       14.2776953200
H         21.2416816176       32.9672523211       13.9799434279
H         21.1234168189       29.2640904679       16.2601082747
H         22.6494985366       29.8624370396       15.5872023643
H         21.9069599274       30.6916332483       16.9709575348
H         17.2030375036       32.5817124237       18.4534736619
H         19.1652655800       35.3864993685       15.8106385120
H         18.2635625446       33.6902477664       20.4069361248
H         20.2204770690       36.4874974047       17.7736177524
H         19.7232431845       35.4374977636       21.2475537897
H         20.5155284694       36.5699845100       20.1815816318
    82
VM2 Rank=21     G=196.232           E=99.577            -TS=96.655              
C         21.5670273971       24.7088989236        5.6952518775
C         22.0040134365       24.0126270039        6.8407528853
C         21.0554391547       26.0112071280        5.8005940063
C         21.9158182646       24.6531112920        8.0964342607
C         22.5500206316       22.6110835791        6.7005064712
C         20.9721037346       26.6341773300        7.0541766941
C         21.3962420398       25.9571917665        8.2123820972
C         23.0057916155       21.8543859955        7.9432932336
O         22.6328085797       22.0679172132        5.6102870279
N         21.3092415325       26.5873403184        9.4860755385
C         21.6932401977       27.9816802575        9.6751178702
C         20.8962678882       25.9998375087       10.6677736257
C         21.5182712658       28.2069056448       11.1868522207
O         20.5143611658       24.8536102614       10.8305699019
O         20.9975200977       26.9354934772       11.6538576983
C         20.5872399715       29.3933254368       11.5030582265
N         19.4253660000       29.0773485790       12.1730268467
O         20.8238500102       30.5292437168       11.1288592755
C         18.1979116757       29.8839651517       12.0861265056
C         17.0113928853       28.9558031478       11.7274946525
C         17.9494315689       30.7018381153       13.3838473802
C         17.2777561678       28.1150150276       10.4838018740
C         19.1409658588       31.6440301318       13.7042450555
O         16.7590466846       31.4820212412       13.2511986133
C         17.3613365067       28.7276197374        9.2199745800
C         17.4607762922       26.7237070968       10.5896546204
N         18.9262559873       32.5889245913       14.8385077294
C         17.6223620519       27.9582121645        8.0739193823
C         17.7182335368       25.9530317621        9.4437711783
C         19.9941749910       33.6192370793       14.9746341931
S         18.3519180935       31.8802289598       16.2926977775
C         17.7983801712       26.5698128281        8.1855627708
C         20.2606906883       34.4802512173       13.7103765326
C         18.5947252495       33.1250086287       17.5853776895
O         16.9033693330       31.7515680555       16.0858581931
O         19.2192472361       30.7261799546       16.5580149754
C         18.9705085831       35.1649809770       13.2033918700
C         21.3319599992       35.5481742318       14.0178082328
C         17.6740441431       34.1815988924       17.7326301458
C         19.7144778959       33.0588569314       18.4385658742
C         17.8727014139       35.1591049000       18.7223005463
C         19.9081219089       34.0390019632       19.4267082713
C         18.9888572573       35.0895897287       19.5700014127
N         19.1827308368       36.0528520525       20.5416601855
H         21.6236853555       24.2386180279        4.7164911604
H         20.7207208726       26.5369927119        4.9096857988
H         22.2514087491       24.1422012149        8.9933006332
H         20.5641922421       27.6388080651        7.1207802663
H         23.3575380516       20.8539547624        7.6653789509
H         23.8251804795       22.3942678446        8.4311051507
H         22.1716464603       21.7527857977        8.6469201970
H         21.0303396450       28.6435646564        9.1027291521
H         22.7351717840       28.1416887725        9.3703834119
H         22.4892848863       28.4089941809       11.6553460668
H         19.3323108734       28.1026638904       12.4319682599
H         18.3112410028       30.6044680917       11.2635948830
H         16.7866850214       28.3081741181       12.5842941978
H         16.1114790405       29.5625709697       11.5649610738
H         17.8312267284       29.9858637376       14.2086661384
H         20.0253904132       31.0281194149       13.9137067931
H         19.3476067633       32.1955684306       12.7810884476
H         16.5643387154       31.8285405230       14.1539215142
H         17.2261645734       29.8019188150        9.1271359936
H         17.4072851965       26.2374215030       11.5599880775
H         17.6867962820       28.4374649499        7.1003714865
H         17.8633081185       24.8791356450        9.5327473086
H         19.7321633617       34.3297549347       15.7670815189
H         20.9319221411       33.1331666419       15.2774187853
H         18.0018110076       25.9732378364        7.2997012335
H         20.6629043591       33.8438423374       12.9105425458
H         18.5363435673       35.8109005965       13.9771570081
H         19.1767760875       35.7833380256       12.3206304982
H         18.2124566829       34.4243012343       12.9179201768
H         20.9940972623       36.2357905821       14.8040827596
H         22.2665632795       35.0806395597       14.3535668349
H         21.5594291786       36.1425198107       13.1235070691
H         16.8085822416       34.2466672736       17.0772708534
H         20.4353279317       32.2513805558       18.3341055476
H         17.1595993047       35.9719199440       18.8296465290
H         20.7739688495       33.9829204525       20.0808533641
H         18.5235992993       36.8156532626       20.6514802727
H         19.9869574647       36.0103061130       21.1579338106
    82
VM2 Rank=22     G=196.240           E=100.371           -TS=95.868              
C         21.3132349802       23.0910537260        6.4042981415
C         21.3163958248       24.5002897606        6.3229715224
C         21.3654612197       22.4494441772        7.6520365182
C         21.3790409151       25.2458685991        7.5183632523
C         21.2453857820       25.2225401798        4.9985346697
C         21.4170711228       23.2054772568        8.8326686985
C         21.4206625372       24.6101446371        8.7730199122
C         21.2240484050       24.4170653264        3.7044578977
O         21.2011205988       26.4411964639        4.9426278101
N         21.4649911103       25.3811860069        9.9666712034
C         22.3916372129       26.4956774826       10.1238461132
C         20.6871809056       25.1899219064       11.0919843201
C         22.0626644515       27.0473310709       11.5242574565
O         19.8260878169       24.3434226144       11.2591315783
O         21.0654463268       26.1154269256       12.0175560379
C         21.5341047900       28.4967600545       11.4959302421
N         20.4804478878       28.7571420410       12.3452896253
O         21.9830927440       29.3506740102       10.7494127980
C         19.5829584067       29.9143719153       12.2223069702
C         18.2445550642       29.4715958723       11.5720823217
C         19.4175912655       30.5973281170       13.6095914587
C         18.4330776269       28.7409718646       10.2475107812
C         18.6415328197       31.9394930545       13.5393188600
O         18.7797180505       29.7146671851       14.5392860100
C         18.1876765105       27.3581905514       10.1552002594
C         18.8576402650       29.4439236973        9.1052791995
N         18.4147389816       32.5872211172       14.8567519483
C         18.3562755193       26.6873807646        8.9324149948
C         19.0292523348       28.7737934256        7.8825367308
C         17.3581849307       33.6262152923       14.8314083494
S         19.7470655297       32.7384831664       15.9274912169
C         18.7724606277       27.3965474792        7.7944581467
C         16.2184377161       33.3266761117       15.8358211375
C         19.3195162446       34.0330155147       17.1228531551
O         19.8030070122       31.4492958788       16.6287839719
O         20.8488362032       33.2404127129       15.0975950856
C         15.2658263924       34.5351687632       15.9423086708
C         15.4321876684       32.0601827393       15.4296289412
C         18.7584254587       33.6946799468       18.3709276351
C         19.5675147452       35.3881406374       16.8236740803
C         18.4246839923       34.7008450762       19.2931874104
C         19.2322240731       36.3905246056       17.7493969080
C         18.6577201874       36.0492349389       18.9831060615
N         18.3268177421       37.0370173326       19.8910218976
H         21.2670964782       22.4803751950        5.5074696577
H         21.3619543770       21.3633263658        7.7040523952
H         21.3808834533       26.3309943806        7.4680884612
H         21.4541211681       22.6970553886        9.7928922334
H         20.3375940469       23.7733650319        3.6786756115
H         21.1952388928       25.0935889521        2.8423023886
H         22.1235736207       23.7949556093        3.6357207071
H         22.2251535326       27.2523094557        9.3465489428
H         23.4279636633       26.1381728671       10.0782005200
H         22.9508646727       27.0289977574       12.1674182149
H         20.1798440445       27.9916540446       12.9367543739
H         20.0523777946       30.6493143887       11.5536236440
H         17.6951021542       28.8329387080       12.2754162369
H         17.6075235857       30.3460918519       11.3995278837
H         20.4340545632       30.8140447872       13.9657835069
H         19.1901992368       32.6277385773       12.8826596648
H         17.6685849200       31.7464032507       13.0724243409
H         18.9013910581       30.1233770545       15.4278675862
H         17.8675411449       26.8013614344       11.0320036843
H         19.0581799583       30.5100640499        9.1666834480
H         18.1666684888       25.6186263207        8.8681768038
H         19.3592945535       29.3216430094        7.0034714770
H         17.7860677769       34.6160574352       15.0306360482
H         16.9095449870       33.6914571857       13.8307808199
H         18.9024016523       26.8793891084        6.8467709632
H         16.6466916615       33.1511685203       16.8296446831
H         15.8062048777       35.4301453316       16.2776906409
H         14.7999164986       34.7601535823       14.9742348565
H         14.4653161377       34.3393209063       16.6671897292
H         16.0888343894       31.1808760127       15.3982871830
H         14.6305897606       31.8499308706       16.1489678228
H         14.9765884728       32.1776354833       14.4381958364
H         18.5728636027       32.6531393338       18.6226291299
H         20.0138037919       35.6640614493       15.8711298268
H         17.9847950329       34.4324537031       20.2497981402
H         19.4195661765       37.4333134531       17.5082159206
H         17.9111668372       36.7987218347       20.7847042408
H         18.4921855789       38.0137663999       19.6745935161
    82
VM2 Rank=23     G=196.249           E=99.193            -TS=97.056              
C         20.0094818914       24.3261336146        6.5835799311
C         19.9904752447       25.7211782509        6.7998669785
C         20.5296304072       23.4601959384        7.5590698709
C         20.5107653773       26.2238194535        8.0103953019
C         19.4191161953       26.6783410807        5.7808223422
C         21.0340510441       23.9749860119        8.7627009269
C         21.0257188298       25.3609074563        8.9947157780
C         18.8720694669       26.1351968467        4.4657095655
O         19.3820190903       27.8804253190        5.9895486880
N         21.5238231285       25.8882940761       10.2151963827
C         22.5167448809       26.9555270903       10.2378017576
C         21.1578932147       25.4894192897       11.4856481752
C         22.6365297361       27.2990446866       11.7328116419
O         20.3809194856       24.5997965545       11.7863089198
O         21.8541161432       26.2560220183       12.3725587757
C         22.0991492094       28.7127530544       12.0337207649
N         20.9349262404       28.7699803611       12.7659702873
O         22.6282106085       29.7216079994       11.5982238733
C         20.0589270122       29.9469263624       12.8150653574
C         18.5762666297       29.4939526417       12.8038185574
C         20.4302686391       30.8543769979       14.0216620868
C         18.2475222382       28.6093442939       11.6073602127
C         19.7121309450       32.2279564298       13.9520292399
O         20.1311708156       30.1935288551       15.2545564039
C         18.0871305954       27.2208689946       11.7709464761
C         18.1146933594       29.1732475114       10.3251793250
N         20.2455981423       33.2607603427       14.8850086502
C         17.7893123957       26.4062065733       10.6660856182
C         17.8171785405       28.3592267637        9.2193169529
C         21.6711216468       33.6425392318       14.7103889328
S         19.7012954588       33.2644741685       16.5070293065
C         17.6488396443       26.9760013599        9.3910205207
C         22.0747659248       34.0453498806       13.2672562275
C         17.9337403241       32.8942159951       16.3894521258
O         20.4313928361       32.1910344935       17.1945241484
O         19.7995595665       34.6685305374       16.9245307743
C         21.2509334579       35.2517263109       12.7620484233
C         23.5800339187       34.3807320106       13.2139679550
C         17.0365149937       33.8763336567       15.9253153715
C         17.4453294572       31.6176663323       16.7324272367
C         15.6673304006       33.5834476338       15.8067921472
C         16.0755245104       31.3294423932       16.6105562728
C         15.1851273613       32.3105912451       16.1482214464
N         13.8386509911       32.0238898818       16.0277902693
H         19.6194100557       23.8986636684        5.6646718979
H         20.5372485513       22.3871582286        7.3834520926
H         20.4911615046       27.2944647902        8.1957268562
H         21.4290997404       23.2961165168        9.5143632864
H         18.0411674937       25.4480217525        4.6612016019
H         18.5094015527       26.9602014492        3.8414772579
H         19.6611766628       25.6020768928        3.9235397067
H         22.1817613769       27.8221423290        9.6532815666
H         23.4733399714       26.5892846095        9.8444062743
H         23.6818347705       27.2599167420       12.0627225352
H         20.5792579910       27.8907690246       13.1180336867
H         20.2315061112       30.5299425147       11.8992144722
H         18.3480405496       28.9637075028       13.7373661968
H         17.9190145781       30.3711408221       12.7891790596
H         21.5124122246       31.0284187503       13.9559223894
H         19.7981663875       32.6006495522       12.9244440090
H         18.6392812674       32.0755942529       14.1139613433
H         20.5051011911       30.7419568974       15.9830915064
H         18.1962638581       26.7702780885       12.7538499253
H         18.2439693979       30.2430482259       10.1854841419
H         17.6729629222       25.3332879402       10.7981824010
H         17.7208174493       28.7987690808        8.2293148998
H         21.8951896996       34.4953989285       15.3661692407
H         22.3146265311       32.8179606911       15.0454792954
H         17.4213698855       26.3453254589        8.5354436556
H         21.9086605820       33.1952695345       12.5912854664
H         21.3965004942       36.1264610057       13.4088018008
H         21.5487642655       35.5296399084       11.7430266718
H         20.1782441106       35.0227688099       12.7431954941
H         23.8873131545       34.6385585054       12.1922650007
H         23.8210691895       35.2309970096       13.8651047167
H         24.1842192986       33.5228964711       13.5364603626
H         17.4025662619       34.8633407295       15.6522166199
H         18.1260971336       30.8472036417       17.0863134017
H         14.9810334150       34.3451138134       15.4469118852
H         15.7062310899       30.3420244482       16.8736388224
H         13.4825647086       31.1059570297       16.2701736254
H         13.1889865263       32.7266781802       15.6928183694
    82
VM2 Rank=24     G=196.256           E=99.076            -TS=97.180              
C         19.8921089230       25.8646832854        5.4044129253
C         21.1008806172       25.4691943631        6.0167837128
C         19.0538022406       26.8044894925        6.0240728892
C         21.4445872105       26.0355190459        7.2624912888
C         22.0260823313       24.4635436745        5.3729638836
C         19.4099402147       27.3594932505        7.2618550879
C         20.6060595287       26.9739573958        7.8937532195
C         21.6458395402       23.8438745378        4.0328809293
O         23.0757014381       24.1355597035        5.9032210026
N         20.9697861002       27.5354886732        9.1497718290
C         20.8351627358       28.9633950367        9.4135121032
C         21.4974802409       26.8562375591       10.2321678846
C         21.4202055002       29.1294946471       10.8266091884
O         21.7153379199       25.6601942708       10.3210364373
O         21.7407214117       27.7686411613       11.2153178326
C         20.4417508165       29.8189312923       11.7968735448
N         20.0845501098       29.0828109160       12.9056099199
O         19.9634576206       30.9179965383       11.5746301873
C         18.8260866050       29.2863419756       13.6413267585
C         18.0693574467       27.9363639347       13.7133725900
C         19.0755648953       29.9193088341       15.0393700386
C         17.8920885968       27.2853581127       12.3459320340
C         19.7252100110       31.3259520062       14.9221569558
O         17.8411991567       30.0232575822       15.7511645350
C         18.5795070822       26.0996686924       12.0265175653
C         17.0520606725       27.8761156639       11.3841929270
N         20.2666615528       31.8766901134       16.1967825393
C         18.4231799475       25.5077672449       10.7622133525
C         16.8980299793       27.2870021544       10.1181762693
C         21.3433445048       31.0909601790       16.8536118274
S         19.2014223557       32.6731229736       17.2713178742
C         17.5816573694       26.1005738969        9.8080967603
C         22.5365592033       30.7118517270       15.9361373857
C         18.1327195126       33.6610047163       16.1962483177
O         18.4459201242       31.6224986122       17.9666847964
O         20.0518282997       33.6293859094       17.9909515309
C         23.2267083325       31.9652869444       15.3514987268
C         23.5619896644       29.8692734081       16.7232730525
C         18.6349757616       34.8221630614       15.5762534611
C         16.8011175814       33.2684304830       15.9548506007
C         17.8130737134       35.5813579648       14.7261735184
C         15.9836428876       34.0307258881       15.1032856274
C         16.4873638745       35.1872801702       14.4884526291
N         15.6812763693       35.9347529068       13.6509944599
H         19.5904956801       25.4522490939        4.4461847180
H         18.1248483787       27.1025697537        5.5439761326
H         22.3748931555       25.7423550751        7.7423312930
H         18.7460296299       28.0798845597        7.7314434832
H         22.4196059161       23.1357488332        3.7140227310
H         20.6935987539       23.3092927067        4.1242702936
H         21.5482588842       24.6268660388        3.2724409666
H         19.7781312190       29.2590890336        9.3909903830
H         21.4030915794       29.5490354230        8.6796455463
H         22.3355635798       29.7327863150       10.7895680494
H         20.5355192245       28.1792175605       12.9819159372
H         18.1954779201       29.9859839256       13.0745648906
H         18.6032862229       27.2588483069       14.3914691329
H         17.0815402262       28.0958241294       14.1640120295
H         19.7585718012       29.2517582387       15.5804764504
H         20.5439553164       31.2714547761       14.1971036034
H         18.9962025923       32.0094574831       14.4707540504
H         18.0515409291       30.3238755787       16.6666723691
H         19.2385604134       25.6364312855       12.7558480669
H         16.5202381621       28.7944527952       11.6183078028
H         18.9602887639       24.5938995890       10.5201337335
H         16.2480521995       27.7486372714        9.3792290734
H         21.7453248038       31.6700793371       17.6965502091
H         20.9167583611       30.1747074548       17.2832955232
H         17.4635266775       25.6434091132        8.8288016147
H         22.1747810300       30.0895326785       15.1062944154
H         22.5311235205       32.5564267270       14.7429797498
H         23.6085752747       32.6133689189       16.1507157317
H         24.0712614729       31.6834971559       14.7099618950
H         23.0984413765       28.9563846511       17.1189118768
H         24.3967513257       29.5662020552       16.0782332405
H         23.9751628795       30.4347631282       17.5685803282
H         19.6626494746       35.1320535801       15.7512056563
H         16.4010578605       32.3715268222       16.4216205865
H         18.2070585632       36.4753171480       14.2505071498
H         14.9583900582       33.7212409888       14.9197690537
H         16.0376581682       36.7715925520       13.2027177090
H         14.7223574084       35.6567194508       13.4737602598
    82
VM2 Rank=25     G=196.270           E=98.672            -TS=97.598              
C         20.0434268217       23.4684871825        6.9567084740
C         20.0205091031       24.8712302412        6.8149499524
C         20.5225141571       22.8749367812        8.1348326162
C         20.4882027531       25.6664224643        7.8840107308
C         19.4996516003       25.4856081106        5.5369140896
C         20.9834706734       23.6773192826        9.1888106895
C         20.9659195037       25.0784366860        9.0711358291
C         19.5159001439       27.0013007126        5.3698982494
O         19.0673638661       24.7925841165        4.6298125371
N         21.4307153733       25.8950306113       10.1387729516
C         22.3550498281       26.9994649789        9.9098122382
C         21.1155952017       25.7537594226       11.4768928110
C         22.4892423658       27.6516513420       11.2989533926
O         20.4004584349       24.9057784982       11.9824099322
O         21.7958487151       26.7147683169       12.1632067846
C         21.8627032767       29.0609075192       11.3647377462
N         21.1812156824       29.3508324319       12.5268713188
O         21.9263920797       29.8582399835       10.4435859435
C         20.2197179364       30.4526744700       12.6707057940
C         18.7704114226       29.8969972344       12.6483387801
C         20.5521897311       31.2822150522       13.9428029353
C         18.4775318092       29.0245700539       11.4331333467
C         19.6626992055       32.5483450635       14.0645209717
O         20.4255831578       30.4624129961       15.1086221332
C         18.2871902230       27.6384187494       11.5828308713
C         18.3922305227       29.5976118246       10.1510838985
N         20.1032437328       33.5285934087       15.0975048924
C         18.0058544969       26.8354133108       10.4651924560
C         18.1127870393       28.7953501608        9.0319643506
C         21.4533250583       34.1224973505       14.9195837174
S         19.6435718080       33.2757948994       16.7262697166
C         17.9136262068       27.4144518083        9.1900330234
C         21.7114348848       34.7646236370       13.5309982533
C         17.9417779985       32.6681023640       16.6256467614
O         20.5496097659       32.2501167450       17.2600603842
O         19.5646693374       34.6250153816       17.2995837721
C         20.7027623423       35.8969867713       13.2317328004
C         23.1514263250       35.3151544968       13.4628425905
C         17.6550837618       31.3040363124       16.8328353937
C         16.8936507025       33.5547920935       16.3090486329
C         16.3351611290       30.8350891484       16.7225906687
C         15.5751343743       33.0810016483       16.2016673847
C         15.2940805879       31.7215905371       16.4072356200
N         13.9970668601       31.2573858001       16.2978545642
H         19.6889179257       22.8330030888        6.1487060368
H         20.5364153335       21.7919279411        8.2306418037
H         20.4696528256       26.7483269781        7.8059491684
H         21.3542664382       23.2071995366       10.0961930202
H         20.5399740003       27.3785696649        5.4692420036
H         19.1346316760       27.2729467760        4.3785907334
H         18.8836190773       27.4702921128        6.1314810673
H         21.9546183469       27.7037017252        9.1701739125
H         23.3235319415       26.6141814846        9.5670309616
H         23.5422248259       27.7404710795       11.5925338061
H         21.1884329689       28.6374187438       13.2458441804
H         20.3307880654       31.1245785839       11.8083363872
H         18.5880083529       29.3269711731       13.5683197250
H         18.0549273184       30.7271971242       12.6637221139
H         21.5968244497       31.6039841505       13.8391591062
H         19.6485794179       33.0441202688       13.0866204642
H         18.6276573466       32.2379651237       14.2448660153
H         20.7609086319       30.9825824076       15.8758353333
H         18.3583569809       27.1808934725       12.5661446761
H         18.5435351671       30.6658703217       10.0223898548
H         17.8611928982       25.7647797068       10.5883820068
H         18.0455727925       29.2456050969        8.0449788914
H         21.6019448075       34.9047168812       15.6770246719
H         22.2185089324       33.3581591548       15.1106100372
H         17.6896458620       26.7926902050        8.3272860175
H         21.6205224296       33.9959449341       12.7516330573
H         20.8997708621       36.3474424759       12.2505957122
H         19.6721146046       35.5211841746       13.2230398990
H         20.7650489211       36.6899118402       13.9880772787
H         23.3596962574       35.7447635263       12.4744816003
H         23.3125992638       36.0995592276       14.2137169137
H         23.8849810872       34.5182572830       13.6408380257
H         18.4538879759       30.6061756896       17.0719273282
H         17.1034194837       34.6086426702       16.1412652324
H         16.1217592730       29.7814384242       16.8802398626
H         14.7717386034       33.7700227212       15.9557941636
H         13.7859816624       30.2762323788       16.4424133102
H         13.2394333585       31.8910682971       16.0685187375
    82
VM2 Rank=26     G=196.303           E=99.989            -TS=96.314              
C         22.1284164649       23.8698929156        5.7922289482
C         20.8531691132       24.0265860749        6.3761183420
C         23.2757640162       24.3353117440        6.4539752526
C         20.7596205659       24.6550238827        7.6347273557
C         19.5962366612       23.5480939312        5.6892470790
C         23.1644941002       24.9658183626        7.7025038777
C         21.9028470864       25.1315570318        8.3022951078
C         19.7009342320       22.8258811888        4.3508382225
O         18.4950969120       23.7296217272        6.1842607414
N         21.7813059124       25.7869648478        9.5598760304
C         22.4830855423       27.0343725111        9.8380172832
C         20.9885263134       25.3922548118       10.6214238574
C         22.0924446458       27.3567413652       11.2923261215
O         20.2801439456       24.4021439847       10.6857972881
O         21.1485428575       26.3054894768       11.6204984720
C         21.4988012136       28.7671612563       11.4770308945
N         20.4787476990       28.8624283087       12.3987846528
O         21.8680366607       29.7308405986       10.8262045425
C         19.5000380174       29.9588237562       12.4274282134
C         18.1453235533       29.4777178367       11.8418839061
C         19.3889160551       30.5453855580       13.8626822700
C         18.2853899524       28.7653016545       10.5005601952
C         18.4659161856       31.7926026248       13.9116640817
O         18.9208569225       29.5426387482       14.7706052506
C         18.7854498623       29.4495867167        9.3771078289
C         17.9269258181       27.4099967043       10.3784974747
N         18.6117596012       32.6346353978       15.1304840406
C         18.9297940251       28.7856393919        8.1474051785
C         18.0591151693       26.7486731449        9.1468206083
C         19.9528752533       33.2313564550       15.3746329528
S         17.7302797452       32.1508878684       16.5126081554
C         18.5632935740       27.4354249248        8.0308796126
C         20.5309906380       34.0403331806       14.1845774540
C         17.7409850194       33.6206226519       17.5656218564
O         16.3481112100       32.0067888948       16.0396305676
O         18.4652924866       31.0308115436       17.1148646837
C         19.6058751667       35.2170816796       13.7987532869
C         21.9345541721       34.5735412690       14.5407199300
C         18.4973428676       33.6406003607       18.7540523703
C         17.0114019154       34.7651204178       17.1886860116
C         18.5188930734       34.7937642387       19.5568992398
C         17.0368542761       35.9157787236       17.9947613519
C         17.7895753217       35.9318228224       19.1791425529
N         17.8139761760       37.0648794151       19.9698768571
H         22.2443227897       23.3907193042        4.8245656889
H         24.2540625114       24.2091937926        5.9963172135
H         19.7846438777       24.7749536461        8.0957425795
H         24.0629603888       25.3182090273        8.2013913583
H         20.3208787033       21.9285091148        4.4570834563
H         18.7036400427       22.5280340293        4.0065782792
H         20.1503940208       23.4880373350        3.6022725839
H         22.1404027283       27.8149739262        9.1456920732
H         23.5689068021       26.9089679049        9.7501714796
H         22.9709219846       27.2789554542       11.9444441573
H         20.2435097132       28.0132602032       12.8981108677
H         19.8695354108       30.7662677791       11.7803097651
H         17.6587331237       28.8113269192       12.5653583859
H         17.4716476941       30.3342566189       11.7210595492
H         20.4037453110       30.8495313353       14.1495518391
H         18.6708603201       32.4063673305       13.0264789922
H         17.4235605878       31.4626511172       13.8108977304
H         18.9456444926       29.9294427020       15.6776335939
H         19.0731448677       30.4941066871        9.4599423941
H         17.5452670853       26.8665952821       11.2387319196
H         19.3224095273       29.3185908170        7.2851719923
H         17.7728695962       25.7033872850        9.0593671201
H         19.9073983044       33.9149399813       16.2317034142
H         20.6625854353       32.4401611881       15.6510336210
H         18.6683432301       26.9223288493        7.0778941407
H         20.6449243433       33.3795986831       13.3144581798
H         19.4681368997       35.9039233344       14.6438579798
H         20.0281351006       35.7885959731       12.9624432548
H         18.6152765692       34.8609339523       13.4897244827
H         22.3698701611       35.1233357434       13.6963154718
H         21.8947461331       35.2527132301       15.4022986020
H         22.6161999555       33.7496012179       14.7883173654
H         19.0691767619       32.7653589717       19.0533829208
H         16.4299191245       34.7619239320       16.2696479439
H         19.1040217123       34.8037411186       20.4724649025
H         16.4727188900       36.7958116673       17.6981960537
H         18.3545222608       37.0845520971       20.8276666822
H         17.2892740640       37.8911412368       19.7046379402
    82
VM2 Rank=27     G=196.333           E=99.088            -TS=97.245              
C         19.3738031450       25.5216687564        5.5924849862
C         20.7264003276       25.4105740383        5.9746082151
C         18.4883694188       26.3313107045        6.3200048913
C         21.1714211629       26.1308505654        7.1050446690
C         21.6592308729       24.5316872908        5.1749067164
C         18.9437280341       27.0394049858        7.4415085272
C         20.2876355353       26.9395146118        7.8460919938
C         23.1172599227       24.3998803912        5.6010822575
O         21.2696421308       23.9205273582        4.1924826168
N         20.7507376513       27.6560787659        8.9859805412
C         20.3579970206       29.0396364169        9.2284192335
C         21.6102509563       27.1842085243        9.9611207545
C         21.1476979337       29.4275409584       10.4904153198
O         22.1040419360       26.0721865544       10.0372286006
O         21.8305944310       28.1975661050       10.8457152691
C         20.2415256396       29.9604358878       11.6169473028
N         20.2717416039       29.2450521848       12.7942639902
O         19.4983784790       30.9146594952       11.4644200015
C         19.1607879064       29.2275684736       13.7596122978
C         18.7470129527       27.7562921945       14.0136720699
C         19.5240535184       29.9915179808       15.0641222735
C         18.4678254259       26.9899962489       12.7251866310
C         19.8100283081       31.4932972438       14.7861142369
O         18.4560899652       29.8774718509       16.0062142107
C         17.3607256072       27.3285843345       11.9255971852
C         19.3230454934       25.9504721078       12.3147769701
N         20.4556513849       32.2286707970       15.9101689839
C         17.1091977476       26.6343072153       10.7304864599
C         19.0700826544       25.2529601702       11.1219886304
C         21.7878391189       31.7353955279       16.3462015862
S         19.4725581316       32.8462898431       17.1654288989
C         17.9626141033       25.5939156435       10.3300450710
C         22.8303978043       31.5592974424       15.2098188371
C         18.0235783313       33.5164016155       16.3138789613
O         19.1180725172       31.7049126006       18.0196865811
O         20.2152842151       34.0041259151       17.6785438157
C         23.0959413068       32.8895040850       14.4687043633
C         24.1518590205       31.0082123326       15.7852015675
C         16.7898004666       32.8371586820       16.3582164766
C         18.1271334114       34.7159586548       15.5822530932
C         15.6741814022       33.3545489806       15.6783436370
C         17.0082612898       35.2294750689       14.9047856335
C         15.7811431228       34.5502784960       14.9515949243
N         14.6823785928       35.0566028999       14.2836307176
H         19.0053137338       24.9774634635        4.7262240391
H         17.4474096809       26.4078295285        6.0154360134
H         22.2092485646       26.0685244293        7.4165315919
H         18.2437733299       27.6543637006        8.0000887758
H         23.1750013763       24.0022969343        6.6207917584
H         23.6453853085       23.7171882182        4.9251831925
H         23.6072900358       25.3794684685        5.5678064890
H         19.2771393506       29.1052415139        9.4091596820
H         20.6343898574       29.6762918794        8.3785015200
H         21.8816397283       30.2077029383       10.2540063276
H         20.9181258725       28.4654558728       12.8039711934
H         18.2965962124       29.7388281935       13.3122339666
H         19.5332661166       27.2550738793       14.5920376456
H         17.8492759306       27.7340103330       14.6444328042
H         20.4284380271       29.5227105613       15.4730218917
H         20.4614469120       31.5669272208       13.9090613490
H         18.8735353618       31.9751792687       14.4808301445
H         18.7663439907       30.2735300442       16.8545640236
H         16.6963463595       28.1327725473       12.2303153647
H         20.1869083550       25.6831731127       12.9173973848
H         16.2526641040       26.9011867715       10.1166947698
H         19.7369747243       24.4535265600       10.8083560302
H         22.2094771768       32.4411761530       17.0753072904
H         21.6687110340       30.7797428406       16.8740723835
H         17.7693734961       25.0557494755        9.4053658873
H         22.4593618273       30.8207687533       14.4861531376
H         22.1805068899       33.2775329845       14.0050352483
H         23.4744763976       33.6553509290       15.1577378365
H         23.8383532089       32.7522205727       13.6723247079
H         24.5877166375       31.7032787640       16.5145465798
H         23.9898541741       30.0457466149       16.2873827985
H         24.8889326963       30.8478510023       14.9878540112
H         16.6958523610       31.9072925642       16.9139827880
H         19.0755718474       35.2462009237       15.5368290680
H         14.7262552360       32.8247393331       15.7150063653
H         17.0952605127       36.1547016408       14.3417267571
H         14.7512658916       35.9200799155       13.7564438844
H         13.7920954194       34.5720319977       14.3124979965
    82
VM2 Rank=28     G=196.334           E=99.725            -TS=96.608              
C         21.2569838223       24.4492919730        6.0067313087
C         20.9109337711       25.7757184504        6.3445753371
C         21.8176128658       23.5917916592        6.9671170555
C         21.1470247311       26.2203824675        7.6618919726
C         20.2872775403       26.7170751090        5.3415809831
C         22.0369591336       24.0460229784        8.2762023742
C         21.7010639145       25.3637490636        8.6303817208
C         20.0440998944       26.2390222206        3.9146548693
O         19.9690566349       27.8542920594        5.6504465346
N         21.9093453216       25.8267449058        9.9563035412
C         22.6378418888       27.0595973453       10.2298730575
C         21.4733095804       25.2111294078       11.1129956940
C         22.4798809398       27.2366508038       11.7500617787
O         20.8721897202       24.1550823416       11.2072887847
O         21.8637213731       25.9880941204       12.1632411445
C         21.6132553233       28.4662249327       12.0888395978
N         20.3670048602       28.1985910795       12.6088104302
O         21.9723677885       29.6071574039       11.8507553334
C         19.2606281696       29.1633863259       12.6074315222
C         17.9250908479       28.4269960025       12.3329590345
C         19.2586982334       29.9988941419       13.9186073313
C         17.9558940021       27.6351850605       11.0313317599
C         18.2762457543       31.1974464420       13.8367308952
O         18.9405903512       29.1722126880       15.0424534818
C         18.0856206424       26.2340772611       11.0528237538
C         17.8692573223       28.3015019078        9.7951534679
N         18.5298247763       32.2812962004       14.8248676420
C         18.1205856847       25.5064724919        9.8517988716
C         17.9042676940       27.5746687228        8.5932680383
C         19.8600201892       32.9467374959       14.7610911724
S         17.8609782178       32.0677998236       16.3831315291
C         18.0244574542       26.1761374661        8.6219579564
C         20.2687445879       33.4602488750       13.3556325809
C         17.9547656893       33.7150760744       17.1227375228
O         16.4349790045       31.8154233549       16.1429256517
O         18.7144979731       31.0982748966       17.0825427712
C         19.2609104952       34.5024522045       12.8194625620
C         21.6814263649       34.0785411239       13.4098898119
C         17.1277419740       34.7514866120       16.6471546076
C         18.8709572483       33.9795444951       18.1598271589
C         17.2153691463       36.0376076720       17.2063175589
C         18.9542135185       35.2674383499       18.7158812459
C         18.1275868004       36.2973256882       18.2407248464
N         18.2127187544       37.5631503012       18.7885457078
H         21.0923192805       24.0680613455        5.0033265184
H         22.0782665058       22.5712884364        6.6970391974
H         20.8735963696       27.2348667046        7.9395232448
H         22.4659657954       23.3728536820        9.0142519072
H         20.9924032398       25.9429380980        3.4521549797
H         19.3613482459       25.3818950727        3.9182230038
H         19.5972013875       27.0447269669        3.3205590562
H         22.2061725246       27.9065223853        9.6809841094
H         23.6945991000       26.9412535698        9.9592594856
H         23.4551856994       27.3693443820       12.2340339743
H         20.1593906766       27.2285201558       12.8070086218
H         19.4288817936       29.8603731475       11.7740811117
H         17.6950400565       27.7602235400       13.1739220101
H         17.1039773271       29.1523154074       12.2914447935
H         20.2776075693       30.3908139046       14.0320625816
H         18.3294237869       31.6178996280       12.8255098323
H         17.2508349824       30.8215020385       13.9495996856
H         19.0496499261       29.7230133254       15.8533780270
H         18.1631186675       25.7068880301       11.9999879377
H         17.7767830976       29.3837821452        9.7659002432
H         18.2276579093       24.4247387790        9.8751558667
H         17.8425754540       28.0945726811        7.6401299596
H         19.8766954858       33.8131919240       15.4341083441
H         20.6322748808       32.2576328486       15.1285842656
H         18.0547513215       25.6134925568        7.6924293274
H         20.3123058099       32.6148869419       12.6550904903
H         18.2555193264       34.0737941389       12.7249972200
H         19.1955023242       35.3688883237       13.4901805454
H         19.5619926843       34.8631780430       11.8277122284
H         21.9961371209       34.4220349110       12.4160473669
H         21.7134623944       34.9384230635       14.0915592003
H         22.4182677519       33.3419118304       13.7554891332
H         16.4219927550       34.5591723053       15.8423551119
H         19.5187464896       33.1894207774       18.5322681261
H         16.5752968181       36.8331142534       16.8346460680
H         19.6626753902       35.4658481531       19.5155383983
H         17.6200309507       38.3132320482       18.4502068014
H         18.8699181371       37.7595725235       19.5354647395
    82
VM2 Rank=29     G=196.386           E=100.327           -TS=96.058              
C         19.9398899102       24.4411592640        5.9998051845
C         21.2999470211       24.7396382656        6.2326701334
C         18.9762924771       24.6886943993        6.9901240637
C         21.6677856618       25.2910701041        7.4783881274
C         22.3601357254       24.4839140265        5.1874453904
C         19.3579804156       25.2369830100        8.2232950943
C         20.7068038904       25.5413904491        8.4762831271
C         21.9605720311       23.8874488567        3.8424962280
O         23.5339904650       24.7462118284        5.3968428656
N         21.0937637385       26.1085783148        9.7216527085
C         21.9807325009       27.2641582431        9.7893797542
C         20.6829609947       25.6947214297       10.9743580458
C         22.0313607591       27.5958593195       11.2920567787
O         19.9721650203       24.7408558974       11.2406272154
O         21.2653429906       26.5177347003       11.8916429724
C         21.4458076529       28.9856058973       11.6164770224
N         20.5114555991       29.0148467811       12.6264305372
O         21.7524470154       29.9935561218       11.0015816930
C         19.6239508811       30.1532682481       12.8948417778
C         18.2073595395       29.6341503211       13.2504764620
C         20.2435917983       31.0840947513       13.9747713361
C         17.6251676454       28.7561643748       12.1502434693
C         19.4720666606       32.4251616191       14.0922627666
O         20.2893049652       30.4183428390       15.2400212297
C         17.6410557848       27.3543137145       12.2727252690
C         17.0842200481       29.3423834597       10.9915334095
N         20.1763889728       33.4863138398       14.8666233087
C         17.1170348093       26.5474165668       11.2494278610
C         16.5608279250       28.5362674408        9.9668965374
C         21.4948569848       33.9284711841       14.3427176834
S         20.0549359832       33.4775238168       16.5731995515
C         16.5754217553       27.1382977253       10.0964953868
C         21.5065193124       34.3394505331       12.8464655323
C         18.3311417360       33.0332426581       16.8991586925
O         20.9780368080       32.4398355234       17.0518013515
O         20.1953019349       34.8870500227       16.9590466034
C         20.5306274210       35.5057067175       12.5694237767
C         22.9344279920       34.7396116088       12.4197111616
C         17.3060850515       33.9740961151       16.6777114312
C         17.9978085669       31.7397330813       17.3480149007
C         15.9641897713       33.6236984900       16.9036054738
C         16.6542786634       31.3939597243       17.5708806927
C         15.6363137404       32.3341453504       17.3494796178
N         14.3156513792       31.9908733654       17.5679077753
H         19.6154810135       24.0161356078        5.0545845066
H         17.9312009704       24.4555640652        6.8009942920
H         22.7122143863       25.5201956713        7.6712633963
H         18.6031545805       25.4258027509        8.9808623775
H         21.2486529127       24.5489873046        3.3361185440
H         22.8459700378       23.7682484231        3.2071293058
H         21.4973996960       22.9054748105        3.9910823811
H         21.5699031522       28.0961419092        9.2021013759
H         22.9813636061       27.0072127582        9.4208334020
H         23.0648668531       27.5774144757       11.6587915990
H         20.3252749062       28.1364206467       13.0930274576
H         19.5365919725       30.7370997702       11.9674845445
H         18.2461357877       29.0779785878       14.1959879002
H         17.5327073183       30.4798057286       13.4272735380
H         21.2667476176       31.3041626799       13.6426120455
H         19.2824341494       32.7940776669       13.0772834822
H         18.4813534676       32.2282740323       14.5166437450
H         20.8076460883       30.9873061298       15.8556991791
H         18.0637539564       26.8885161834       13.1589229513
H         17.0725573908       30.4236730513       10.8839381419
H         17.1352550781       25.4648156361       11.3494789205
H         16.1445089625       28.9949132188        9.0735046119
H         21.8384700650       34.7943795895       14.9256032888
H         22.2370842499       33.1347781843       14.5022205213
H         16.1695503646       26.5143562241        9.3041429475
H         21.2136775631       33.4788258739       12.2294604037
H         19.4983910972       35.2301749033       12.8184544287
H         20.7950403111       36.3899178503       13.1634756407
H         20.5515939374       35.7900318730       11.5096748852
H         22.9647068671       35.0039631223       11.3548253983
H         23.2932673129       35.6037778770       12.9937169908
H         23.6370717861       33.9110468663       12.5768056212
H         17.5506483417       34.9736775455       16.3258749478
H         18.7770710068       31.0006169415       17.5175839029
H         15.1784611434       34.3537638302       16.7295647804
H         16.4040962024       30.3937809347       17.9138669208
H         14.0701988575       31.0607249914       17.8884367525
H         13.5740880296       32.6639832460       17.4091514518
    82
VM2 Rank=30     G=196.436           E=99.483            -TS=96.953              
C         21.4286272244       25.6460348257        5.7359923644
C         20.7403453412       25.0798769910        6.8302449632
C         22.2555796166       26.7656279171        5.9177313837
C         20.9060783583       25.6592704345        8.1051459666
C         19.8302899203       23.8857016159        6.6675548525
C         22.4015190616       27.3368416954        7.1907537399
C         21.7251101482       26.7879177855        8.2953690629
C         19.6840275810       23.2349704780        5.2967686316
O         19.2053316214       23.4307104945        7.6122751653
N         21.8477044855       27.3793369470        9.5844110233
C         21.7720173185       28.8244923986        9.7683535891
C         21.9757522860       26.7112698397       10.7886248401
C         21.9583262647       29.0057424837       11.2834822536
O         22.0423042235       25.5068286164       10.9639324417
O         21.9871235311       27.6448352728       11.7820819934
C         20.8539326074       29.8669071719       11.9207399221
N         19.8500248731       29.1740485929       12.5630211693
O         20.8367765673       31.0815567537       11.8220401334
C         18.5292634660       29.7466601127       12.8718541426
C         17.4292627049       28.8082014738       12.3128579531
C         18.3707906850       30.0221764903       14.3941366824
C         17.6489133470       28.4072492468       10.8565271686
C         19.3973425023       31.0746555464       14.8971168968
O         17.0468370721       30.4823094091       14.6707445734
C         17.8032811170       29.3879062181        9.8580320533
C         17.6993545164       27.0472197126       10.4982557734
N         19.5489991525       31.1445603867       16.3778620449
C         18.0181579951       29.0135502447        8.5210524051
C         17.8989431206       26.6721257053        9.1596360830
C         20.0197923478       29.9080846023       17.0549158133
S         18.4301563373       32.0744435766       17.2760531545
C         18.0662841481       27.6549220593        8.1713366963
C         21.2996323860       29.2700890259       16.4507397114
C         18.2092397317       33.5788664103       16.2955833392
O         17.1918062409       31.2873136104       17.3478956659
O         19.1686294182       32.4780152140       18.4791077581
C         22.4960958734       30.2480189525       16.4867735349
C         21.6573667448       27.9776821577       17.2140227536
C         19.2326290294       34.5459175394       16.2467075806
C         17.0254089498       33.7862035055       15.5600072081
C         19.0714548796       35.7069921579       15.4718147545
C         16.8695810154       34.9486521493       14.7860785741
C         17.8908463777       35.9100914611       14.7409007447
N         17.7350598108       37.0521227172       13.9784634380
H         21.3291933070       25.2298360143        4.7378979024
H         22.7817660294       27.1944452122        5.0682650773
H         20.3803176362       25.2326815624        8.9549404764
H         23.0450365230       28.2035162416        7.3126399030
H         19.2717510060       23.9561291469        4.5820789386
H         20.6611992631       22.8912005416        4.9392134162
H         19.0080419576       22.3742764935        5.3606334435
H         20.7913433375       29.1933164391        9.4396472597
H         22.5685373992       29.3394873605        9.2179462914
H         22.9196592427       29.4947337508       11.4841642151
H         19.9568235362       28.1679035876       12.5883359483
H         18.4334058688       30.7119814834       12.3555185386
H         17.3724952183       27.9135230907       12.9454594751
H         16.4532829490       29.3017393643       12.4026977490
H         18.5459996946       29.0712829475       14.9136160432
H         20.3756649683       30.8441752758       14.4634307296
H         19.1280832158       32.0515464542       14.4779424857
H         16.9475162770       30.5210383709       15.6513736444
H         17.7629035803       30.4419676011       10.1184173232
H         17.5778894861       26.2778218475       11.2559397223
H         18.1439027593       29.7760231870        7.7565548617
H         17.9275113791       25.6193347211        8.8890547328
H         20.2296559853       30.1354706780       18.1092926395
H         19.2138946810       29.1620197501       17.0542013321
H         18.2309057228       27.3637731064        7.1369330718
H         21.1079520192       28.9863224415       15.4069636687
H         22.7260275779       30.5510480821       17.5162728199
H         23.3942129034       29.7829753910       16.0608797696
H         22.2869812475       31.1561773141       15.9079584441
H         22.5422789032       27.4975358751       16.7767843109
H         21.8723264678       28.1867839129       18.2700001950
H         20.8317139105       27.2557083787       17.1714352276
H         20.1526696049       34.3941800316       16.8064080074
H         16.2290537970       33.0461910872       15.5832968638
H         19.8650335343       36.4484323600       15.4379140844
H         15.9550066508       35.1014333731       14.2196661860
H         18.4681344906       37.7517265880       13.9405529804
H         16.8851077595       37.2064759932       13.4474053346
