    82
VM2 Rank=1      G=221.886           E=127.387           -TS=94.499              
C         19.7640979452       26.5766546365        6.0360314565
C         21.1137989708       26.3801826955        6.3950499600
C         18.8133293596       26.7534963885        7.0644860869
C         19.3716074919       26.5930500371        4.5773764215
C         21.5054858990       26.3611411733        7.7440125715
C         19.2061608900       26.7336463576        8.4129823453
O         20.2009633558       26.4387993431        3.6947724592
C         17.9112071624       26.8072579020        4.1955464220
C         20.5530357047       26.5363653202        8.7635746253
N         20.9465395142       26.5291883863       10.1295665620
C         20.3155707339       25.8590021887       11.1600961033
C         22.0901587603       27.3040414477       10.5959990049
O         19.3615808464       25.1051582749       11.0750001215
O         20.9890042738       26.1450928336       12.3105746381
C         22.0801078842       27.0842858862       12.1193620955
C         21.8797470851       28.3952345940       12.9061568651
O         22.5704846318       29.3849352860       12.7295685949
N         20.8213622571       28.4061752248       13.7874989420
C         20.1961099022       29.6441679880       14.2709834843
C         18.6921770078       29.3850177250       14.5399848275
C         20.9675413561       30.1970933609       15.5042991110
C         17.9677253084       28.8514905100       13.3109322881
O         20.8935834124       29.2706282961       16.5861417209
C         20.4597601401       31.5756056473       15.9899683922
C         17.7521457011       29.6862313914       12.1992298231
C         17.5200902957       27.5182399672       13.2703470794
N         20.4482148782       32.6289120206       14.9403324895
C         17.0844702916       29.1987764585       11.0637998869
C         16.8536395928       27.0289977673       12.1347893161
C         21.7674686783       32.9381119133       14.3346976598
S         19.4074697569       33.9544196324       15.2326766162
C         16.6303772689       27.8707374899       11.0336367139
C         22.7500364831       33.6335332219       15.2777479061
O         19.7509813641       34.4858398245       16.5571151718
C         17.7721903531       33.1837584803       15.1954066315
O         19.5017664021       34.7918139246       14.0301536766
C         23.6889274961       32.8317803891       16.1485027179
C         24.2276188076       33.6044198995       14.9682344552
C         17.1657167049       32.8736357468       13.9626905256
C         17.1099830077       32.8562719242       16.3947979474
C         15.9165119743       32.2317676567       13.9318536308
C         15.8606034839       32.2132321862       16.3618129644
C         15.2609609651       31.8949363329       15.1264227149
O         14.0413742602       31.2574651321       15.0329417559
C         13.2993123411       30.8024071374       16.1808452176
H         21.8668443321       26.2406022920        5.6231805248
H         17.7637575018       26.9082519957        6.8329124910
H         22.5517050980       26.2035231693        7.9915216395
H         18.4584639931       26.8740365332        9.1879438725
H         17.8025247363       26.7914854044        3.1047961166
H         17.2915239667       26.0114778641        4.6240089127
H         17.5641721020       27.7763877320        4.5713285780
H         21.9642088023       28.3639896455       10.3379138999
H         23.0216431524       26.9229943163       10.1598271056
H         23.0260785214       26.6391953064       12.4511325238
H         20.2833131798       27.5488699156       13.8330273809
H         20.2687008950       30.3915580488       13.4682943387
H         18.5815822440       28.6851156797       15.3778571321
H         18.2056121968       30.3119742532       14.8599794110
H         22.0199904848       30.3039204118       15.2128475554
H         21.1362529235       28.4022113837       16.2006053114
H         19.4515171680       31.4303991097       16.3942549994
H         21.0825925169       31.9026600212       16.8328098051
H         18.1035370869       30.7135318076       12.2147119401
H         17.6872881645       26.8592636684       14.1180347127
H         16.9185259925       29.8497657581       10.2092026123
H         16.5130357829       25.9969317020       12.1077031734
H         22.2309281408       32.0228421944       13.9449777662
H         21.6214190814       33.5864533302       13.4602613400
H         16.1115542038       27.4924151079       10.1564929672
H         22.3678130754       34.5641264802       15.6937164946
H         23.9004684216       33.2121794114       17.1455945024
H         23.6692564919       31.7472128892       16.0726147717
H         24.8052525927       34.5040099727       15.1704561512
H         24.5589614873       33.0377420112       14.1002766834
H         17.6677480555       33.1207677565       13.0302255248
H         17.5691436219       33.0908214533       17.3524954803
H         15.4557440333       31.9855453716       12.9791381409
H         15.3712664180       31.9650838381       17.2983729343
H         12.3706807482       30.3147648172       15.8584701250
H         13.8863365261       30.0763731846       16.7581298584
H         13.0358577817       31.6459590115       16.8318797607
    82
VM2 Rank=2      G=221.899           E=127.367           -TS=94.531              
C         19.7389293309       26.5758614025        6.0282687707
C         21.0904591955       26.3765641042        6.3849338206
C         18.7920676265       26.7571887572        7.0574199741
C         19.2905251382       26.5987370137        4.5858992842
C         21.4808361111       26.3602156428        7.7346982241
C         19.1833524412       26.7400824442        8.4060373906
O         18.1192617278       26.7713872533        4.2876662671
C         20.3183237588       26.4018500887        3.4771811456
C         20.5300019804       26.5402846575        8.7552085500
N         20.9252480464       26.5350342920       10.1206568590
C         20.2963225436       25.8650739121       11.1525400276
C         22.0689425654       27.3111715666       10.5847282875
O         19.3428570337       25.1103772916       11.0692405311
O         20.9716358970       26.1519421123       12.3017376976
C         22.0641978960       27.0888924956       12.1077741051
C         21.8706733886       28.3987585367       12.8980384128
O         22.5604475835       29.3884452633       12.7176040895
N         20.8188902146       28.4089316987       13.7872148689
C         20.1955560155       29.6467041069       14.2737110989
C         18.6932154417       29.3867610141       14.5507382158
C         20.9733252718       30.2007796056       15.5024702184
C         17.9634894151       28.8502094256       13.3261359868
O         20.9055839149       29.2750180091       16.5853103933
C         20.4673563603       31.5793848555       15.9897467570
C         17.7440385522       29.6818576837       12.2128664096
C         17.5157956849       27.5168315276       13.2908309679
N         20.4501962642       32.6319017974       14.9393876167
C         17.0730051721       29.1910075736       11.0808853709
C         16.8458295058       27.0242714963       12.1587939127
C         21.7663630863       32.9414888759       14.3272844716
S         19.4098041886       33.9568662843       15.2353754023
C         16.6192698996       27.8627358725       11.0558285426
C         22.7529547503       33.6380834458       15.2652425847
O         19.7590868997       34.4898434834       16.5576783447
C         17.7750155668       33.1848189143       15.2064374476
O         19.4977849508       34.7931616630       14.0316099358
C         23.6964441152       32.8374033921       16.1320047863
C         24.2290745113       33.6097038104       14.9487674892
C         17.1634556809       32.8722209599       13.9768570550
C         17.1183602348       32.8585929593       16.4092195595
C         15.9147124868       32.2291719558       13.9524808939
C         15.8694249986       32.2143936406       16.3826918824
C         15.2646878621       31.8936205719       15.1504296521
O         14.0452962601       31.2548797990       15.0632772337
C         13.3089004306       30.8004887432       16.2150894645
H         21.8515353189       26.2321456593        5.6238961934
H         17.7443898650       26.9132866523        6.8119108800
H         22.5266336356       26.2005394467        7.9828520368
H         18.4358752161       26.8843230596        9.1804834988
H         19.8271117330       26.4465905291        2.4981470820
H         21.0787664251       27.1892850924        3.5273728903
H         20.8030681705       25.4250056149        3.5850814028
H         21.9398707711       28.3712964845       10.3289301986
H         22.9998519440       26.9329404780       10.1449160803
H         23.0102809741       26.6405467200       12.4348036362
H         20.2809442789       27.5516783706       13.8352240206
H         20.2633318016       30.3937967688       13.4703251791
H         18.5874253674       28.6882448082       15.3903817097
H         18.2074124249       30.3138543755       14.8714488066
H         22.0241516831       30.3078901386       15.2053115717
H         21.1464763055       28.4064392998       16.1990071738
H         19.4611630697       31.4340064568       16.3990581654
H         21.0941742461       31.9073037732       16.8292895728
H         18.0953381133       30.7092537399       12.2242916767
H         17.6859702655       26.8602296747       14.1397682496
H         16.9043714433       29.8394609090       10.2248791202
H         16.5053814071       25.9920609538       12.1356367750
H         22.2285071353       32.0262370291       13.9359651450
H         21.6157938674       33.5891706009       13.4531260655
H         16.0981012469       27.4817141604       10.1812244898
H         22.3721104766       34.5686705128       15.6824876593
H         23.9124547755       33.2184972434       17.1278720884
H         23.6770651387       31.7527788595       16.0568231231
H         24.8070941677       34.5097678837       15.1477471423
H         24.5566655554       33.0427368893       14.0795765890
H         17.6612169742       33.1182974182       13.0418263261
H         17.5815045091       33.0950136059       17.3645363119
H         15.4500284995       31.9810113524       13.0021730498
H         15.3844024112       31.9672711532       17.3217640964
H         12.3793112641       30.3115195190       15.8975169421
H         13.8992647761       30.0757513514       16.7905952491
H         13.0475388925       31.6445697169       16.8662812539
    82
VM2 Rank=3      G=221.932           E=128.165           -TS=93.767              
C         18.5422586782       25.6220848423        6.3205093917
C         19.8735356827       25.1835215924        6.4738049919
C         18.0880940734       26.6867399353        7.1283233473
C         17.6443263580       24.9513764455        5.3077015080
C         20.7281156765       25.7883799973        7.4101205328
C         18.9439202044       27.2921974911        8.0633760543
O         18.0470654397       24.0327251409        4.6116518257
C         16.2052201740       25.4288240714        5.1482251318
C         20.2690292882       26.8449419361        8.2170447681
N         21.1339274945       27.4597241598        9.1654832640
C         22.0135574736       26.8147056400       10.0147466983
C         21.1863196208       28.9084659577        9.3230123295
O         22.1838905257       25.6131661617       10.1304963797
O         22.6720970308       27.7683659414       10.7322508241
C         22.2845734342       29.1217373817       10.3797974521
C         21.7969639476       29.9398919697       11.5918215562
O         21.2057676095       30.9990105860       11.4702893134
N         22.0050262244       29.3563239654       12.8234752168
C         21.1852119662       29.6614227285       14.0071982672
C         20.4419565242       28.3792078967       14.4610665000
C         22.0362471393       30.3398861522       15.1208801178
C         19.6127635849       27.7586334898       13.3433320804
O         23.1202793921       29.4895357116       15.4930443888
C         21.2298102054       30.6904014673       16.3973411068
C         18.4702602032       28.4224406696       12.8598012056
C         19.9853617433       26.5249908103       12.7784414227
N         19.9693078510       31.4364460622       16.1436379529
C         17.7071259136       27.8587689974       11.8238490317
C         19.2203385790       25.9582891668       11.7455133984
C         18.8895076750       31.1024227735       17.1027932239
S         20.1051403558       33.0685257880       15.6335673419
C         18.0802277300       26.6241875401       11.2691458304
C         19.1159790590       31.6263311411       18.5213030854
O         20.6170369799       33.8595130621       16.7584920240
C         18.4124077402       33.5322148203       15.1994503182
O         20.8095596137       33.0175674229       14.3497597310
C         18.3581643304       32.8311207860       19.0276910000
C         18.0320204943       31.4567933346       19.5588663192
C         17.7476854112       32.8590134214       14.1556221950
C         17.7493148964       34.5628780477       15.8926344666
C         16.4277654098       33.2023163309       13.8171466189
C         16.4294745811       34.9046000876       15.5529639641
C         15.7626085279       34.2279699986       14.5189627042
O         14.4675771570       34.6071951312       14.2322846674
C         13.6741780003       33.9881439461       13.2010804518
H         20.2508666429       24.3670252372        5.8628787341
H         17.0704362771       27.0558380824        7.0429082702
H         21.7507229633       25.4318646408        7.5038656921
H         18.5650587304       28.1047781033        8.6770046935
H         16.1913441647       26.4835533856        4.8512447564
H         15.6971998196       24.8377157981        4.3773172087
H         15.6654076543       25.3136024935        6.0948935300
H         20.2207782627       29.2901618407        9.6796026947
H         21.4521638874       29.3921853966        8.3746739969
H         23.1379025736       29.6521350820        9.9398192022
H         22.4698792442       28.4572202380       12.7910181018
H         20.4169495034       30.3886359665       13.7106252127
H         21.1691848371       27.6528348528       14.8455270389
H         19.7764612801       28.6128785666       15.2996468620
H         22.4506066598       31.2665565316       14.7033452902
H         23.5935049235       29.2859856176       14.6593093997
H         21.0078219512       29.7452402813       16.9094273292
H         21.8730491499       31.2683032816       17.0741744176
H         18.1746604709       29.3767487206       13.2867938402
H         20.8695344892       26.0044889040       13.1367194085
H         16.8256768210       28.3765315308       11.4542589654
H         19.5149028426       25.0060194060       11.3110613837
H         17.9231577772       31.4705788300       16.7346138690
H         18.7886379610       30.0103886382       17.1593953761
H         17.4890944148       26.1850992300       10.4694216799
H         20.1353193876       31.4944728909       18.8797471823
H         18.8883993859       33.5204631185       19.6814283145
H         17.6228804813       33.2976211613       18.3775769586
H         18.3368252820       31.2199155058       20.5761354262
H         17.0925771942       31.0032410190       19.2492689786
H         18.2572540091       32.0691301280       13.6081093118
H         18.2551428085       35.0964961367       16.6940212890
H         15.9347881772       32.6680045700       13.0111182972
H         15.9187517898       35.6979080131       16.0918364863
H         13.5432481863       32.9171667464       13.4031690987
H         12.6813321603       34.4537123179       13.1604652230
H         14.1507396042       34.1097318695       12.2197213357
    82
VM2 Rank=4      G=221.935           E=128.107           -TS=93.828              
C         18.5139286157       25.6258595356        6.3146621077
C         19.8428131026       25.1763099699        6.4711204177
C         18.0670917924       26.6933163471        7.1200937084
C         17.5721916982       24.9965308439        5.3151692668
C         20.6969478295       25.7779252624        7.4104969918
C         18.9219777086       27.2951343752        8.0577908324
O         16.4244781789       25.3927452570        5.1872486155
C         18.0607652342       23.8420470230        4.4475069326
C         20.2431757217       26.8384773481        8.2156209430
N         21.1097438552       27.4477637491        9.1661719408
C         21.9842022817       26.7973826547       10.0167276047
C         21.1696754615       28.8960703273        9.3250553025
O         22.1475146581       25.5948300877       10.1321774090
O         22.6470421814       27.7469454323       10.7356999836
C         22.2693053284       29.1026599436       10.3817263832
C         21.7879929736       29.9259187071       11.5927908046
O         21.2022836519       30.9879469646       11.4700139438
N         21.9949038656       29.3437074746       12.8252969943
C         21.1775353399       29.6546277028       14.0092192510
C         20.4240074889       28.3781477266       14.4624134313
C         22.0338942422       30.3256343321       15.1233361017
C         19.5925804780       27.7626281271       13.3435044913
O         23.1113481811       29.4666676169       15.4948473499
C         21.2302535109       30.6813815805       16.4000984534
C         18.4584077859       28.4362737942       12.8539891852
C         19.9551132272       26.5238619458       12.7832804738
N         19.9759842857       31.4381474750       16.1472171675
C         17.6936763713       27.8773625915       11.8166425499
C         19.1883746148       25.9618942724       11.7490409351
C         18.8940878601       31.1131553147       17.1071180635
S         20.1255711021       33.0691849622       15.6376248784
C         18.0567034471       26.6377179289       11.2665712420
C         19.1259235281       31.6351007294       18.5254906172
O         20.6466240189       33.8549539479       16.7620059495
C         18.4363826181       33.5486706371       15.2068399759
O         20.8271374356       33.0124212948       14.3524874699
C         18.0416281124       31.4738539468       19.5640214052
C         18.3779541588       32.8456743500       19.0327254930
C         17.7633584819       32.8818046150       14.1642655963
C         17.7843534432       34.5855255021       15.9012887799
C         16.4460833368       33.2375348820       13.8283212691
C         16.4671411399       34.9396703053       15.5641544159
C         15.7919578787       34.2693849084       14.5314215350
O         14.5000129280       34.6608068207       14.2472240571
C         13.6988708449       34.0493413868       13.2174796797
H         20.2286499717       24.3588696543        5.8693517706
H         17.0483293491       27.0600622505        7.0207320237
H         21.7170399951       25.4152389054        7.5083344275
H         18.5457596404       28.1107856592        8.6688762016
H         17.2560469099       23.5051385114        3.7836417636
H         18.9105838642       24.1664625642        3.8364381730
H         18.3712240814       23.0031781629        5.0805717685
H         20.2061718840       29.2821310437        9.6824949602
H         21.4375331238       29.3794984130        8.3771351399
H         23.1265105567       29.6261319727        9.9409885923
H         22.4547161866       28.4419826692       12.7937019891
H         20.4151234908       30.3881534874       13.7131149331
H         21.1452194579       27.6468131276       14.8487895508
H         19.7586058577       28.6173055343       15.2995359015
H         22.4554063306       31.2493905443       14.7065038001
H         23.5835056051       29.2607232400       14.6611028718
H         21.0004069922       29.7375184080       16.9111105232
H         21.8782285327       31.2531784163       17.0775989948
H         18.1706356090       29.3946255610       13.2772500938
H         20.8328497546       25.9957149995       13.1461557635
H         16.8187925612       28.4027863789       11.4422836600
H         19.4751878366       25.0056377159       11.3181875228
H         17.9305901917       31.4893783035       16.7396256019
H         18.7841193987       30.0219989602       17.1637465551
H         17.4643342410       26.2024326511       10.4656217944
H         20.1445182452       31.4952448944       18.8830165505
H         17.0984109979       31.0276519411       19.2552200813
H         18.3455092049       31.2344821250       20.5809824848
H         17.6456617063       33.3179442438       18.3834010215
H         18.9141108881       33.5307870530       19.6860777582
H         18.2644120733       32.0871651549       13.6157775575
H         18.2967074954       35.1143258173       16.7017238920
H         15.9465542311       32.7079160843       13.0232278611
H         15.9649429643       35.7377370986       16.1040119909
H         13.5582287356       32.9796295392       13.4197482852
H         12.7103849681       34.5242550862       13.1787626128
H         14.1747051049       34.1665034231       12.2352289771
    82
VM2 Rank=5      G=221.982           E=128.088           -TS=93.894              
C         18.6380850859       25.6495339003        6.2519535607
C         19.9605828090       25.1904214743        6.4203490045
C         18.1883770838       26.7151258177        7.0610190564
C         17.7445099321       24.9990447810        5.2222518690
C         20.8108783608       25.7761323147        7.3726031574
C         19.0399520692       27.3014507024        8.0120006530
O         18.1434450239       24.0795591880        4.5251137865
C         16.3147324808       25.4983922119        5.0467512614
C         20.3561212311       26.8336670764        8.1806923204
N         21.2164776877       27.4290963798        9.1454539555
C         22.0753403824       26.7655920694       10.0018279650
C         21.2879280407       28.8759081681        9.3134093677
O         22.2287177138       25.5610628714       10.1099499848
O         22.7365899955       27.7048173745       10.7358325153
C         22.3784827244       29.0659753043       10.3821274729
C         21.8920171331       29.8929756290       11.5883326206
O         21.3734138271       30.9886412503       11.4622540301
N         22.0088946645       29.2773539106       12.8159751975
C         21.1519265389       29.6056462733       13.9669365192
C         20.3943704373       28.3309845958       14.4183391254
C         21.9700078972       30.3013996333       15.0947077817
C         19.6112733724       27.6846843004       13.2820242388
O         23.0617538411       29.4697676274       15.4856699084
C         21.1387192290       30.6385926125       16.3586462637
C         18.4874025454       28.3349033986       12.7398972988
C         20.0089464364       26.4409213838       12.7578767352
N         19.8764381947       31.3765629590       16.0904304712
C         17.7672084685       27.7476126745       11.6864680125
C         19.2867674266       25.8507650800       11.7074037550
C         18.7966807281       31.0485230445       17.0519442985
S         20.0148583091       33.0063958677       15.5740666391
C         18.1649766835       26.5031383977       11.1725077792
C         19.0154287265       31.5945975260       18.4634381872
O         20.5629487863       33.7927784644       16.6851741730
C         18.3181758644       33.4949637452       15.1837434390
O         20.6856639033       32.9439157042       14.2730171768
C         18.2260879327       32.7830862456       18.9603011941
C         17.9416988460       31.4062416729       19.5083825527
C         17.6122111623       32.8244963818       14.1659130547
C         17.6939755558       34.5454088174       15.8839389978
C         16.2905340520       33.1922799697       13.8638273718
C         16.3714133501       34.9118120986       15.5805479589
C         15.6637053417       34.2326729222       14.5680423015
O         14.3643539058       34.5478469653       14.2282600630
C         13.6089262190       35.5882512140       14.8785969241
H         20.3343532151       24.3727110711        5.8088618500
H         17.1774495210       27.0996300517        6.9643944246
H         21.8267648098       25.4039689106        7.4778484252
H         18.6644411928       28.1148903270        8.6265393733
H         15.7604868515       25.3844727433        5.9852024298
H         16.3200874775       26.5552389579        4.7571142419
H         15.8087923603       24.9200454891        4.2648737920
H         20.3246841926       29.2689717748        9.6638728643
H         21.5697151552       29.3625011230        8.3711503008
H         23.2461998718       29.5807069800        9.9517515103
H         22.4222037300       28.3531952272       12.7863698603
H         20.3941425876       30.3280447722       13.6330723200
H         21.1077165651       27.6152120122       14.8463285890
H         19.6954583536       28.5801945910       15.2247263414
H         22.3754110810       31.2345019654       14.6823427241
H         23.5344204976       29.2521558158       14.6548677495
H         20.9164712124       29.6891238771       16.8625757476
H         21.7668009254       31.2178169826       17.0484814226
H         18.1729425575       29.2969604741       13.1349486579
H         20.8793264786       25.9305498697       13.1615637139
H         16.8999583329       28.2549122101       11.2715476150
H         19.6007665745       24.8909125095       11.3044254427
H         17.8283345412       31.4034223189       16.6762349036
H         18.7038256069       29.9566585469       17.1239965723
H         17.6075530161       26.0461811387       10.3586905961
H         20.0394633662       31.4947471013       18.8188181679
H         18.7393624866       33.4944889785       19.6038662096
H         17.4731487662       33.2206680815       18.3102186969
H         17.0140707016       30.9227341721       19.2086394047
H         18.2579618559       31.1896112093       20.5266688428
H         18.0895952274       32.0190155106       13.6123456029
H         18.2331280059       35.0759296683       16.6654729704
H         15.7476127436       32.6707414419       13.0803999964
H         15.9090321145       35.7218646918       16.1357509619
H         14.1008211101       36.5613922818       14.7521407819
H         12.6043146728       35.6522244605       14.4417820348
H         13.5043567745       35.3787558171       15.9510464117
    82
VM2 Rank=6      G=221.991           E=128.085           -TS=93.905              
C         18.6030281365       25.6645894827        6.2534603009
C         19.9211411455       25.1889911655        6.4234942202
C         18.1659387937       26.7345090894        7.0609653087
C         17.6625398349       25.0601437719        5.2375752679
C         20.7742417699       25.7676661440        7.3781010331
C         19.0198262884       27.3134148635        8.0138618319
O         16.5241669170       25.4787482000        5.0980329808
C         18.1404712093       23.9028056998        4.3677980049
C         20.3300633571       26.8307792346        8.1851672088
N         21.1952834779       27.4167268794        9.1514474069
C         22.0459352000       26.7439519311       10.0088094867
C         21.2813386431       28.8626258748        9.3204628323
O         22.1869770873       25.5378450616       10.1162198018
O         22.7157996864       27.6759007764       10.7442808101
C         22.3729113020       29.0408549108       10.3901675587
C         21.8944809254       29.8733873998       11.5957642930
O         21.3896756505       30.9753994571       11.4690965437
N         22.0012841422       29.2559478382       12.8234037692
C         21.1450793426       29.5935366906       13.9722495057
C         20.3744031118       28.3265827070       14.4231712870
C         21.9673581500       30.2824829835       15.1011418768
C         19.5886527370       27.6860306904       13.2854234349
O         23.0507489865       29.4411310216       15.4945214005
C         21.1368947006       30.6279214786       16.3633980864
C         18.4738012464       28.3469274341       12.7376080862
C         19.9751358465       26.4370024436       12.7654379747
N         19.8818779944       31.3772445392       16.0925714723
C         17.7515872958       27.7651033701       11.6825368735
C         19.2508277464       25.8523040304       11.7133780213
C         18.7975757567       31.0597595710       17.0525136989
S         20.0361038513       33.0054145114       15.5754536306
C         18.1381918137       26.5154530411       11.1726408178
C         19.0188893173       31.6049149313       18.4639629370
O         20.5898739338       33.7873539743       16.6868823526
C         18.3445798100       33.5094803618       15.1824382021
O         20.7081420175       32.9359177890       14.2754020699
C         17.9418678580       31.4267674964       19.5073076664
C         18.2392556825       32.8006642439       18.9587325825
C         17.6337894882       32.8448628288       14.1641303963
C         17.7292335365       34.5662167534       15.8810034939
C         16.3160123110       33.2247169404       13.8599539881
C         16.4105583078       34.9447005363       15.5755215956
C         15.6979422173       34.2714332152       14.5625366669
O         14.4020575551       34.5984577010       14.2207196392
C         13.6554558181       35.6463309350       14.8692535834
H         20.2992838518       24.3687126050        5.8207099502
H         17.1555312324       27.1209561654        6.9514975481
H         21.7859767597       25.3850881790        7.4863604959
H         18.6509999680       28.1312025631        8.6265845291
H         17.3381492274       23.5857719440        3.6913647499
H         19.0039655704       24.2154623874        3.7699178858
H         18.4270384444       23.0538179098        4.9986319588
H         20.3218463043       29.2651397250        9.6705091886
H         21.5687271505       29.3470402372        8.3787728970
H         23.2465946993       29.5459574793        9.9604514412
H         22.4034344430       28.3268603631       12.7942478962
H         20.3949690998       30.3228371511       13.6360636581
H         21.0798534755       27.6048140065       14.8541681706
H         19.6755087332       28.5833846306       15.2271917327
H         22.3820002698       31.2116133270       14.6889838465
H         23.5222176569       29.2179387036       14.6645068180
H         20.9050725003       29.6807751287       16.8673864052
H         21.7690076249       31.2017317601       17.0540761393
H         18.1680055303       29.3130995141       13.1293972967
H         20.8385122390       25.9183189676       13.1735387409
H         16.8914438955       28.2806975770       11.2630584487
H         19.5562264471       24.8883644448       11.3135718303
H         17.8331238815       31.4231411100       16.6749021357
H         18.6946850397       29.9688398819       17.1252336331
H         17.5792677338       26.0629000760       10.3573304074
H         20.0414338170       31.4962965528       18.8210577523
H         17.0104970204       30.9512429147       19.2064027025
H         18.2545764729       31.2080694407       20.5262486544
H         17.4912348014       33.2444018002       18.3071447732
H         18.7577363217       33.5079705507       19.6026391352
H         18.1043951238       32.0345463260       13.6118234136
H         18.2722309239       35.0922635123       16.6628992044
H         15.7693291218       32.7076693288       13.0761639977
H         15.9549804695       35.7594377046       16.1294928339
H         14.1566033428       36.6147447371       14.7428410388
H         12.6521147587       35.7193850951       14.4309450737
H         13.5473947063       35.4385714822       15.9416940524
    82
VM2 Rank=7      G=222.042           E=126.278           -TS=95.765              
C         21.3773175462       25.0393769659        5.7461090092
C         21.9509434336       24.4056690640        6.8675104189
C         20.7317561217       26.2806683289        5.9325861027
C         21.4659611575       24.3836932523        4.3881372585
C         21.8796136301       24.9925532521        8.1416011673
C         20.6624440114       26.8677980127        7.2068569253
O         22.0290716890       23.3111129578        4.2362187676
C         20.8409458140       25.0724611342        3.1800987672
C         21.2299594755       26.2266606520        8.3232357958
N         21.1561937961       26.8228409179        9.6133117890
C         20.8714617118       26.1768528133       10.8019672757
C         21.4126838369       28.2448191617        9.8117828853
O         20.6096950691       24.9967739609       10.9595908251
O         20.9324378565       27.1019977610       11.8013683757
C         21.2885337762       28.4289313238       11.3340102263
C         20.2487023633       29.5007089456       11.7135848221
O         20.3565447963       30.6662640157       11.3730415724
N         19.1452123011       29.0436853205       12.4011819370
C         17.8400935030       29.7234629968       12.3862764624
C         16.7368122289       28.6825469351       12.0746873314
C         17.5780292402       30.4976072272       13.7082864877
C         17.0209060473       27.8889742428       10.8042847372
O         16.3021929026       31.1401961869       13.6644097559
C         18.6758890433       31.5611655909       13.9712503566
C         17.3763034326       26.5292489535       10.8773342793
C         16.9484463449       28.5165687162        9.5471807447
N         18.4294701748       32.4675435111       15.1229893040
C         17.6499567275       25.8038904584        9.7059055864
C         17.2246450269       27.7926646428        8.3752932248
C         19.3401997309       33.6370469395       15.1150429167
S         18.0542841892       31.7316763501       16.6249610791
C         17.5730591288       26.4349194085        8.4545646879
C         20.8051356116       33.2973347569       15.3965359799
O         16.6311733051       31.3886911330       16.5043325741
C         18.1684010259       33.0606252667       17.8502631047
O         19.0935043573       30.7266402324       16.8767616637
C         21.7371137162       32.9325795978       14.2646572244
C         21.8905132594       34.2575828981       14.9731140028
C         17.1536893944       34.0344869008       17.9307980559
C         19.2703211766       33.1363670365       18.7253321663
C         17.2457003754       35.0747114591       18.8706307674
C         19.3605901233       34.1779675648       19.6645970542
C         18.3459246670       35.1533942963       19.7390415816
O         18.3818389153       36.1980683774       20.6393234291
C         19.4573279653       36.3941704804       21.5779515206
H         22.4565365844       23.4499330076        6.7525715614
H         20.2761740556       26.8027374759        5.0965088988
H         22.3335852434       24.4827747174        8.9875602604
H         20.1513516250       27.8194367421        7.3227138081
H         20.9941823692       24.4644801703        2.2808380960
H         19.7646298140       25.2033637916        3.3390540452
H         21.3047595805       26.0533916163        3.0268205286
H         20.6640941409       28.8487120348        9.2826180485
H         22.4193315997       28.5086309266        9.4637120511
H         22.2527426585       28.7317010595       11.7604470051
H         19.1613738909       28.0572771575       12.6299458521
H         17.8392333782       30.4593916649       11.5695667257
H         16.6256116421       28.0048684462       12.9305218820
H         15.7721460388       29.1952400999       11.9698179686
H         17.5922902683       29.7672074036       14.5289718414
H         16.1276889790       31.4484298902       14.5849360690
H         19.6280825883       31.0371644155       14.1255959624
H         18.7841552290       32.1572793950       13.0554954838
H         17.4443982803       26.0328417439       11.8416221715
H         16.6797039551       29.5673896658        9.4794694800
H         17.9285684977       24.7547761392        9.7692289202
H         17.1674446694       28.2833060812        7.4069778242
H         19.2799986334       34.1273559262       14.1338727216
H         19.0073067271       34.3907575763       15.8393131023
H         17.7882553324       25.8736053138        7.5487272919
H         20.9623665219       32.7822481469       16.3416425757
H         22.4836706189       32.1640937509       14.4532951116
H         21.3430585708       32.9415260036       13.2500539880
H         21.5988085895       35.1570470327       14.4347049394
H         22.7428996394       34.3830366509       15.6375716662
H         16.2973639691       33.9861986156       17.2619041137
H         20.0581951663       32.3883151240       18.6779227541
H         16.4620717664       35.8252231594       18.9276511755
H         20.2198144526       34.2165939747       20.3268024455
H         19.2671639733       37.2875850059       22.1860687764
H         19.5455032321       35.5324261589       22.2521866319
H         20.4105469595       36.5335456298       21.0517035932
    82
VM2 Rank=8      G=222.073           E=126.298           -TS=95.775              
C         21.3942398833       25.0280955394        5.7576885656
C         21.8674655779       24.3365260614        6.8936194547
C         20.8264072675       26.3059665809        5.9378889423
C         21.4821182149       24.4363992995        4.3705893409
C         21.7704774567       24.9089140022        8.1730145385
C         20.7313624940       26.8781140883        7.2169003124
O         21.0697503047       25.0425128048        3.3942843692
C         22.0964602382       23.0538692947        4.1819907940
C         21.1971595644       26.1816360083        8.3468671733
N         21.0987657886       26.7604000015        9.6432762150
C         20.7134939532       26.1156937636       10.8039872304
C         21.4376609158       28.1588250877        9.8815668987
O         20.3672075450       24.9532683942       10.9257565338
O         20.7857397667       27.0183344603       11.8230179614
C         21.2526948401       28.3254801993       11.3996229428
C         20.2706554974       29.4594260647       11.7514297731
O         20.4730330859       30.6203480455       11.4393023391
N         19.1072273390       29.0675835924       12.3777105299
C         17.8527931839       29.8343673751       12.3137744029
C         16.6989938029       28.8758616913       11.9292713464
C         17.5786318637       30.6028833395       13.6365860465
C         16.9920861154       28.0849726748       10.6592287257
O         16.3522884640       31.3310066815       13.5443074401
C         18.7309918869       31.5852253926       13.9722529696
C         17.0273465072       28.7363146600        9.4126535819
C         17.2488805535       26.7027737435       10.7231753769
N         18.4896017437       32.4876890133       15.1281232476
C         17.3129202081       28.0139875244        8.2420525474
C         17.5316816659       25.9791476081        9.5528429434
C         19.4757959839       33.5928060120       15.1862297862
S         17.9929071220       31.7550569144       16.5960227507
C         17.5626961559       26.6341815650        8.3118963087
C         20.8991592939       33.1502197706       15.5309665549
O         16.5577318171       31.5109035709       16.4008436571
C         18.1350359950       33.0536971590       17.8505429438
O         18.9491856993       30.6782743300       16.8780686209
C         21.8590333039       32.7411549647       14.4382229572
C         22.0658060820       34.0413183645       15.1784201727
C         17.1847988433       34.0924692473       17.9008692221
C         19.1952274158       33.0410102912       18.7787370064
C         17.2996741137       35.1091145594       18.8637042743
C         19.3084892937       34.0591614919       19.7409441189
C         18.3586929175       35.0995803785       19.7852294809
O         18.4199028094       36.1250853481       20.7059543437
C         19.4587274250       36.2333430399       21.6985652579
H         22.3141649350       23.3512213410        6.7996854787
H         20.4532973578       26.8610868567        5.0806477560
H         22.1455266905       24.3567253549        9.0309909302
H         20.2803448084       27.8605347504        7.3244883865
H         22.0806106823       22.7779425821        3.1211388917
H         23.1350575031       23.0547832719        4.5315019096
H         21.5257501316       22.3099920653        4.7492599397
H         22.4748911051       28.3614171534        9.5862712844
H         20.7561995906       28.8194280472        9.3299113680
H         22.2134743008       28.5542231919       11.8769039100
H         19.0459831952       28.0787160869       12.5874650726
H         17.9412244349       30.5819263075       11.5125628609
H         16.5002659805       28.1938963065       12.7656287504
H         15.7772976634       29.4545031881       11.7875573821
H         17.5038359279       29.8599951778       14.4426482388
H         16.1539292733       31.6354422182       14.4612604344
H         19.6372671312       30.9954760161       14.1618294871
H         18.9236905734       32.1872100584       13.0743861895
H         16.8353563520       29.8042668924        9.3522581344
H         17.2332680130       26.1873206744       11.6797164550
H         17.3394739971       28.5229980773        7.2819181727
H         17.7339605807       24.9123049494        9.6093537083
H         19.4967209610       34.1016356300       14.2128963874
H         19.1589244843       34.3557007950       15.9080670499
H         17.7853182166       26.0741146249        7.4070277552
H         20.9750427447       32.6107523800       16.4724985484
H         22.5423473329       31.9209551998       14.6476462446
H         21.5167073388       32.7928806758       13.4062740906
H         21.8616950001       34.9668996958       14.6439577363
H         22.8910669807       34.0981781756       15.8851859842
H         16.3610730636       34.1127112893       17.1908607644
H         19.9328472177       32.2423088273       18.7549010016
H         16.5659867112       35.9098395508       18.8973709131
H         20.1348035711       34.0292110745       20.4442087622
H         19.2989053071       37.1278468445       22.3137712533
H         19.4561167493       35.3570845280       22.3597270629
H         20.4437766948       36.3163764164       21.2213108530
    82
VM2 Rank=9      G=222.093           E=127.421           -TS=94.672              
C         19.7492727955       26.4343143656        5.9963451806
C         21.1059554857       26.3139716710        6.3619127313
C         18.7843475281       26.5450182146        7.0206268746
C         19.3645590328       26.4413336393        4.5355524382
C         21.4906590902       26.3057524347        7.7129769966
C         19.1702805559       26.5359034417        8.3712221294
O         20.2063239562       26.3434912928        3.6566487309
C         17.8963408748       26.5742510902        4.1468338366
C         20.5246377944       26.4161094716        8.7293960463
N         20.9117308815       26.4207399730       10.0983696415
C         20.2913988689       25.7398514657       11.1290404419
C         22.0357644134       27.2223763557       10.5690752588
O         19.3452308974       24.9757524605       11.0464151802
O         20.9535112536       26.0426538402       12.2816390795
C         22.0448034386       26.9807653646       12.0887758398
C         21.8654736615       28.2800361200       12.8990253755
O         22.5870067761       29.2530619071       12.7570377030
N         20.7910388786       28.3012143765       13.7601087649
C         20.1967745998       29.5431316012       14.2715642116
C         18.6718507269       29.3395039987       14.4566460653
C         20.9317289175       30.0055851412       15.5632604596
C         17.9872738309       28.9186528687       13.1629354311
O         20.7752141334       29.0296324568       16.5916316294
C         20.4483713729       31.3746024763       16.0975602190
C         17.8111037599       29.8497148692       12.1233157869
C         17.5405440941       27.5958252251       12.9885855624
N         20.5096480021       32.4810808695       15.1050156558
C         17.1826008603       29.4679029239       10.9268269732
C         16.9139701528       27.2119127307       11.7914032600
C         21.8481145075       32.7466888639       14.5208689000
S         19.5384834925       33.8435895505       15.4591104875
C         16.7292904420       28.1495374503       10.7626471395
C         22.8709490268       33.3080686473       15.5084349675
O         19.8886126195       34.2845216241       16.8145172393
C         17.8670347900       33.1602941293       15.3638627000
O         19.6866735389       34.7373798603       14.3035637019
C         24.0693850884       34.0683397807       14.9929331288
C         22.9770548916       34.7970658562       15.7387634220
C         17.2657398887       32.9381663388       14.1098441418
C         17.1704581187       32.8113076841       16.5374321537
C         15.9870109367       32.3618537092       14.0317951147
C         15.8910624852       32.2348920298       16.4573018965
C         15.2960987782       32.0046531621       15.2002763631
O         14.0475009968       31.4354159438       15.0604460940
C         13.2601137649       30.9770827234       16.1764550456
H         21.8701694368       26.2257353409        5.5934499753
H         17.7287138750       26.6393266638        6.7841784641
H         22.5432070011       26.2069664498        7.9636049195
H         18.4100720908       26.6233105358        9.1416192332
H         17.7948585197       26.5632080089        3.0553317885
H         17.3215594999       25.7395674772        4.5636997072
H         17.4915018095       27.5177716792        4.5298951459
H         21.8742888607       28.2818512836       10.3293845941
H         22.9761557784       26.8785626606       10.1214111596
H         22.9930346071       26.5246412543       12.3984505318
H         20.2299535047       27.4579845990       13.7773738284
H         20.3379722953       30.3220693482       13.5090187103
H         18.4896488913       28.5952208554       15.2421834272
H         18.2114636591       30.2673350265       14.8118375451
H         22.0005511180       30.0903072597       15.3259061033
H         21.0118538148       28.1739986794       16.1749825337
H         19.4209894192       31.2431347476       16.4558702462
H         21.0464077267       31.6363770489       16.9800290926
H         18.1637548913       30.8697707681       12.2420194564
H         17.6781902119       26.8634923993       13.7795101975
H         17.0468479903       30.1929781693       10.1283804758
H         16.5734258564       26.1875861617       11.6613950388
H         22.2592444510       31.8293690297       14.0808799811
H         21.7454119819       33.4506263223       13.6838705913
H         16.2403904861       27.8537274604        9.8378932321
H         23.0490040690       32.6623870636       16.3661692456
H         25.0199987823       33.9202580095       15.5010808770
H         24.1492041943       34.2345816969       13.9205295237
H         23.1859676445       35.1357379682       16.7513026373
H         22.3247407053       35.4539938370       15.1669635469
H         17.7942681346       33.2029307982       13.1970700792
H         17.6255891681       32.9774694009       17.5112349047
H         15.5299146607       32.1835306813       13.0623235735
H         15.3750315080       31.9689817849       17.3744682576
H         12.3132059576       30.5531583622       15.8190483473
H         13.7961957394       30.1986234789       16.7346595856
H         13.0294899950       31.8078927141       16.8557375775
    82
VM2 Rank=10     G=222.103           E=126.339           -TS=95.764              
C         21.3236600315       25.0709707077        5.7014362684
C         22.0015797036       24.4906736273        6.7931580944
C         20.6111129069       26.2708173052        5.9134902906
C         21.3750923793       24.4037903464        4.3471499159
C         21.9669056724       25.0891349187        8.0633844864
C         20.5784376003       26.8696509303        7.1837738432
O         21.9966710947       23.3675304494        4.1727805808
C         20.6372229535       25.0344648740        3.1714788345
C         21.2504488846       26.2814734947        8.2709146059
N         21.2135593967       26.8892019561        9.5571712857
C         21.0404535008       26.2425737447       10.7667860418
C         21.3889924166       28.3272027831        9.7262313320
O         20.8651309801       25.0504178299       10.9511228015
O         21.0992843744       27.1832421974       11.7517222667
C         21.3403601303       28.5238867679       11.2511769486
C         20.2558329364       29.5310607325       11.6795153715
O         20.2672676627       30.6962734561       11.3213719683
N         19.2258914844       29.0130424028       12.4346705430
C         17.8803156297       29.6064908348       12.4887637039
C         16.8315480952       28.4919114182       12.2529356348
C         17.6443828735       30.3808205102       13.8155946323
C         17.0927573423       27.7012538396       10.9758333216
O         16.3288419614       30.9388594386       13.8390979643
C         18.6835921306       31.5168044204       14.0031655375
C         17.5407610430       26.3687644419       11.0410683519
C         16.9055373016       28.3054473175        9.7191191302
N         18.4443853390       32.4223566495       15.1570869587
C         17.7925806771       25.6467924624        9.8626690696
C         17.1597602423       27.5850851146        8.5400985255
C         19.2747074008       33.6480814797       15.0834524888
S         18.2046597464       31.6862690763       16.6864238192
C         17.6010232118       26.2541935615        8.6119352834
C         20.7722945164       33.4082245011       15.2844012629
O         16.8030426310       31.2484383731       16.6516972723
C         18.2981883428       33.0386206168       17.8875959722
O         19.3211075996       30.7558814520       16.8898910630
C         21.6605744720       33.0858378438       14.1054919216
C         21.7668966516       34.4294220820       14.7870648946
C         17.2273394979       33.9456883233       18.0132347834
C         19.4389463767       33.1993079205       18.6986466402
C         17.2982660252       35.0056408871       18.9333910718
C         19.5079092934       34.2596872618       19.6177505995
C         18.4430398517       35.1663701340       19.7396977837
O         18.5693332712       36.1875441197       20.6586038900
C         17.5513043663       37.1837973952       20.8759529440
H         22.5603750486       23.5677786545        6.6579656380
H         20.0746618626       26.7511651749        5.1007039304
H         22.5014846361       24.6210665404        8.8860323143
H         20.0144019147       27.7880664181        7.3202686937
H         19.5658244653       25.0982870961        3.3925913592
H         21.0267615005       26.0409083788        2.9812867432
H         20.7766889297       24.4252821397        2.2707912345
H         22.3551278207       28.6496453769        9.3179386317
H         20.5742342174       28.8750378697        9.2351847869
H         22.3054120948       28.8945048130       11.6179658577
H         19.3198126008       28.0330814596       12.6722567407
H         17.7842735124       30.3290956537       11.6658269126
H         16.8150092515       27.8201828032       13.1204445541
H         15.8308250112       28.9393296598       12.2000085574
H         17.7533448866       29.6646826311       14.6417252117
H         16.1874461506       31.2478863447       14.7650251637
H         19.6751956286       31.0576931993       14.1080917069
H         18.7004716665       32.1050885321       13.0761712800
H         17.6978009371       25.8911449649       12.0044613337
H         16.5645030169       29.3354396809        9.6571205704
H         18.1430291492       24.6190718992        9.9196861928
H         17.0136755764       28.0575947422        7.5720959476
H         19.1272020882       34.1185151507       14.1017928443
H         18.9346761162       34.3895752439       15.8169517131
H         17.7993332902       25.6957270292        7.7005008391
H         21.0160850823       32.9200457252       16.2254363467
H         22.4652214163       32.3703083499       14.2606178887
H         21.2100418284       33.0527470295       13.1151864253
H         21.3870467313       35.2992364859       14.2549501732
H         22.6454780836       34.6204995808       15.3997585452
H         16.3413365559       33.8299823789       17.3929812371
H         20.2715137035       32.5045150572       18.6172893065
H         16.4616257820       35.6929417547       19.0104034066
H         20.3902096478       34.3814863159       20.2400904544
H         17.8757837710       37.8898372522       21.6507944176
H         17.3593176197       37.7492504319       19.9548747447
H         16.6155166563       36.7158654678       21.2080894204
    82
VM2 Rank=11     G=222.114           E=127.430           -TS=94.684              
C         19.7047191417       26.4266327394        5.9860212638
C         21.0680859326       26.3313835178        6.3398201661
C         18.7482545115       26.5198020065        7.0177708002
C         19.2537770159       26.4302182747        4.5442774890
C         21.4605246242       26.3310867988        7.6890774996
C         19.1417108390       26.5187193803        8.3658437538
O         18.0720225228       26.5121886464        4.2487336141
C         20.2923896993       26.3288973248        3.4327924853
C         20.5006627719       26.4242022717        8.7134146138
N         20.8985506734       26.4363042585       10.0794044979
C         20.2969467493       25.7471797839       11.1157881104
C         22.0142605225       27.2551701982       10.5404739404
O         19.3604060686       24.9704022574       11.0420924523
O         20.9642722090       26.0602654337       12.2626133207
C         22.0453373263       27.0077891012       12.0589124874
C         21.8680865998       28.3021490893       12.8773006727
O         22.5830338234       29.2795802211       12.7323398103
N         20.8024893902       28.3136278707       13.7494005083
C         20.2047847552       29.5501859044       14.2697013806
C         18.6818034306       29.3381529462       14.4610809686
C         20.9441456034       30.0104679021       15.5595686489
C         17.9940797031       28.9187013836       13.1685899592
O         20.7977387149       29.0291877035       16.5843471846
C         20.4567248238       31.3746664322       16.1024180581
C         17.8084617905       29.8529822431       12.1335221641
C         17.5551232966       27.5937991989       12.9902251322
N         20.5079041784       32.4859420052       15.1146655208
C         17.1785954212       29.4721141095       10.9374660619
C         16.9271680583       27.2108545024       11.7934604480
C         21.8422457975       32.7607154559       14.5253493379
S         19.5318488872       33.8420739940       15.4796194327
C         16.7333901060       28.1515184532       10.7691432038
C         22.8671269755       33.3223627858       15.5106389079
O         19.8861826089       34.2784190667       16.8354193948
C         17.8633134841       33.1510993215       15.3889276844
O         19.6703215586       34.7419380103       14.3275851324
C         22.9671068129       34.8107428920       15.7476046309
C         24.0593362710       34.0909365067       14.9930151660
C         17.2573778712       32.9316370177       14.1366741089
C         17.1738192278       32.7934922258       16.5640817529
C         15.9811055417       32.3494790759       14.0618681896
C         15.8968739755       32.2112320011       16.4871952762
C         15.2972826898       31.9837207179       15.2318723000
O         14.0508339319       31.4090372461       15.0951807037
C         13.2707740629       30.9419417240       16.2127017646
H         21.8371469990       26.2563365386        5.5768068037
H         17.6910452291       26.5940361900        6.7747574307
H         22.5163693429       26.2516105118        7.9326948500
H         18.3847741009       26.5922977310        9.1408263097
H         20.8535591057       25.3925749658        3.5288767551
H         19.7977614328       26.3458886396        2.4546039978
H         20.9877675462       27.1737635395        3.4919371993
H         22.9554079356       26.9301100860       10.0806083624
H         21.8312635347       28.3126486037       10.3075184961
H         23.0010108295       26.5571425404       12.3533698269
H         20.2464574295       27.4670961109       13.7683771002
H         20.3382138674       30.3333610478       13.5100988388
H         18.5069379404       28.5898623511       15.2444764811
H         18.2183208673       30.2622705829       14.8218936394
H         22.0112820303       30.1014773802       15.3169938350
H         21.0369564736       28.1766649836       16.1628220191
H         19.4316967207       31.2365586728       16.4649587820
H         21.0576705370       31.6353240590       16.9832396011
H         18.1551645129       30.8747193710       12.2552627227
H         17.7001935475       26.8590398056       13.7775664061
H         17.0357240292       30.1995613810       10.1424214321
H         16.5927315855       26.1849200444       11.6602659282
H         22.2556162480       31.8474571967       14.0790537357
H         21.7321421087       33.4680714307       13.6921831771
H         16.2436482252       27.8564507087        9.8445683898
H         23.0524713024       32.6734709198       16.3643971997
H         22.3088398700       35.4672051539       15.1821266005
H         23.1792762986       35.1455831149       16.7607407540
H         25.0131124414       33.9450749993       15.4958506011
H         24.1331419077       34.2626967504       13.9210510035
H         17.7804478134       33.2030146597       13.2226973514
H         17.6325971129       32.9575143515       17.5365347260
H         15.5204453415       32.1732673031       13.0936979173
H         15.3863402388       31.9387246116       17.4055006385
H         13.8131995166       30.1636996120       16.7650501180
H         13.0391537381       31.7686228628       16.8966659011
H         12.3243492742       30.5149175214       15.8577123741
    82
VM2 Rank=12     G=222.128           E=126.355           -TS=95.773              
C         21.3315697389       25.0661183452        5.7049318723
C         21.9554654486       24.4481456154        6.8101067360
C         20.6615115340       26.2896055040        5.9097685063
C         21.3659794956       24.4529428209        4.3248214221
C         21.9053526594       25.0387212883        8.0839190454
C         20.6132916465       26.8800946209        7.1830531317
O         20.8230951664       24.9952532196        3.3752067731
C         22.0913048838       23.1293332612        4.1095697417
C         21.2297893670       26.2563998966        8.2829680962
N         21.1789198594       26.8535363835        9.5737772597
C         20.9483962569       26.2029841908       10.7716812224
C         21.4016200215       28.2825998788        9.7620034622
O         20.7242356922       25.0165322243       10.9391923761
O         21.0144875703       27.1319034478       11.7672414071
C         21.3206381483       28.4667120280       11.2871388945
C         20.2656425823       29.5117465730       11.6981282850
O         20.3317894053       30.6789121130       11.3524852760
N         19.1971145173       29.0275366002       12.4214033087
C         17.8744098724       29.6721258120       12.4460216474
C         16.7903019141       28.6014095534       12.1701442075
C         17.6327978116       30.4420308653       13.7743614100
C         17.0568286629       27.8122538821       10.8931916144
O         16.3393359252       31.0499126135       13.7692863039
C         18.7092436817       31.5353644926       14.0012641012
C         17.4481865525       26.4620096405       10.9579025751
C         16.9322200616       28.4350585045        9.6377940833
N         18.4743469028       32.4378154316       15.1584924320
C         17.7059442194       25.7411601877        9.7800959186
C         17.1925842141       27.7157568116        8.4594758376
C         19.3524726212       33.6314064884       15.1200778478
S         18.1662641899       31.6960804841       16.6727830543
C         17.5771956526       26.3673694088        8.5305899483
C         20.8340147385       33.3321446790       15.3570464130
O         16.7501737287       31.3135150729       16.5968540944
C         18.2805271949       33.0312952705       17.8912165509
O         19.2401973295       30.7209012372       16.8945378122
C         21.7400884118       32.9880830150       14.1979711839
C         21.8795789582       34.3194729751       14.8972607214
C         17.2425151614       33.9778855691       17.9997383375
C         19.4050919799       33.1390873980       18.7330527855
C         17.3302156389       35.0245915199       18.9335170798
C         19.4908847545       34.1863146161       19.6657144425
C         18.4589189618       35.1323092417       19.7707157296
O         18.6004617062       36.1381078311       20.7042406288
C         17.6159951600       37.1704593868       20.9072564227
H         22.4844526610       23.5066496559        6.6963159165
H         20.1716958709       26.7875577426        5.0764882456
H         22.3968887083       24.5438856778        8.9177208570
H         20.0813123658       27.8186078835        7.3108436933
H         23.1493703857       23.2347503067        4.3745690388
H         21.6395356699       22.3491801232        4.7325639034
H         22.0184443523       22.8284115264        3.0579373750
H         20.6198626919       28.8639534760        9.2560489973
H         22.3888716392       28.5737988661        9.3817048793
H         22.2895887295       28.7954331704       11.6824823023
H         19.2466757922       28.0424410384       12.6510470704
H         17.8285609844       30.4059466959       11.6287037326
H         16.7232962945       27.9233445130       13.0302599698
H         15.8095749598       29.0879953652       12.0937072072
H         17.6923046705       29.7142394294       14.5953311843
H         16.1852614046       31.3552816116       14.6944014981
H         19.6795234268       31.0375103964       14.1268561583
H         18.7729765857       32.1317834652       13.0815326999
H         17.5566824092       25.9696086751       11.9205424487
H         16.6353819733       29.4786769090        9.5763349964
H         18.0125660738       24.6995132647        9.8368421097
H         17.0952695238       28.2026830694        7.4924763127
H         19.2488953623       34.1171053146       14.1402349650
H         19.0217847958       34.3779227921       15.8527538874
H         17.7803720957       25.8097946314        7.6196273990
H         21.0341473608       32.8252457079       16.2984799332
H         22.5125133884       32.2406145957       14.3657647354
H         21.3148513451       32.9825638394       13.1960121414
H         21.5473089188       35.2086879234       14.3653738942
H         22.7483764448       34.4703202070       15.5346360158
H         16.3691669460       33.9031396292       17.3557041886
H         20.2120868078       32.4133652681       18.6651500422
H         16.5189507628       35.7429976416       18.9969418241
H         20.3606931000       34.2672410177       20.3118410991
H         17.4695065732       37.7525858142       19.9882088532
H         16.6547785157       36.7354138091       21.2101961144
H         17.9471900266       37.8552595089       21.6981532454
    82
VM2 Rank=13     G=222.157           E=126.321           -TS=95.836              
C         19.0805477485       26.6012259255        6.4170901539
C         19.4878622017       25.4082724273        7.0522596582
C         19.3192655629       27.8262643387        7.0728017259
C         18.4027607383       26.5940163636        5.0671666425
C         20.1124286861       25.4433824850        8.3102486605
C         19.9452222736       27.8605473133        8.3294394717
O         18.0539012133       27.6313521232        4.5260745766
C         18.1460340804       25.2661349229        4.3634725690
C         20.3415098259       26.6684626909        8.9625276285
N         20.9694759143       26.7029894138       10.2392603302
C         20.7127857246       25.8590522030       11.3038629487
C         22.0187486281       27.6686233513       10.5479008192
O         19.9055437177       24.9469578214       11.3496377788
O         21.5466729299       26.2128203137       12.3229770905
C         22.4010093305       27.3411176927       12.0015929544
C         22.1812808249       28.5421088735       12.9415515240
O         22.8854507756       29.5372563547       12.9156658830
N         21.0711709105       28.4671217535       13.7530942447
C         20.3610201922       29.6586658209       14.2344134820
C         18.8420362918       29.3565780027       14.2900036520
C         20.9612660925       30.1423311069       15.5853462747
C         18.3014713461       28.8788169436       12.9480932523
O         20.7782452015       29.1455044120       16.5887221693
C         20.3615676240       31.4767319256       16.0889256307
C         17.9107687388       27.5384722271       12.7733095755
C         18.2110511277       29.7709037696       11.8640879365
N         20.4579092784       32.5971823790       15.1158876771
C         17.4299185892       27.0969330546       11.5295314815
C         17.7273131841       29.3312899864       10.6210487502
C         21.8356772151       32.9694210021       14.7085323980
S         19.3534695151       33.8814872105       15.3532356263
C         17.3364635531       27.9933642533       10.4535109759
C         22.6698259107       33.6168919205       15.8145780485
O         19.5070677226       34.3284968674       16.7428889844
C         17.7580880540       33.0863023672       15.0504095241
O         19.5819126175       34.7996485082       14.2303064159
C         23.5087495433       32.7747096822       16.7470270831
C         24.1752755070       33.6343146461       15.6996291193
C         17.3275849449       32.8470721014       13.7309052020
C         16.9525945993       32.6691033014       16.1280930494
C         16.1104536818       32.1868282498       13.4939188910
C         15.7356341371       32.0078155436       15.8888608676
C         15.3123316402       31.7609002283       14.5671465018
O         14.1326833934       31.1096910269       14.2724434825
C         13.2589492117       30.5658370946       15.2805192880
H         19.3255903434       24.4432750718        6.5815206320
H         19.0150766733       28.7605996119        6.6073470235
H         20.4184270081       24.5104161676        8.7766904232
H         20.1047748376       28.8193859294        8.8142035435
H         17.6487469257       25.4410516902        3.4022755621
H         19.0949734456       24.7491482944        4.1816040810
H         17.5029384225       24.6318190316        4.9838981128
H         22.8756671030       27.5310227130        9.8764491572
H         21.6403221273       28.6954643448       10.4636361271
H         23.4571337315       27.0517904443       12.0657955726
H         20.5488790855       27.6017288915       13.6913641492
H         20.5134535703       30.4597850313       13.4973610812
H         18.6419117621       28.6078912201       15.0669021114
H         18.2938762262       30.2544900255       14.5926969337
H         22.0385333905       30.2856954913       15.4331798290
H         21.0962295231       28.3103135231       16.1847893759
H         19.3137674188       31.2881434508       16.3491912372
H         20.8631469279       31.7571280288       17.0243638011
H         17.9828615725       26.8354521092       13.5987872298
H         18.5196359717       30.8050392993       11.9840317918
H         17.1370949544       26.0581799202       11.3981957660
H         17.6596950794       30.0251806652        9.7871479306
H         22.3691652831       32.0906862570       14.3243890091
H         21.7868211894       33.6724361247       13.8660960724
H         16.9694745920       27.6497974755        9.4895738602
H         22.2129157483       34.5105295138       16.2362258297
H         23.5796605911       33.0906983428       17.7856657903
H         23.5268847622       31.6975107986       16.5994339364
H         24.6306672080       33.1332615734       14.8476855142
H         24.6983522734       34.5281297880       16.0332517158
H         17.9415121635       33.1634517820       12.8908995647
H         17.2754257332       32.8482441783       17.1511828920
H         15.7857044724       31.9955485807       12.4748258427
H         15.1338993402       31.6901576217       16.7345425851
H         12.3938631028       30.0842269270       14.8074955522
H         13.7843577467       29.8135392819       15.8829931202
H         12.8901290933       31.3592073678       15.9433648890
    82
VM2 Rank=14     G=222.165           E=126.409           -TS=95.756              
C         19.1057840883       26.6057801694        6.3772005069
C         19.3981160491       27.8076797431        7.0537272460
C         19.4180524554       25.3841310910        7.0116979164
C         18.4730079813       26.6528605428        5.0063885952
C         19.9839554664       27.7916897564        8.3299258379
C         20.0025256707       25.3690330624        8.2892026892
O         18.2064313720       27.7146986720        4.4660313710
C         18.1579598246       25.3498950525        4.2801702683
C         20.2854931849       26.5716050633        8.9618292777
N         20.8727924336       26.5554766545       10.2580342701
C         20.5277058721       25.7218521689       11.3055716097
C         21.9713482068       27.4489189744       10.6093644174
O         19.6618261889       24.8640611004       11.3166510678
O         21.3485718355       26.0135285210       12.3544604972
C         22.2843804049       27.0860888568       12.0712250972
C         22.1135670814       28.2917513461       13.0154312398
O         22.8748315237       29.2442626328       13.0126478530
N         20.9832715744       28.2764163917       13.8020094238
C         20.3343765228       29.5041227081       14.2790892413
C         18.7979462260       29.3003883444       14.2778879504
C         20.9164142287       29.9301011267       15.6576061160
C         18.2735974923       28.8861514532       12.9088429618
O         20.6381976912       28.9306855345       16.6363603024
C         20.3772483465       31.2891621027       16.1630317568
C         17.8114016234       27.5755521902       12.6888480944
C         18.2679028740       29.8075778011       11.8458342666
N         20.5691206206       32.4183550621       15.2135862629
C         17.3437280172       27.1926226665       11.4208578455
C         17.7979733817       29.4265249706       10.5783684029
C         21.9732989699       32.6954399333       14.8204364500
S         19.5543503643       33.7723985366       15.4616170284
C         17.3351669482       28.1182649974       10.3657459534
C         22.8532775507       33.2326245932       15.9490478580
O         19.7076862780       34.1778408405       16.8638444999
C         17.9160144205       33.0926274972       15.1109599906
O         19.8626342841       34.6961193429       14.3626199688
C         22.9207494344       34.7152969353       16.2293400697
C         24.1059384783       34.0075897188       15.6169753770
C         17.5039756279       32.8964543871       13.7785115441
C         17.0575934338       32.7192377693       16.1635298607
C         16.2516434098       32.3223562831       13.5037841372
C         15.8050932677       32.1447091205       15.8865570787
C         15.3995651172       31.9408402482       14.5519682421
O         14.1863374450       31.3744319010       14.2206343251
C         13.2501467321       30.8857941360       15.2005452305
H         19.1672127691       28.7632617341        6.5892819386
H         19.2119497106       24.4353652766        6.5253687801
H         20.1862802741       28.7342982735        8.8303580516
H         20.2351518535       24.4147593017        8.7549207208
H         19.0786555971       24.7768152459        4.1228940991
H         17.4571976320       24.7509960941        4.8727160798
H         17.7038756699       25.5640180385        3.3056188258
H         22.8389783584       27.2615485261        9.9642309616
H         21.6625155548       28.4986371931       10.5231203665
H         23.3167576419       26.7276947764       12.1659524716
H         20.4127206281       27.4436804349       13.7214396051
H         20.5623490148       30.3042777358       13.5607818562
H         18.5234631475       28.5512522863       15.0313037639
H         18.2983094313       30.2260139023       14.5814888239
H         22.0058310144       30.0134128584       15.5477934307
H         20.9240860496       28.0847571131       16.2306270626
H         19.3121120980       31.1578130230       16.3856512471
H         20.8606875853       31.5241258859       17.1200692066
H         17.8172509399       26.8502519891       13.4980203726
H         18.6313893070       30.8189502912       12.0013033953
H         16.9950002298       26.1763314865       11.2548082896
H         17.7960762001       30.1427626322        9.7607722512
H         22.4411167451       31.7878325175       14.4186368994
H         21.9827431522       33.4184646954       13.9935340421
H         16.9780343675       27.8197964593        9.3832627487
H         22.9188798399       32.5652798817       16.8061673991
H         22.3473628428       35.3861393027       15.5927898407
H         22.9917616904       35.0279329541       17.2689529483
H         24.3267220408       34.2017356231       14.5693034901
H         24.9813172763       33.8476684503       16.2430329216
H         18.1590937126       33.1790286802       12.9577796758
H         17.3661455021       32.8648421892       17.1963081303
H         15.9407455509       32.1638801109       12.4747840927
H         15.1621822129       31.8596719778       16.7133570370
H         13.7055092026       30.0943887674       15.8098880217
H         12.9198470669       31.6982922625       15.8605361396
H         12.3666109781       30.4691376218       14.7007045558
    82
VM2 Rank=15     G=222.174           E=127.223           -TS=94.951              
C         18.5628152207       26.4764605904        6.6246032962
C         19.6744738505       25.6250498090        6.8038584012
C         18.4058316345       27.5697259028        7.5009908880
C         17.5495680694       26.2439786310        5.5286970989
C         20.5994447064       25.8617637575        7.8345337767
C         19.3317394404       27.8065871304        8.5299384658
O         16.5905326318       26.9852538457        5.3827489343
C         17.7238102103       25.0597280741        4.5844776891
C         20.4337645532       26.9510774046        8.7085551222
N         21.3676608798       27.1864690294        9.7553799432
C         21.8950512473       26.2384911355       10.6118427941
C         21.8965451243       28.5195774494       10.0215693288
O         21.6578779827       25.0431062648       10.6309018530
O         22.7539658475       26.8766236152       11.4568728378
C         22.8223272951       28.3088245487       11.2320287241
C         22.3635437693       29.1262335860       12.4549329410
O         22.4721199132       30.3393615453       12.5136764603
N         21.7274174344       28.4123026846       13.4466383229
C         20.7399445155       29.0200790819       14.3479449656
C         19.6416635015       27.9822185374       14.6893490638
C         21.4405496410       29.6321595096       15.5954185785
C         18.9521423773       27.4506687182       13.4398719492
O         22.1009850932       28.6092591907       16.3383257506
C         20.4770439760       30.3966009553       16.5343029209
C         18.0166115084       28.2506405832       12.7590007405
C         19.2565052344       26.1692454019       12.9447092708
N         19.6294852883       31.3999500294       15.8424568369
C         17.3887365597       27.7743007342       11.5961903799
C         18.6293124047       25.6921925671       11.7818030008
C         20.3562831448       32.4850688712       15.1343630512
S         18.1607578087       31.7728733761       16.6337367019
C         17.6942381897       26.4936895213       11.1082247617
C         21.0364013224       33.4960984023       16.0573502331
O         17.3940125670       30.5227953371       16.5690256752
C         17.3367386017       32.9304002505       15.5133008958
O         18.5015226111       32.4205334244       17.9060486995
C         22.1591387680       34.3533614779       15.5245093683
C         22.4509359153       33.2721550306       16.5375682176
C         16.7388366404       32.4613378370       14.3270706568
C         17.3065024968       34.3078668837       15.8062017697
C         16.1173643769       33.3589628778       13.4422099256
C         16.6846756207       35.2036307119       14.9201954445
C         16.0891612536       34.7369098057       13.7374617176
O         15.4956175208       35.6643592919       12.9063855498
C         14.8573432511       35.3150265872       11.6627269964
H         19.8341961797       24.7725834182        6.1504510729
H         17.5576009054       28.2403942461        7.3875786440
H         21.4479267496       25.1922965759        7.9513751922
H         19.1763481051       28.6489893590        9.1980527213
H         18.6748768049       25.1461257859        4.0470344046
H         17.7147381560       24.1230155532        5.1531099156
H         16.9059601180       25.0383639467        3.8547805945
H         21.0874501850       29.2211928480       10.2619185872
H         22.4618054699       28.8859536575        9.1553531306
H         23.8486551602       28.6113628861       10.9904469960
H         21.6804933158       27.4117111549       13.2997485488
H         20.2548746259       29.8411544082       13.8017475657
H         20.0766440097       27.1564714613       15.2665904153
H         18.8871081144       28.4407161979       15.3398102715
H         22.1956351737       30.3413068637       15.2322659035
H         22.6193633326       28.1037427316       15.6766983115
H         19.8385026294       29.6546267428       17.0314233059
H         21.0608785010       30.8835525272       17.3260262294
H         17.7782172383       29.2429284089       13.1315724523
H         19.9814732353       25.5425311279       13.4571899533
H         16.6676116598       28.3970983353       11.0730354652
H         18.8733462755       24.7040101679       11.3994937600
H         21.1130058947       32.0560797922       14.4650976622
H         19.6701062782       33.0309285786       14.4749009360
H         17.2131253827       26.1257258213       10.2054049629
H         20.3541574748       33.9820451781       16.7519306175
H         22.4880223511       34.1899175200       14.5001035647
H         22.2079431856       35.3881461446       15.8571555739
H         22.9819583130       32.3883241932       16.1917448772
H         22.6931620905       33.5777877194       17.5532264548
H         16.7586061033       31.4000624762       14.0912332726
H         17.7661791560       34.6840644082       16.7171328368
H         15.6639387928       32.9742910502       12.5341016615
H         16.6639754409       36.2657294553       15.1484340600
H         14.4607880281       36.2160046953       11.1778250952
H         15.5743691413       34.8438933056       10.9779772967
H         14.0230486189       34.6230325831       11.8361068064
    82
VM2 Rank=16     G=222.186           E=126.428           -TS=95.758              
C         19.1102155210       26.5876348860        6.3919521514
C         19.3918989369       27.7952994811        7.0660442714
C         19.4424216551       25.3721250963        7.0246643960
C         18.4683478827       26.5697106542        5.0246895920
C         19.9871738414       27.7834519903        8.3383075549
C         20.0358200677       25.3611696401        8.2976808773
O         18.2323553056       25.5201114545        4.4474397038
C         18.1063259131       27.8873236495        4.3484925101
C         20.3084540025       26.5670865070        8.9680528518
N         20.9047426583       26.5583537583       10.2601126487
C         20.5743465618       25.7231996962       11.3111164524
C         21.9973260174       27.4624540972       10.6026565497
O         19.7170604491       24.8569520215       11.3290213076
O         21.3986375567       26.0249990825       12.3544542161
C         22.3195237843       27.1087102069       12.0647433314
C         22.1350028707       28.3154638990       13.0050001048
O         22.8847990594       29.2770054667       12.9982093448
N         21.0058125812       28.2892295330       13.7929234055
C         20.3444312967       29.5103947139       14.2696768215
C         18.8105666799       29.2882892967       14.2764206097
C         20.9275766871       29.9467338262       15.6445343823
C         18.2841804769       28.8654156729       12.9108133235
O         20.6661904010       28.9462556934       16.6268419683
C         20.3742415638       31.3002492557       16.1495212254
C         17.8401910026       27.5479542384       12.6943820428
C         18.2576502837       29.7861469536       11.8475210348
N         20.5471051689       32.4294580910       15.1964544135
C         17.3697406042       27.1575287056       11.4297183968
C         17.7846815822       29.3976448267       10.5834352493
C         21.9455746217       32.7223294959       14.7944714144
S         19.5179261912       33.7719970109       15.4476574984
C         17.3399265936       28.0825390413       10.3744471870
C         22.8257112159       33.2724282053       15.9167175576
O         19.6755122635       34.1828882013       16.8478221849
C         17.8854445840       33.0720629989       15.1095194311
O         19.8080854180       34.6963859267       14.3442961143
C         22.8774612537       34.7564514506       16.1931716202
C         24.0672848160       34.0611750692       15.5755782673
C         17.4667986294       32.8680084778       13.7803213730
C         17.0385418025       32.6910611889       16.1686737617
C         16.2194855565       32.2786142103       13.5153154618
C         15.7910357463       32.1012639318       15.9014279180
C         15.3789794060       31.8895805029       14.5700604740
O         14.1702439220       31.3083117294       14.2481685232
C         13.2461675677       30.8115501647       15.2354704756
H         19.1515160435       28.7537679697        6.6159266591
H         19.2387245708       24.4268334103        6.5275126307
H         20.1816829818       28.7277297572        8.8388064545
H         20.2828330841       24.4092416660        8.7606967714
H         19.0072359208       28.4944227485        4.2048574553
H         17.6504710820       27.6940936424        3.3704083685
H         17.3924977373       28.4421902575        4.9677201003
H         22.8636762287       27.2788768186        9.9547186063
H         21.6799723115       28.5093133687       10.5128497018
H         23.3569011475       26.7646367358       12.1579273155
H         20.4449022422       27.4496492530       13.7159905062
H         20.5594981708       30.3112767334       13.5482041357
H         18.5487490693       28.5373160260       15.0325132871
H         18.3014296869       30.2084391388       14.5809241666
H         22.0153732080       30.0431525375       15.5294908336
H         20.9601842716       28.1029084962       16.2215298721
H         19.3120091884       31.1562471806       16.3780939858
H         20.8597728979       31.5434947858       17.1034278930
H         17.8622148453       26.8232055650       13.5037721075
H         18.6070430675       30.8028857916       12.0002310475
H         17.0351146183       26.1360631396       11.2663954531
H         17.7663492993       30.1135552305        9.7657872049
H         22.4218095925       31.8194578014       14.3918900550
H         21.9415780374       33.4435806371       13.9659781471
H         16.9802844248       27.7782508268        9.3947171997
H         22.9040690905       32.6079304624       16.7749786579
H         22.2925713086       35.4190109428       15.5584127296
H         22.9508167546       35.0723730767       17.2316280106
H         24.2797241245       34.2553764779       14.5261931053
H         24.9480779350       33.9129816588       16.1969101214
H         18.1130007274       33.1564291909       12.9545714006
H         17.3522714144       32.8426787094       17.1990251489
H         15.9035564827       32.1141620304       12.4887901472
H         15.1570687492       31.8106420312       16.7331753550
H         13.7145401019       30.0269627579       15.8437686221
H         12.9109618759       31.6219258479       15.8955987802
H         12.3641744447       30.3835575845       14.7425299839
    82
VM2 Rank=17     G=222.190           E=126.345           -TS=95.845              
C         19.0748996949       26.5710575727        6.4442316535
C         19.3282420262       27.7973566075        7.0954997897
C         19.4647373391       25.3772206209        7.0852387491
C         18.4033805719       26.5110141227        5.0925019419
C         19.9520567833       27.8246548166        8.3537656264
C         20.0866639864       25.4053626907        8.3442988719
O         18.1922407078       25.4456427556        4.5348552273
C         17.9790999151       27.8052399005        4.4073871461
C         20.3307738749       26.6295332939        8.9922738539
N         20.9555381436       26.6603499414       10.2705740158
C         20.6814358197       25.8265605240       11.3387909963
C         22.0197109173       27.6101204604       10.5774220412
O         19.8599651702       24.9273774354       11.3864062497
O         21.5167125498       26.1731308663       12.3592618617
C         22.3862918803       27.2893835583       12.0366384326
C         22.1711013006       28.5000727198       12.9651956403
O         22.8874319982       29.4864964157       12.9391253141
N         21.0519454003       28.4445859835       13.7658797222
C         20.3532214473       29.6480258819       14.2342103457
C         18.8304310758       29.3645364030       14.2830650768
C         20.9510025418       30.1340316562       15.5854582855
C         18.2911780076       28.8855838691       12.9410676045
O         20.7503355949       29.1463651096       16.5945065950
C         20.3641358478       31.4788104475       16.0764049652
C         18.2134970534       29.7734281680       11.8526023105
C         17.8878367323       27.5483798579       12.7710907016
N         20.4781212072       32.5911016662       15.0959441016
C         17.7295366754       29.3329288886       10.6099490143
C         17.4070059056       27.1058417927       11.5276674654
C         21.8620227634       32.9441076131       14.6922490529
S         19.3880413234       33.8901127159       15.3193024705
C         17.3258815321       27.9981935195       10.4472734265
C         22.6987762173       33.5898709697       15.7973283781
O         19.5413234304       34.3454854777       16.7062694567
C         17.7844569256       33.1118237629       15.0158327013
O         19.6319221468       34.7971659464       14.1906072905
C         24.2048281405       33.5886261290       15.6891621551
C         23.5234491069       32.7448398759       16.7398582764
C         17.3559195889       32.8688947984       13.6963688236
C         16.9701021556       32.7115252028       16.0932690704
C         16.1318709660       32.2216102340       13.4592654721
C         15.7462030420       32.0632093701       15.8539328882
C         15.3247985811       31.8124763808       14.5323325891
O         14.1384928250       31.1734899465       14.2375950413
C         13.2543810864       30.6473740307       15.2460393076
H         19.0435985645       28.7402181351        6.6382929052
H         19.2839712212       24.4183537463        6.6055278070
H         20.1238424187       28.7822935491        8.8368290785
H         20.3780559476       24.4693944177        8.8139801051
H         18.8541293721       28.4420016416        4.2350610630
H         17.5086283883       27.5821381687        3.4426746876
H         17.2598700770       28.3429592701        5.0354302482
H         21.6608921272       28.6428745229       10.4808248270
H         22.8784864716       27.4504518673        9.9132693589
H         23.4386990018       26.9895029788       12.1124019255
H         20.5195893257       27.5852681355       13.7055905629
H         20.5196887620       30.4418858752       13.4923565872
H         18.6170010825       28.6229034911       15.0631848643
H         18.2915022122       30.2707363522       14.5775579685
H         22.0307611951       30.2637715112       15.4388667739
H         21.0605252638       28.3046823608       16.1980609531
H         19.3129749043       31.3040649893       16.3327293923
H         20.8642646606       31.7601650074       17.0123338791
H         18.5318914432       30.8049922056       11.9689038356
H         17.9499077960       26.8485584632       13.6000938221
H         17.6715502649       30.0236929978        9.7727673056
H         17.1043804394       26.0694265645       11.4001096536
H         22.3868592375       32.0563621762       14.3170022509
H         21.8252443712       33.6414371670       13.8444897529
H         16.9586432118       27.6536609371        9.4838227450
H         22.2506288575       34.4919967605       16.2102097794
H         24.6580734060       33.0758411556       14.8430737235
H         24.7369659188       34.4786656303       16.0185195948
H         23.5295397018       31.6664304625       16.6003731903
H         23.5934299545       33.0677481447       17.7764291333
H         17.9765976365       33.1723547594       12.8565602229
H         17.2912988641       32.8937107768       17.1163357338
H         15.8085633532       32.0273959341       12.4402702051
H         15.1376277175       31.7584669553       16.6994721206
H         12.3852876760       30.1730185646       14.7730306577
H         13.7682921734       29.8929802677       15.8557657326
H         12.8927494535       31.4497928079       15.9019185567
    82
VM2 Rank=18     G=222.214           E=127.263           -TS=94.950              
C         18.5417349581       26.3931598813        6.6818948261
C         19.6862128095       25.5844490735        6.8387734666
C         18.3677627325       27.4888888852        7.5545604472
C         17.5399338907       26.0715590586        5.5980728334
C         20.6303849998       25.8590695260        7.8417556227
C         19.3134142103       27.7639183443        8.5561779565
O         17.7008599302       25.1240619945        4.8451422960
C         16.3011504161       26.9457666978        5.4380891279
C         20.4493373370       26.9489002688        8.7116460265
N         21.4012012862       27.2251467195        9.7317935353
C         21.9793477348       26.3037099663       10.5843802393
C         21.8937666528       28.5771230694        9.9710306620
O         21.7814661847       25.1016176258       10.6209695426
O         22.8368351376       26.9781802210       11.4022227433
C         22.8498741809       28.4099101591       11.1645756152
C         22.3851153347       29.2208938031       12.3895389393
O         22.4527061067       30.4374828684       12.4370694463
N         21.7922822265       28.4936434007       13.3982993606
C         20.8036128454       29.0750147582       14.3155908076
C         19.7504373403       28.0025333488       14.6905368818
C         21.5091230304       29.7229505582       15.5420758611
C         19.0502224538       27.4371589127       13.4620539165
O         22.2200351110       28.7306446440       16.2798811197
C         20.5400947377       30.4632698216       16.4945000028
C         19.3907884739       26.1652169835       12.9660488435
C         18.0669104909       28.1960663993       12.8018146995
N         19.6445697139       31.4307091958       15.8120024651
C         18.7520709802       25.6567431087       11.8229076949
C         17.4273069407       27.6881984443       11.6588871520
C         20.3191199607       32.5333003287       15.0796460076
S         18.1807152777       31.7607024782       16.6308849994
C         17.7690563854       26.4170534102       11.1701700152
C         20.9835066278       33.5750514896       15.9796339492
O         17.4548383666       30.4854655729       16.5903389812
C         17.2958530902       32.8823561467       15.5203683805
O         18.5258254721       32.4286993351       17.8914573884
C         22.0644684618       34.4655774492       15.4158635148
C         22.4148210636       33.4038446194       16.4309598787
C         17.2258170131       34.2601025950       15.8050480152
C         16.6894536469       32.3853597118       14.3499295732
C         16.5563285766       35.1284785103       14.9265447765
C         16.0202743551       33.2556197708       13.4725497498
C         15.9522895719       34.6339206791       13.7595557062
O         15.3111852803       35.5353036515       12.9351534684
C         14.6588886031       35.1561765131       11.7076034643
H         19.8461949905       24.7346869100        6.1795799854
H         17.4998194362       28.1359157981        7.4704947248
H         21.5040350960       25.2197372457        7.9400816866
H         19.1473515253       28.6052614833        9.2231543074
H         15.7080103046       26.9268137079        6.3593358179
H         16.5969967504       27.9782947481        5.2208356275
H         15.6836322584       26.5736532220        4.6122596841
H         22.4301057662       28.9492612996        9.0890253450
H         21.0686724998       29.2570223442       10.2192092774
H         23.8598709244       28.7469953496       10.9009102863
H         21.7771764375       27.4908249709       13.2603223951
H         20.2781738236       29.8733109322       13.7729686570
H         20.2272925044       27.1970377311       15.2633044617
H         18.9959559639       28.4398787611       15.3554760019
H         22.2314830932       30.4539343233       15.1563728233
H         22.7415884345       28.2368408284       15.6119426949
H         19.9377597665       29.7049755964       17.0117616636
H         21.1235420993       30.9772706170       17.2692275447
H         20.1525251330       25.5701433268       13.4626694513
H         17.8000873010       29.1807542333       13.1752913315
H         19.0239098121       24.6761487896       11.4398054521
H         16.6688359461       28.2792244953       11.1519822641
H         21.0759091245       32.1240703284       14.3981899346
H         19.6012326801       33.0496133881       14.4302294090
H         17.2785835502       26.0244677816       10.2829641765
H         20.2998986407       34.0433356720       16.6849252097
H         22.3768612675       34.3045854313       14.3859224549
H         22.0847069111       35.5042800875       15.7391272956
H         22.9684298241       32.5357144308       16.0808016149
H         22.6679902705       33.7264191042       17.4386788938
H         17.6914145911       34.6577714941       16.7037695020
H         16.7396531793       31.3236868533       14.1205005431
H         16.5050136489       36.1908938944       15.1483902802
H         15.5612247251       32.8497280869       12.5765873680
H         15.3766166803       34.7040788658       11.0108619095
H         13.8518188880       34.4382788344       11.9031234500
H         14.2225875786       36.0400764550       11.2254080989
    82
VM2 Rank=19     G=222.227           E=127.270           -TS=94.956              
C         18.5786058991       26.4077084478        6.6177651415
C         18.4089078587       27.5015291870        7.4910776224
C         19.7053703717       25.5755689976        6.7931771548
C         17.5626252587       26.1543335964        5.5290468441
C         19.3370661484       27.7575710897        8.5133763576
C         20.6326318241       25.8314776689        7.8171896080
O         16.5906342788       26.8791609403        5.3862233067
C         17.7505340196       24.9694176598        4.5882953575
C         20.4542770007       26.9211861093        8.6882114716
N         21.3903601316       27.1758041478        9.7285572503
C         21.9379028885       26.2399184874       10.5856750043
C         21.8988779742       28.5183897464        9.9867085412
O         21.7209243604       25.0408061279       10.6102295149
O         22.7904252023       26.8954117711       11.4238742326
C         22.8323885515       28.3279204919       11.1945791917
C         22.3627123088       29.1405819335       12.4165272552
O         22.4503910788       30.3555711879       12.4716202410
N         21.7416599704       28.4185445790       13.4119420404
C         20.7463612993       29.0117684878       14.3143534274
C         19.6687604020       27.9552361964       14.6643356511
C         21.4400121325       29.6418677419       15.5567449276
C         18.9834542786       27.4065865722       13.4199726448
O         22.1210760702       28.6343065405       16.3019866613
C         20.4660077510       30.3932021302       16.4953613502
C         19.3097252028       26.1295688358       12.9273913480
C         18.0294460143       28.1863483044       12.7413003871
N         19.5988419551       31.3785005402       15.8018711311
C         18.6859108480       25.6368014779       11.7692305070
C         17.4049377133       27.6942668027       11.5832396041
C         20.3044050971       32.4735633481       15.0876748437
S         18.1258514036       31.7281160907       16.5958705884
C         17.7323766761       26.4181142867       11.0978226519
C         20.9692371926       33.4997381004       16.0050581500
O         17.3795276956       30.4656014385       16.5340496966
C         17.2805749716       32.8718000903       15.4769641011
O         18.4591358324       32.3825495711       17.8667011876
C         22.3896070855       33.3034362579       16.4800991533
C         22.0736895751       34.3761956087       15.4652913801
C         17.2307022295       34.2492870349       15.7683970841
C         16.6854413540       32.3924525195       14.2937499458
C         16.5930712752       35.1381413328       14.8858981023
C         16.0484071861       33.2825392704       13.4131122538
C         15.9988765462       34.6554769667       13.7022918800
O         15.3613935844       35.4806077371       12.7990128983
C         15.2478735015       36.9060245462       12.9761423078
H         17.5489439523       28.1575783656        7.3805389298
H         19.8751885013       24.7234100836        6.1419211506
H         19.1717021166       28.5996860700        9.1794581918
H         21.4928006910       25.1766025619        7.9312390202
H         17.7605077431       24.0349340170        5.1605666179
H         16.9286055069       24.9316721606        3.8638641131
H         18.6966676106       25.0693951341        4.0445386794
H         21.0797271977       29.2083115520       10.2268190732
H         22.4551061639       28.8895747779        9.1167019061
H         23.8523007065       28.6482662212       10.9488194110
H         21.7117755907       27.4168574288       13.2681487178
H         20.2442245187       29.8214302520       13.7665315500
H         20.1212677429       27.1396882587       15.2426028195
H         18.9087932677       28.4022344518       15.3164920696
H         22.1811012549       30.3627888877       15.1880008636
H         22.6463140745       28.1352066762       15.6408968155
H         19.8421091503       29.6422849588       16.9976174018
H         21.0435558827       30.8937604625       17.2832033548
H         20.0490313691       25.5184565312       13.4382285254
H         17.7739547127       29.1751313386       13.1119456573
H         18.9468107933       24.6521812924       11.3888760396
H         16.6694289748       28.3014767664       11.0617779664
H         21.0666818033       32.0554238385       14.4178439745
H         19.6069316639       33.0047583255       14.4280951646
H         17.2537824868       26.0380426948       10.1986891123
H         20.2809191558       33.9747962570       16.7011613318
H         22.6302309209       33.6163660218       17.4939137436
H         22.9355019224       32.4286040686       16.1345361536
H         22.4014041496       34.2159999950       14.4399983484
H         22.1046292837       35.4126342540       15.7949101208
H         17.6884664276       34.6317534588       16.6777046698
H         16.7193725235       31.3316632980       14.0574086236
H         16.5679162142       36.1953789483       15.1305803954
H         15.5910854378       32.9091986876       12.5009575317
H         16.2410940266       37.3709322735       13.0245892496
H         14.7031149237       37.3473671771       12.1319842064
H         14.6999424758       37.1397163594       13.8981627310
    82
VM2 Rank=20     G=222.246           E=125.646           -TS=96.601              
C         18.8605395046       26.6236562885        6.5007429736
C         19.2469288037       25.4359072426        7.1580902653
C         19.1555191742       27.8574100596        7.1157352453
C         18.1475109620       26.6019345368        5.1692562945
C         19.9052647330       25.4847260779        8.3982595547
C         19.8151779757       27.9052481675        8.3545584240
O         17.8182566586       27.6350372257        4.6081499279
C         17.8294051874       25.2644959792        4.5101385054
C         20.1893963748       26.7187135741        9.0115071816
N         20.8513663837       26.7678171022       10.2712897197
C         20.6181483425       25.9419722173       11.3558040102
C         21.9203669919       27.7256961157       10.5350483166
O         19.8074152840       25.0355679980       11.4382050439
O         21.4941344317       26.2935108541       12.3397781561
C         22.3491191703       27.4091816770       11.9782883001
C         22.1747522875       28.6206558335       12.9150487932
O         22.8480511571       29.6327059755       12.8188501901
N         21.1353914549       28.5307561036       13.8134462444
C         20.4213511497       29.7098540000       14.3184676688
C         18.9117280697       29.3738395922       14.4206886034
C         21.0553195891       30.2065387004       15.6493466273
C         18.3306546398       28.8716254879       13.1037198625
O         20.9368460474       29.2004323855       16.6531538425
C         20.4335599487       31.5198067037       16.1827179807
C         18.3131341554       29.7058649377       11.9706877663
C         17.8139930107       27.5667005071       13.0057043332
N         20.5051839104       32.6617878274       15.2327366026
C         17.7747981170       29.2468376900       10.7578243909
C         17.2815328428       27.1039064984       11.7909637038
C         21.8756566974       33.0953390447       14.8656238086
S         19.3389397002       33.8921523320       15.4655605687
C         17.2601893352       27.9441887992       10.6669379468
C         22.6582449106       33.7449081890       16.0071489367
O         19.3911758753       34.2718303582       16.8825035272
C         17.8090115414       33.0407496458       15.0190577364
O         19.5963042976       34.8784882991       14.4085947588
C         23.5137351821       32.9092462990       16.9303052177
C         24.1635406664       33.8307271278       15.9258348821
C         17.4985562794       32.8239519169       13.6624505330
C         16.9528792558       32.5339051650       16.0163676193
C         16.3614781984       32.0804050572       13.3057479878
C         15.8166666408       31.7888428579       15.6567578277
C         15.5278088552       31.5426877934       14.3048636475
O         14.4321915521       30.7632336432       14.0038462982
C         14.3397746537       30.0101561124       12.7781901748
H         19.0423893406       24.4643022777        6.7184456931
H         18.8696992022       28.7882252590        6.6319446112
H         20.1945034108       24.5547150808        8.8808511901
H         20.0196069960       28.8715126516        8.8062657199
H         17.3121405422       25.4293512060        3.5577465122
H         18.7560167555       24.7119067484        4.3181185808
H         17.1833389665       24.6687628901        5.1647844671
H         21.5489934078       28.7553409594       10.4539371536
H         22.7525730182       27.5734619428        9.8362400309
H         23.4034697887       27.1083000942       12.0096518212
H         20.6344605912       27.6504115930       13.8020870525
H         20.5350884489       30.5160616132       13.5801166521
H         18.7548719233       28.6291847278       15.2112273588
H         18.3539653629       30.2607539651       14.7335447783
H         22.1221467589       30.3814319163       15.4601212276
H         21.2650301327       28.3768151818       16.2339110835
H         19.3905382890       31.3086187559       16.4450694674
H         20.9329956404       31.7903873744       17.1220493956
H         18.7161675286       30.7123801269       12.0297079800
H         17.8266011710       26.9071631577       13.8691795445
H         17.7617871875       29.8975569778        9.8873628892
H         16.8924693673       26.0913493282       11.7194519592
H         22.4498781664       32.2460698366       14.4742782067
H         21.8199483414       33.8160632784       14.0387636441
H         16.8534582040       27.5837699318        9.7253798807
H         22.1529086579       34.6032266129       16.4467819036
H         23.5495854099       33.1933957908       17.9798900613
H         23.5785503712       31.8388666432       16.7483727851
H         24.6401020090       34.7347177477       16.2993513686
H         24.6577305005       33.3782561877       15.0683871127
H         18.1528097195       33.2120731489       12.8852322081
H         17.1818618927       32.6953108263       17.0672919158
H         16.1468020179       31.9121730967       12.2552249317
H         15.1688410319       31.3799027254       16.4271511089
H         15.2133368061       29.3547011428       12.6619491817
H         13.4384247377       29.3846520887       12.7887045823
H         14.2803530711       30.6786544592       11.9102148501
    82
VM2 Rank=21     G=222.253           E=125.656           -TS=96.596              
C         18.8641053245       26.6001377315        6.5142001528
C         19.2712910917       25.4202752677        7.1698566028
C         19.1462053403       27.8402980236        7.1259948378
C         18.1450099993       26.5109834762        5.1888044318
C         19.9373627304       25.4755380869        8.4051944348
C         19.8141906986       27.8946180019        8.3604894616
O         17.9097331530       25.4335859935        4.6649477434
C         17.7023235040       27.7904854436        4.4878667026
C         20.2089877802       26.7134947524        9.0155407815
N         20.8787037498       26.7722845762       10.2707192967
C         20.6617399919       25.9458321863       11.3581029678
C         21.9388040547       27.7423537238       10.5256838554
O         19.8617062335       25.0306261481       11.4473654042
O         21.5397808132       26.3092657857       12.3359145922
C         22.3782055221       27.4352957713       11.9677614622
C         22.1913572756       28.6468220884       12.9020645902
O         22.8523137647       29.6666045273       12.8020316794
N         21.1552139027       28.5465605762       13.8030924989
C         20.4297860808       29.7181216430       14.3094280389
C         18.9247965471       29.3644249583       14.4198133070
C         21.0642767712       30.2244435854       15.6364617440
C         18.3429369497       28.8535670622       13.1065433428
O         20.9631774681       29.2183596649       16.6421967809
C         20.4292254126       31.5307154369       16.1713501123
C         18.3062899137       29.6872622517       11.9735825910
C         17.8443832649       27.5413752575       13.0119468772
N         20.4816130555       32.6721794520       15.2194997917
C         17.7664531001       29.2205379468       10.7643179620
C         17.3106969150       27.0708732870       11.8007200774
C         21.8446534006       33.1218646726       14.8441925688
S         19.3019097907       33.8886620702       15.4574897281
C         17.2698081181       27.9106799415       10.6768858192
C         22.6256415967       33.7824695403       15.9804770703
O         19.3577615145       34.2708241777       16.8736248453
C         17.7797861085       33.0182526174       15.0210251474
O         19.5412108617       34.8766154740       14.3977934520
C         23.4963391549       32.9585530455       16.8999671952
C         24.1293100697       33.8864291973       15.8906475830
C         17.4635887836       32.7967121356       13.6665127980
C         16.9361259689       32.5016628547       16.0239539556
C         16.3335641570       32.0389639069       13.3173584622
C         15.8069886428       31.7423761215       15.6718873765
C         15.5128484494       31.4916753019       14.3219720960
O         14.4251581183       30.6984940855       14.0281961385
C         14.3356348557       29.9418421515       12.8045236424
H         19.0699063032       24.4510618237        6.7200898853
H         18.8507768962       28.7733678931        6.6557230720
H         20.2416525556       24.5490954991        8.8853062228
H         20.0093397750       28.8631086409        8.8116522206
H         17.1964648764       27.5465908232        3.5463727723
H         17.0085991062       28.3472120717        5.1279245511
H         18.5735126584       28.4180794903        4.2687979265
H         21.5564415176       28.7678213686       10.4428659461
H         22.7689962182       27.5962330578        9.8231839643
H         23.4366814073       27.1488795672       11.9953633934
H         20.6645900538       27.6604075096       13.7950280569
H         20.5303845815       30.5242574549       13.5690849423
H         18.7807314575       28.6191097059       15.2121645957
H         18.3581915578       30.2451417420       14.7342969797
H         22.1279214648       30.4121156499       15.4416490779
H         21.2990071100       28.3981698988       16.2222918096
H         19.3903309616       31.3070278149       16.4396293494
H         20.9303282310       31.8087627896       17.1076103735
H         18.6954500679       30.6993691644       12.0299779087
H         17.8719857954       26.8822122615       13.8753601787
H         17.7383940726       29.8710162570        9.8940689630
H         16.9356834174       26.0528463203       11.7317919307
H         22.4269811629       32.2791049637       14.4507518764
H         21.7755708767       33.8407370410       14.0167296623
H         16.8618946845       27.5442706552        9.7381868956
H         22.1123905354       34.6352198297       16.4217731103
H         23.5345784945       33.2445999367       17.9489523325
H         23.5731592760       31.8887859228       16.7191181205
H         24.6241796267       33.4387720236       15.0310677948
H         24.5969405747       34.7966564748       16.2602871491
H         18.1081675040       33.1923140766       12.8849953247
H         17.1696032811       32.6666413556       17.0733337608
H         16.1144105162       31.8673698573       12.2683074344
H         15.1690502434       31.3260189604       16.4465465223
H         14.2636395188       30.6077640607       11.9355237406
H         15.2164963254       29.2968063102       12.6850994941
H         13.4420244194       29.3054537173       12.8209245968
    82
VM2 Rank=22     G=222.253           E=127.301           -TS=94.952              
C         18.6219480236       26.3832946147        6.6227823363
C         18.4511152460       27.4827077935        7.4914244915
C         19.7382131111       25.5431334972        6.8139377291
C         17.6460726131       26.0904836477        5.5075997556
C         19.3722146024       27.7306498911        8.5225568073
C         20.6577851488       25.7907095691        7.8463852776
O         17.8042569403       25.1395537556        4.7584228918
C         16.4375289549       26.9987702495        5.3104780407
C         20.4798069714       26.8844338629        8.7120122306
N         21.4064932780       27.1333365642        9.7619371310
C         21.9317244860       26.1955391631       10.6307616591
C         21.9286272740       28.4709180635       10.0187392211
O         21.6993248201       24.9994207781       10.6592817802
O         22.7814667140       26.8452839632       11.4762359160
C         22.8416500119       28.2762911796       11.2415074466
C         22.3611630310       29.0988446209       12.4526125567
O         22.4616584622       30.3129709853       12.5046929229
N         21.7161305416       28.3875975679       13.4405421266
C         20.7158356210       28.9957409291       14.3273686690
C         19.6216961066       27.9529356636       14.6671143579
C         21.4003971854       29.6222506010       15.5766370034
C         18.9446564983       27.4087900826       13.4162721254
O         22.0594589202       28.6095165840       16.3345533201
C         20.4231148197       30.3886364800       16.4995205430
C         18.0030207032       28.1951593904       12.7280105097
C         19.2656486230       26.1287972746       12.9279681598
N         19.5777066965       31.3822560578       15.7912165639
C         17.3853481915       27.7066189269       11.5647709937
C         18.6488530100       25.6396428029       11.7645396307
C         20.3064985694       32.4664990449       15.0838977198
S         18.0984649696       31.7521559281       16.5641168567
C         17.7073313556       26.4273914188       11.0837705958
C         20.9713276124       33.4869040426       16.0076977046
O         17.3364289994       30.4995812800       16.4926108536
C         17.2841316662       32.9063431266       15.4330878929
O         18.4226631013       32.4032521435       17.8390079481
C         22.3828203080       33.2747717723       16.5020019013
C         22.0932642746       34.3487953458       15.4806875759
C         17.2480405184       34.2844644071       15.7235695746
C         16.6995502224       32.4343641130       14.2416780074
C         16.6344817647       35.1812243469       14.8320577982
C         16.0866071446       33.3323608403       13.3520116207
C         16.0508065739       34.7059214188       13.6402703394
O         15.4368527997       35.5389675901       12.7280001974
C         15.3388135138       36.9657186213       12.9036512164
H         17.6044166508       28.1535554977        7.3813959753
H         19.8952024519       24.6898207124        6.1586219185
H         19.2086504942       28.5756875487        9.1854744677
H         21.5099362451       25.1273720104        7.9708893850
H         16.7684462523       28.0229008528        5.1043475938
H         15.8360959149       26.6445919665        4.4651221756
H         15.8155646371       26.9954631766        6.2127089750
H         21.1153242462       29.1733176913       10.2419221427
H         22.5026117987       28.8286478831        9.1546499273
H         23.8684018814       28.5854436747       11.0103273606
H         21.6770555342       27.3857632274       13.3001784222
H         20.2303774463       29.8090807345       13.7700270080
H         20.0575255156       27.1337120019       15.2529499083
H         18.8593423814       28.4106463437       15.3089630537
H         22.1548748582       30.3329316576       15.2152510213
H         22.5876268154       28.1018316345       15.6824063580
H         19.7832206780       29.6471931152       16.9956818694
H         20.9960847718       30.8846524498       17.2935556895
H         17.7515635575       29.1861642689       13.0955025017
H         19.9952889176       25.5124478331       13.4463565408
H         16.6591330366       28.3188431384       11.0362356446
H         18.9056382746       24.6526078869       11.3876368719
H         21.0726548693       32.0370729361       14.4257300922
H         19.6248025928       33.0044159296       14.4133645553
H         17.2339588496       26.0496897045       10.1809517724
H         20.2795845117       33.9717942465       16.6935541101
H         22.6137218114       33.5872313992       17.5182201988
H         22.9226978792       32.3926283731       16.1656835006
H         22.1322547713       35.3855777054       15.8083661733
H         22.4325972232       34.1822342067       14.4601997312
H         17.6978374836       34.6612761457       16.6391919859
H         16.7230459425       31.3731448804       14.0059958518
H         16.6195877210       36.2387762137       15.0762254608
H         15.6373825683       32.9646904105       12.4335542127
H         14.8117842989       37.4138540170       12.0518528773
H         14.7807612310       37.2063622813       13.8177805487
H         16.3370272939       37.4180603677       12.9663381627
    82
VM2 Rank=23     G=222.304           E=125.724           -TS=96.580              
C         18.9013558774       26.6376358211        6.4577191174
C         19.2558330693       27.8441480752        7.0949583911
C         19.1782204117       25.4218918380        7.1191445181
C         18.2426918560       26.6736399278        5.0988190232
C         19.8670527234       27.8384545186        8.3592768046
C         19.7880997825       25.4172585806        8.3847824845
O         18.0079962346       27.7305513699        4.5345428664
C         17.8603550423       25.3655555319        4.4153685858
C         20.1319695488       26.6247605667        9.0197491616
N         20.7449820266       26.6200305445       10.3049555178
C         20.4115446221       25.8064310368       11.3723811586
C         21.8669195571       27.4989940566       10.6186199597
O         19.5363805200       24.9591166116       11.4151670339
O         21.2701905420       26.0897611758       12.3929448220
C         22.2172578104       27.1421622772       12.0735897875
C         22.0981339440       28.3567063997       13.0150597657
O         22.8383640654       29.3230445371       12.9436688568
N         21.0323616684       28.3295886116       13.8861773568
C         20.3834199543       29.5499284982       14.3811225411
C         18.8507075855       29.3213859579       14.4172371592
C         20.9954700950       29.9842269965       15.7440248272
C         18.2888299658       28.8823561267       13.0697591359
O         20.7632492451       28.9769645355       16.7267348745
C         20.4439886575       31.3310975923       16.2706227712
C         18.3762678493       29.7329078795       11.9521954639
C         17.6834516754       27.6202412629       12.9285091182
N         20.6322973095       32.4779999037       15.3418223264
C         17.8546057840       29.3328032203       10.7114826763
C         17.1671065054       27.2161483667       11.6861895793
C         22.0403928423       32.8083437428       15.0102824088
S         19.5516361478       33.7877808321       15.5533638375
C         17.2508983184       28.0727987894       10.5775601270
C         22.8530157824       33.3643425514       16.1798344045
O         19.5782558975       34.1465186702       16.9763279060
C         17.9822643911       33.0516136290       15.0429851774
O         19.9096526932       34.7643216811       14.5168660335
C         24.0800097611       34.2014160230       15.9081897577
C         22.8422037547       34.8428677518       16.4886685560
C         17.0571795938       32.5962185803       16.0028356474
C         17.7071808720       32.8698976217       13.6736138235
C         15.8859314159       31.9356563227       15.5937919828
C         16.5351824711       32.2108121977       13.2674609376
C         15.6303104023       31.7229882895       14.2295498081
O         14.4951518936       31.0244059285       13.8802348992
C         14.3926298341       30.2972255676       12.6398090085
H         19.0545572243       28.7955231694        6.6086043648
H         18.9249401732       24.4695491042        6.6630369379
H         20.1195058430       28.7853637609        8.8273963218
H         19.9929227912       24.4664846264        8.8701271165
H         17.1489956788       24.8116546331        5.0382818699
H         17.3945194291       25.5717580181        3.4446631361
H         18.7538274660       24.7515914376        4.2553935913
H         22.7126980279       27.2949213534        9.9499744875
H         21.5707661312       28.5525103038       10.5344314565
H         23.2447211387       26.7639894283       12.1404048912
H         20.4753929848       27.4841019362       13.8543581245
H         20.5834611873       30.3555181943       13.6606859590
H         18.6093329419       28.5780899121       15.1875048515
H         18.3448342409       30.2410745701       14.7236493834
H         22.0795732670       30.0867207263       15.6037890595
H         21.0556762072       28.1380192982       16.3112951122
H         19.3789128383       31.1894042608       16.4869939679
H         20.9195541102       31.5532439685       17.2344712238
H         18.8478845698       30.7065687684       12.0449172587
H         17.6141310631       26.9485169187       13.7798126226
H         17.9229810725       29.9959543071        9.8530705392
H         16.7088116431       26.2359431576       11.5816302155
H         22.5553815306       31.9211280910       14.6211006088
H         22.0589141692       33.5392333059       14.1905077655
H         16.8563888796       27.7574590278        9.6148585496
H         22.9184802044       32.6846282169       17.0271458381
H         24.9385738288       34.0691781378       16.5633234173
H         24.3294272855       34.4258727054       14.8730738353
H         22.2639300089       35.5005595523       15.8430162604
H         22.8615390391       35.1384072036       17.5355013398
H         17.2584178172       32.7309539760       17.0631600972
H         18.4148491521       33.2185569741       12.9250077344
H         15.1836431547       31.5654747639       16.3355341171
H         16.3481741175       32.0677979422       12.2079464060
H         13.4511880468       29.7345014100       12.6109715231
H         14.4072700506       30.9808661149       11.7817604434
H         15.2232761559       29.5855667392       12.5405255059
    82
VM2 Rank=24     G=222.371           E=125.797           -TS=96.574              
C         18.8816803612       26.6074196247        6.4784426062
C         19.2249128286       27.8225497484        7.1089498329
C         19.1856810036       25.3993824314        7.1387529938
C         18.2049838540       26.5738356497        5.1283766000
C         19.8516889224       27.8252841780        8.3660408688
C         19.8105831143       25.4031778072        8.3966279126
O         17.9161653620       25.5174873739        4.5886726159
C         17.8742602585       27.8838883716        4.4221235642
C         20.1433869730       26.6168170403        9.0252192136
N         20.7717213042       26.6237830197       10.3029175931
C         20.4617544340       25.8087700192       11.3762905010
C         21.8856414804       27.5182863570       10.6008293965
O         19.5986152357       24.9499402131       11.4316366325
O         21.3281632537       26.1067794078       12.3860671289
C         22.2552788757       27.1728643864       12.0537692697
C         22.1249168096       28.3892511809       12.9913842868
O         22.8506903234       29.3658187888       12.9113441206
N         21.0655516938       28.3502023746       13.8698488340
C         20.4039474795       29.5628440498       14.3669490419
C         18.8751877041       29.3121617835       14.4194412454
C         21.0231156891       30.0106255324       15.7222935549
C         18.3059498541       28.8611623425       13.0790532558
O         20.8160747580       29.0030286387       16.7102770914
C         20.4567827364       31.3506321567       16.2506289830
C         18.3659677606       29.7112811857       11.9593685922
C         17.7208171489       27.5886042359       12.9465571555
N         20.6176303784       32.4973442579       15.3164532136
C         17.8367314370       29.3004537592       10.7253752952
C         17.1971713950       27.1737713351       11.7108608259
C         22.0168973054       32.8476654811       14.9684501085
S         19.5199728399       33.7915353469       15.5363596370
C         17.2531657262       28.0300809910       10.6002233334
C         22.8339136130       33.4192988557       16.1273547309
O         19.5571761777       34.1548889762       16.9579128637
C         17.9561424920       33.0304995087       15.0458212591
O         19.8517468473       34.7701642576       14.4931209854
C         24.0452329480       34.2736950304       15.8397637943
C         22.8044424224       34.8984453510       16.4319701755
C         17.6678589681       32.8415849958       13.6801463253
C         17.0492946444       32.5633913479       16.0173828395
C         16.5014036294       32.1637860893       13.2891244686
C         15.8835818109       31.8841138885       15.6234597071
C         15.6153676370       31.6644465574       14.2627526107
O         14.4872142819       30.9475693276       13.9281582917
C         14.3825362277       30.2143867451       12.6914466435
H         19.0093273712       28.7758528640        6.6358818138
H         18.9354845573       24.4483058741        6.6749898816
H         20.0956637357       28.7760274509        8.8309906960
H         20.0351396904       24.4558608744        8.8799162878
H         17.3865238121       27.6795395830        3.4618401624
H         17.1975075179       28.4828617644        5.0418873324
H         18.7928496302       28.4523748023        4.2381270248
H         21.5757818900       28.5676748508       10.5146068203
H         22.7270012601       27.3212703711        9.9245380432
H         23.2893506283       26.8117663718       12.1126357332
H         20.5203943276       27.4968292389       13.8452160886
H         20.5850686746       30.3686219505       13.6417247821
H         18.6524854608       28.5677228819       15.1942200012
H         18.3591455732       30.2253122737       14.7284503394
H         22.1040792577       30.1290084118       15.5707668660
H         21.1164070851       28.1672272513       16.2941371666
H         19.3963748622       31.1933961098       16.4788329816
H         20.9391418146       31.5830563304       17.2086619868
H         18.8219683127       30.6929649789       12.0453395071
H         17.6728655134       26.9171338552       13.7995331006
H         17.8836868230       29.9634618838        9.8654513251
H         16.7546396432       26.1856630130       11.6129629876
H         22.5408047104       31.9670505015       14.5761831094
H         22.0154632153       33.5762484024       14.1464188661
H         16.8527787012       27.7064276139        9.6427544196
H         22.9187972779       32.7432514335       16.9758756884
H         24.9128117983       34.1562669930       16.4857805239
H         24.2798999998       34.4986339923       14.8013091436
H         22.2093682327       35.5454615923       15.7908135008
H         22.8308534888       35.1974679430       17.4776589052
H         18.3613416037       33.1992698792       12.9225768400
H         17.2607954632       32.7035983076       17.0749991745
H         16.3042311798       32.0154920189       12.2321851327
H         15.1957359265       31.5049377117       16.3741371916
H         14.3774684305       30.8950226399       11.8309065860
H         15.2228858551       29.5151538870       12.5856830618
H         13.4495782733       29.6372270237       12.6747343119
    82
VM2 Rank=25     G=222.414           E=127.114           -TS=95.300              
C         21.6446482737       25.0292028542        5.6793867375
C         22.5057952038       26.0368627213        6.1593841748
C         20.5876239456       24.5986214005        6.5091824502
C         21.8715525014       24.4398703020        4.3071096770
C         22.3160962369       26.6024343687        7.4311460127
C         20.3996154686       25.1642924738        7.7811211784
O         22.7907587889       24.8174820212        3.5978223515
C         20.9349660335       23.3520760509        3.7933870823
C         21.2586518573       26.1729880985        8.2548490433
N         21.0586912881       26.7551009427        9.5404022947
C         20.6992931834       26.0915675936       10.7002939368
C         21.1876245192       28.1930537903        9.7577533344
O         20.4974485718       24.8972968931       10.8387304737
O         20.5983283166       27.0188331180       11.6948562866
C         21.0005004867       28.3477654723       11.2760399551
C         19.9896748992       29.4457044308       11.6566391289
O         20.0860543710       30.5934071267       11.2566659985
N         18.9294509906       29.0335906162       12.4337619638
C         17.6393075938       29.7398091718       12.4860100747
C         16.5005987630       28.7209276285       12.2386701645
C         17.4680743124       30.5295172122       13.8128775432
C         16.7147631096       27.9140843670       10.9633415396
O         16.2055202913       31.1988088579       13.8341953732
C         18.6023096433       31.5708590541       13.9999056720
C         17.0482873489       26.5486726391       11.0311435845
C         16.6128534382       28.5386486942        9.7068278430
N         18.4415051782       32.4958323397       15.1519534215
C         17.2699388378       25.8141809169        9.8547838456
C         16.8397509880       27.8063760802        8.5298531104
C         19.3752747041       33.6446443427       15.0773401245
S         18.1367299124       31.7861122813       16.6822028134
C         17.1658322092       26.4430058758        8.6034940173
C         20.8462118353       33.2757311941       15.2796572894
O         16.7023535332       31.4718725953       16.6465369567
C         18.3468817447       33.1272285514       17.8812510505
O         19.1677711670       30.7624207305       16.8883782222
C         21.7041890106       32.8773086868       14.1015433247
C         21.9261354115       34.2066736047       14.7831604279
C         17.3583496891       34.1231613344       18.0055683574
C         19.4978542657       33.1905933654       18.6917778284
C         17.5244621103       35.1727601289       18.9245647680
C         19.6622293251       34.2416131130       19.6102866147
C         18.6734128998       35.2390204962       19.7285132612
O         18.7813920455       36.2938036116       20.6110740672
C         19.9122356957       36.4791828516       21.4845566242
H         23.3307066328       26.3857216623        5.5428080128
H         19.9019422548       23.8233164618        6.1806530597
H         23.0030260196       27.3716344678        7.7718722659
H         19.5786292536       24.8117659936        8.3978622080
H         21.2386928226       23.0400389957        2.7873164727
H         20.9705105798       22.4822899305        4.4590105042
H         19.9078890060       23.7317405766        3.7506756919
H         20.4021009892       28.7252650920        9.2045702849
H         22.1741604237       28.5623846057        9.4537457762
H         21.9591184369       28.6035468114       11.7439739228
H         18.9454932790       28.0553615984       12.6958963475
H         17.6082220859       30.4709086962       11.6656157704
H         16.4168010162       28.0522088500       13.1045899229
H         15.5428567808       29.2528539560       12.1737317122
H         17.5138104184       29.8063907128       14.6388437486
H         16.0901526507       31.5198345360       14.7596711465
H         19.5499903207       31.0271661684       14.1067653539
H         18.6717675991       32.1536540040       13.0718526651
H         17.1394274841       26.0554947848       11.9951775856
H         16.3632335740       29.5944547964        9.6435280228
H         17.5256523217       24.7591991604        9.9150262845
H         16.7613824914       28.2949973533        7.5619227135
H         19.2698183381       34.1248081057       14.0949745072
H         19.1005196817       34.4139153601       15.8095975108
H         17.3372854066       25.8758501936        7.6920987682
H         21.0458818549       32.7683358037       16.2209135713
H         22.4436997460       32.0947860474       14.2574182659
H         21.2534673165       32.8834756109       13.1108018431
H         21.6236765428       35.1061251972       14.2506949729
H         22.8174661943       34.3208374514       15.3965991307
H         16.4647879584       34.0846680362       17.3866095599
H         20.2664493130       32.4256252267       18.6101772623
H         16.7607260654       35.9402549185       19.0154127849
H         20.5581464674       34.2703697784       20.2224791519
H         19.7749381189       37.3839030476       22.0901887594
H         20.0212821073       35.6242927203       22.1644385433
H         20.8365914196       36.5920848362       20.9033448660
    82
VM2 Rank=26     G=222.450           E=127.142           -TS=95.309              
C         21.4300662220       25.1910640020        5.4916291109
C         20.6883881241       24.5876338090        6.5273004486
C         22.0909393950       26.4085986975        5.7610508819
C         21.5009181238       24.5281506374        4.1360970083
C         20.6065319363       25.1838568904        7.7961209633
C         22.0074433856       27.0046406121        7.0307299248
O         20.9262469974       23.4741194691        3.9138628899
C         22.3058385123       25.1852995809        3.0204706776
C         21.2625988571       26.3998738568        8.0608780090
N         21.1698311552       27.0126771261        9.3443768779
C         21.2098996925       26.3716800593       10.5700819510
C         20.9774747910       28.4523065184        9.4930309488
O         21.3392631723       25.1774599098       10.7781150195
O         21.0715499885       27.3204645692       11.5395444211
C         21.0477929218       28.6716179557       11.0132499627
C         19.8884967052       29.5254453619       11.5601282896
O         19.6224942450       30.6304100419       11.1187809371
N         19.1283312044       28.9340335326       12.5451093829
C         17.7377113900       29.3176605091       12.8365785012
C         16.8590039641       28.0434231595       12.8486754736
C         17.6303519140       30.1404091490       14.1499819474
C         17.0220947788       27.2178193110       11.5778032419
O         16.2692606933       30.4922668352       14.4069978871
C         18.4876680258       31.4310558508       14.0785652937
C         17.6879922017       25.9786627121       11.6132499188
C         16.5363566348       27.7060894500       10.3510397037
N         18.3244140849       32.3743385230       15.2153144481
C         17.8595566416       25.2325641441       10.4358249627
C         16.7122365759       26.9633206784        9.1719143479
C         18.9154465182       33.7024149217       14.9252280933
S         18.4980088137       31.7275669917       16.7932139321
C         17.3717855842       25.7248859240        9.2144812401
C         20.4428547665       33.7073104857       14.8376430298
O         17.2048549329       31.0818244379       17.0544114939
C         18.5936749565       33.1649707922       17.8909991876
O         19.7689808738       30.9942944771       16.8142296671
C         21.1347812677       33.4358556966       13.5222001637
C         21.1468914110       34.8271277978       14.1098025212
C         19.8246104690       33.5566305885       18.4534507156
C         17.4322626098       33.9066761619       18.1847144409
C         19.8911355993       34.6813043377       19.2928518386
C         17.5009569016       35.0313056248       19.0247801599
C         18.7348876553       35.4232585414       19.5817908147
O         18.8633235563       36.5180231767       20.4113267075
C         17.7557917500       37.3626070921       20.7803725630
H         20.1706372883       23.6481936157        6.3493649659
H         22.6759757287       26.9058761694        4.9931142739
H         20.0284815609       24.6929091351        8.5729086360
H         22.5338951205       27.9380390307        7.2077292211
H         22.2511182563       24.5769760832        2.1101171224
H         21.9029466234       26.1812898784        2.8047607624
H         23.3555761540       25.2782623108        3.3208897523
H         19.9948026712       28.7397332862        9.0954734674
H         21.7661572999       29.0214783259        8.9869887302
H         21.9845317346       29.1805525899       11.2717890576
H         19.4336129241       28.0095293075       12.8244008920
H         17.3740522086       29.9581777984       12.0204853313
H         17.1061855598       27.4398168805       13.7310497762
H         15.8052219273       28.3280179653       12.9626146971
H         18.0074006786       29.5116310174       14.9683316772
H         16.2549264194       30.8443990925       15.3282278000
H         19.5426030195       31.1359611147       14.0068071466
H         18.2352846408       31.9436011050       13.1408247573
H         18.0764647423       25.5935676388       12.5522301078
H         16.0273331367       28.6654431997       10.3113221625
H         18.3737497103       24.2752947910       10.4712436735
H         16.3364292703       27.3467729393        8.2266548150
H         18.5119411981       34.0701686167       13.9719908584
H         18.6028961923       34.4369699686       15.6776896131
H         17.5041587959       25.1486576264        8.3022201579
H         20.9348655809       33.3332353189       15.7327999731
H         22.0598729990       32.8639281310       13.5470840592
H         20.5181673287       33.2614605733       12.6423541268
H         20.5376127311       35.5873956965       13.6252549136
H         22.0817358492       35.1939875948       14.5284842037
H         20.7289444394       32.9914627173       18.2406389267
H         16.4765472959       33.6121584321       17.7569625599
H         20.8426668467       34.9814349008       19.7230904072
H         16.5930848200       35.5881553603       19.2344635297
H         18.1005101959       38.1659012290       21.4437323602
H         17.3050410848       37.8215612087       19.8908979012
H         16.9877671782       36.7850818175       21.3110094752
    82
VM2 Rank=27     G=222.462           E=127.643           -TS=94.820              
C         18.6372454861       26.4443843256        6.4809539931
C         19.7156724124       25.5612110530        6.7037340442
C         18.4803915904       27.5448961643        7.3481592666
C         17.6594268662       26.2384014422        5.3481687020
C         20.6080975530       25.7739930794        7.7677823438
C         19.3738886735       27.7578239979        8.4104435616
O         16.7294741397       27.0077250103        5.1641002513
C         17.8331553587       25.0458384071        4.4143804280
C         20.4423419725       26.8704013126        8.6331566211
N         21.3437019580       27.0824337987        9.7136037272
C         21.8298843481       26.1193579586       10.5780011041
C         21.8830662913       28.4052203565       10.0091627922
O         21.5721910221       24.9280363216       10.5813633711
O         22.6749135874       26.7362605243       11.4522690780
C         22.7932038894       28.1648188788       11.2258333106
C         22.3603897726       29.0010193458       12.4452845158
O         22.5108639326       30.2097195881       12.5017288451
N         21.6978976801       28.3115737668       13.4366942400
C         20.7300225739       28.9538163254       14.3356835821
C         19.5795186646       27.9646745969       14.6503576755
C         21.4457844193       29.5143196939       15.5990272800
C         18.9247901435       27.4254540778       13.3847896947
O         22.0674763882       28.4521173172       16.3201062771
C         20.5047312602       30.2860519157       16.5540316098
C         18.0752738911       28.2491577533       12.6241064471
C         19.1808258337       26.1108962874       12.9529263817
N         19.7199035855       31.3644716111       15.8987954440
C         17.4840939072       27.7636587715       11.4460111768
C         18.5903314356       25.6246145184       11.7747623604
C         20.5042928054       32.4017572855       15.1794110259
S         18.3074212885       31.8428973636       16.7342521859
C         17.7411031273       26.4502722894       11.0215491352
C         21.3697040369       33.2843009252       16.0788132073
O         17.5077430383       30.6132446585       16.7948874948
C         17.4319504841       32.9134178340       15.5686274472
O         18.7089596720       32.5637359611       17.9476929130
C         20.8654848172       34.6209931611       16.5686080022
C         21.9548549907       34.5614735982       15.5253504097
C         17.0073219593       32.4017045986       14.3272320201
C         17.1700510217       34.2596873810       15.8889346447
C         16.3390951683       33.2321179130       13.4122278324
C         16.5013938040       35.0893392982       14.9723499344
C         16.0847220051       34.5764525152       13.7271553720
O         15.4261526056       35.3435461372       12.7885578312
C         15.1121905386       36.7357108803       12.9869324190
H         19.8745489231       24.7023391845        6.0585554882
H         17.6577532993       28.2404373991        7.2009849924
H         21.4316545733       25.0802543797        7.9166904400
H         19.2194807197       28.6079915031        9.0687404892
H         18.8057659047       25.1017066453        3.9126402320
H         17.7747866464       24.1120208846        4.9848478165
H         17.0428106056       25.0460993606        3.6546773682
H         21.0769482154       29.1084325170       10.2549335512
H         22.4602338174       28.7833968844        9.1559552033
H         23.8307489402       28.4291251285       10.9872931017
H         21.6141983543       27.3133599708       13.2887574612
H         20.2894380248       29.8039680013       13.7964925867
H         19.9591698740       27.1375357539       15.2635395052
H         18.8164240487       28.4662696265       15.2581368207
H         22.2270734096       30.2067615355       15.2577655340
H         22.5704885076       27.9447923233       15.6479551349
H         19.8226601696       29.5563363953       17.0093500913
H         21.0996835450       30.7035415451       17.3762051014
H         17.8758064190       29.2672164846       12.9452879437
H         19.8404603376       25.4653272042       13.5266156590
H         16.8295335208       28.4049905048       10.8613320796
H         18.7973164286       24.6104041545       11.4420036931
H         21.1629104571       31.9254201046       14.4420540867
H         19.8346932703       33.0441012539       14.5934563652
H         17.2890627957       26.0751875311       10.1066925177
H         22.0166106353       32.7231360503       16.7500693456
H         19.8838047430       34.9564429056       16.2461881603
H         21.1384230275       34.9222762022       17.5777498201
H         21.6976421191       34.8440998952       14.5064838796
H         22.9646233870       34.8294395780       15.8293086060
H         17.1986052646       31.3620229914       14.0739959784
H         17.4848778437       34.6632480198       16.8485174307
H         16.0157245414       32.8345494572       12.4541527555
H         16.3126818769       36.1243334655       15.2395946504
H         14.4591386047       36.8653461409       13.8596706902
H         16.0279798792       37.3219903821       13.1371939309
H         14.5911352072       37.1325423731       12.1064943690
    82
VM2 Rank=28     G=222.466           E=127.655           -TS=94.811              
C         18.6619821677       26.4245698727        6.4972205450
C         19.7470027319       25.5515279358        6.7181165711
C         18.4980436729       27.5260977281        7.3644175051
C         17.7114967249       26.1638841156        5.3525125463
C         20.6424841829       25.7689972693        7.7781493164
C         19.3951861987       27.7439394857        8.4230962486
O         17.8636703120       25.2106603357        4.6050028789
C         16.5368551203       27.1082655789        5.1227611577
C         20.4711462784       26.8646381527        8.6429830681
N         21.3740001460       27.0839880293        9.7205692058
C         21.8658528607       26.1257051327       10.5870120159
C         21.9083260417       28.4099853321       10.0107695490
O         21.6138604335       24.9331971589       10.5941043682
O         22.7087466313       26.7492623699       11.4586327292
C         22.8161439538       28.1784927655       11.2308853651
C         22.3710490929       29.0122336339       12.4476336149
O         22.5135395436       30.2218822644       12.5044356753
N         21.7075933229       28.3189362174       13.4357667274
C         20.7336398073       28.9557645218       14.3320497265
C         19.5900271411       27.9587794209       14.6471910343
C         21.4435371641       29.5233519453       15.5955997508
C         18.9384997769       27.4144000478       13.3822063147
O         22.0703657320       28.4665871359       16.3202221990
C         20.4959767639       30.2914631979       16.5470760082
C         18.0770305916       28.2293727753       12.6255842788
C         19.2082633901       26.1035404601       12.9474829580
N         19.7067854832       31.3644274345       15.8881371155
C         17.4873857323       27.7387799365       11.4488093356
C         18.6194979051       25.6122313495       11.7705482890
C         20.4872598354       32.4049661705       15.1691899263
S         18.2896432932       31.8361530805       16.7194883906
C         17.7580322466       26.4290184634       11.0215828388
C         21.3458456753       33.2933246182       16.0694150866
O         17.4958965269       30.6025684447       16.7780765503
C         17.4119871141       32.9023399537       15.5515048146
O         18.6842773219       32.5591997797       17.9338808582
C         21.9246621872       34.5733512346       15.5158895247
C         20.8330146375       34.6275230416       16.5570584423
C         16.9942179128       32.3889366576       14.3084790841
C         17.1414443411       34.2469299938       15.8716924290
C         16.3242485972       33.2160796772       13.3917846383
C         16.4710471925       35.0733064729       14.9534259805
C         16.0612654059       34.5587767486       13.7066275488
O         15.4013678355       35.3226716565       12.7663547885
C         15.0788009732       36.7128924021       12.9645730004
H         19.8984599780       24.6960252247        6.0643507825
H         17.6754489739       28.2223128310        7.2314477587
H         21.4710542953       25.0806649201        7.9240397295
H         19.2376491495       28.5927754586        9.0824625788
H         15.9506398531       26.7743824562        4.2586640206
H         15.8884455294       27.1211004009        6.0060913121
H         16.9040166699       28.1226324015        4.9301671834
H         21.0997074674       29.1123446731       10.2506158049
H         22.4867143257       28.7851894682        9.1570777754
H         23.8523102938       28.4515838895       10.9962817991
H         21.6308724295       27.3201296827       13.2882474483
H         20.2877327533       29.8017618860       13.7906853113
H         19.9753699793       27.1345005443       15.2606768198
H         18.8236032204       28.4553139951       15.2549250358
H         22.2212600941       30.2198321142       15.2544386255
H         22.5780085116       27.9610124275       15.6502464755
H         19.8168810722       29.5588323519       17.0021441704
H         21.0866906040       30.7136542241       17.3699043747
H         17.8667047491       29.2444708235       12.9491919020
H         19.8770207130       25.4646824401       13.5181161184
H         16.8232665576       28.3733330436       10.8675635795
H         18.8370037913       24.6009364037       11.4356178831
H         21.1501127676       31.9311638729       14.4339954124
H         19.8156351449       33.0429408920       14.5807992031
H         17.3070740941       26.0497738501       10.1079635416
H         21.9947163966       32.7365141133       16.7423976361
H         22.9322997013       34.8474053718       15.8214875135
H         21.6677312427       34.8535756669       14.4962889500
H         21.1023280409       34.9312905469       17.5664294307
H         19.8500490117       34.9570636725       16.2324879114
H         17.1922282366       31.3505190831       14.0552664452
H         17.4509284526       34.6517409286       16.8324879182
H         16.0062167761       32.8172380351       12.4324547209
H         16.2756429851       36.1070676123       15.2206328681
H         14.5582832296       37.1072911624       12.0827259011
H         14.4222461474       36.8382345517       13.8353085633
H         15.9907321834       37.3043145795       13.1181121955
    82
VM2 Rank=29     G=222.470           E=127.159           -TS=95.311              
C         21.6339472245       25.0273687766        5.6753893951
C         22.4925682500       26.0422948314        6.1491188417
C         20.5846110013       24.5934077722        6.5104897940
C         21.8138870649       24.4026454600        4.3118345293
C         22.3020193635       26.6073520909        7.4214081630
C         20.3958296436       25.1582756701        7.7822499497
O         21.0660673400       23.5242416756        3.9120981730
C         22.9516031595       24.8755791874        3.4138925017
C         21.2504322508       26.1730151510        8.2504292850
N         21.0521422570       26.7563064322        9.5357315973
C         20.7012219418       26.0927652230       10.6982432276
C         21.1732945264       28.1954145058        9.7500842459
O         20.5067967563       24.8976232575       10.8396921643
O         20.5990619653       27.0212068307       11.6915988190
C         20.9933517309       28.3513074298       11.2690965237
C         19.9801124256       29.4455961933       11.6536948096
O         20.0703995165       30.5934672847       11.2527830930
N         18.9248697464       29.0298298942       12.4356152270
C         17.6319764376       29.7306586345       12.4922053372
C         16.4967140458       28.7071154371       12.2483147764
C         17.4619713764       30.5195228025       13.8196976960
C         16.7109779435       27.9006157101       10.9727778645
O         16.1966559279       31.1834092355       13.8455208263
C         18.5924410780       31.5656658418       14.0026889506
C         16.6044294202       28.5244353352        9.7162749992
C         17.0495587133       26.5364385218       11.0403503256
N         18.4319671875       32.4897020855       15.1555229583
C         16.8319588415       27.7926864970        8.5390973570
C         17.2718388619       25.8024567352        9.8637940825
C         19.3605740570       33.6424757955       15.0777457731
S         18.1357853907       31.7783051428       16.6866772306
C         17.1632353108       26.4305563502        8.6125231689
C         20.8338162091       33.2797256984       15.2743453738
O         16.7024977200       31.4585887476       16.6563349662
C         18.3455238272       33.1197148139       17.8854713164
O         19.1715283743       30.7584954337       16.8884798477
C         21.6890285122       32.8855140155       14.0928096152
C         21.9078837255       34.2154927891       14.7742303716
C         17.3536684263       34.1117779343       18.0141794119
C         19.4994612796       33.1871511784       18.6914414129
C         17.5194108079       35.1616084026       18.9329805765
C         19.6634597679       34.2383948767       19.6097565362
C         18.6712986466       35.2319408908       19.7323699866
O         18.7787480405       36.2867429901       20.6149730498
C         19.9123739061       36.4761104377       21.4839858491
H         23.3156330174       26.4039505008        5.5399812579
H         19.9087967339       23.8113703003        6.1728979393
H         22.9849355531       27.3814387640        7.7592280292
H         19.5791391852       24.8008309186        8.4017828191
H         22.8403088634       25.9445882044        3.2001557830
H         23.9145411520       24.7050623619        3.9083784628
H         22.9372298404       24.3224137242        2.4675330164
H         22.1557729613       28.5706055712        9.4402167566
H         20.3813664730       28.7217448634        9.2004121190
H         21.9533697549       28.6115811229       11.7316536986
H         18.9458802701       28.0518077235       12.6981821660
H         17.5951574692       30.4617456326       11.6720384172
H         16.4179165762       28.0384287741       13.1147281611
H         15.5366742310       29.2351596860       12.1856616422
H         17.5137207762       29.7965466927       14.6454410192
H         16.0832509362       31.5040216941       14.7713812057
H         19.5428258587       31.0260038205       14.1059194212
H         18.6559730126       32.1489187398       13.0744984162
H         16.3508788462       29.5793132350        9.6531329075
H         17.1443113549       26.0438769695       12.0043517155
H         16.7501353055       28.2807469541        7.5711697363
H         17.5316031984       24.7484506521        9.9238300460
H         19.2493527118       34.1224859471       14.0959409668
H         19.0853436592       34.4103536320       15.8112847965
H         17.3354510981       25.8638179557        7.7009686261
H         21.0391889657       32.7727280478       16.2145880658
H         22.4324483486       32.1060758474       14.2455145058
H         21.2345372362       32.8902156356       13.1037839109
H         21.5995789485       35.1139021066       14.2433584418
H         22.8010266097       34.3331644818       15.3843616670
H         16.4577985198       34.0701143702       17.3987722032
H         20.2706581521       32.4251775694       18.6064421856
H         16.7530972759       35.9261181360       19.0272239254
H         20.5616930375       34.2703254201       20.2183867726
H         19.7740079017       37.3800156172       22.0905912653
H         20.0274747040       35.6213429995       22.1630247273
H         20.8339374849       36.5928617492       20.8991111774
    82
VM2 Rank=30     G=222.479           E=127.658           -TS=94.821              
C         18.5376960251       26.4639050884        6.5333332499
C         18.4094066999       27.5726560429        7.3947222438
C         19.5979998551       25.5589417661        6.7556463592
C         17.5496098701       26.2725481792        5.4069135296
C         19.3131028374       27.7724622909        8.4509113360
C         20.5006180822       25.7586270963        7.8136117703
O         16.6353977655       27.0606131568        5.2232824506
C         17.6927310385       25.0712585925        4.4791351976
C         20.3633582703       26.8634726372        8.6732244125
N         21.2750404469       27.0623781161        9.7474936877
C         21.7455073838       26.0941164920       10.6147989483
C         21.8442079594       28.3750020140       10.0322253867
O         21.4624166443       24.9086264730       10.6266344639
O         22.6086969499       26.6977915990       11.4805217790
C         22.7573999886       28.1218697685       11.2440119734
C         22.3525029328       28.9754367671       12.4610037186
O         22.5291150886       30.1810110957       12.5077506010
N         21.6834413444       28.3071384509       13.4624162594
C         20.7359131692       28.9760628864       14.3636208596
C         19.5662838913       28.0143304772       14.6923637665
C         21.4722346861       29.5292387294       15.6183514373
C         18.8921769740       27.4806982112       13.4345990475
O         22.0761795293       28.4586188023       16.3420468163
C         20.5545563796       30.3270053213       16.5747378240
C         19.1149981810       26.1571502651       13.0118972697
C         18.0584621443       28.3182441280       12.6715410356
N         19.7876141030       31.4170604772       15.9175848542
C         18.5071745025       25.6757369957       11.8405669025
C         17.4499686571       27.8376415178       11.5002826523
C         20.5880039884       32.4323953685       15.1846355792
S         18.3914897500       31.9312747336       16.7592869781
C         17.6738569763       26.5153056058       11.0849624926
C         21.4787950540       33.3028860107       16.0708854316
O         17.5684488484       30.7182143920       16.8387169648
C         17.5281329536       33.0061404032       15.5887173579
O         18.8163920648       32.6563459049       17.9621942878
C         22.0851185519       34.5642085308       15.5040204142
C         21.0060543730       34.6527564315       16.5559025873
C         17.0834248338       32.4890636232       14.3563396737
C         17.2959564731       34.3606795728       15.8956167146
C         16.4240911445       33.3193502619       13.4340770370
C         16.6365101970       35.1896146086       14.9724713573
C         16.2000214918       34.6768363541       13.7403613653
O         15.5599136042       35.5394120540       12.8747132522
C         15.0709782953       35.1388727062       11.5798686732
H         17.6012295496       28.2849824353        7.2477187872
H         19.7347701765       24.6930583942        6.1147911413
H         19.1807934161       28.6296986063        9.1048301422
H         21.3098105293       25.0481300432        7.9622547724
H         17.6173300683       24.1421535060        5.0552715295
H         16.8985768362       25.0842259587        3.7235286421
H         18.6636553041       25.1033450596        3.9720714636
H         21.0547100308       29.0962426594       10.2797072990
H         22.4232851356       28.7365244088        9.1731118886
H         23.7988797230       28.3610943433       10.9963192559
H         21.5772882390       27.3099584734       13.3220229043
H         20.3102203434       29.8320372773       13.8217148390
H         19.9318524121       27.1834406005       15.3090223656
H         18.8180785244       28.5365563112       15.3012822686
H         22.2656711318       30.2026574549       15.2671725615
H         22.5633869547       27.9363067430       15.6697292734
H         19.8608091316       29.6147930416       17.0400224081
H         21.1641335059       30.7376218538       17.3896281824
H         19.7622383607       25.5007320553       13.5873886621
H         17.8848248424       29.3432194037       12.9854994341
H         18.6885146243       24.6543577544       11.5148535387
H         16.8077163977       28.4896253423       10.9137524542
H         21.2306855912       31.9370876097       14.4457207559
H         19.9274474911       33.0845635532       14.5992621231
H         17.2083901802       26.1438254913       10.1753830088
H         22.1196983149       32.7329841806       16.7405423479
H         23.1026700690       34.8134888149       15.7977491249
H         21.8250747465       34.8454097400       14.4854774888
H         21.2936033458       34.9549826299       17.5606946436
H         20.0285498190       35.0058320727       16.2395713383
H         17.2525839156       31.4426608748       14.1152990607
H         17.6258728282       34.7702690230       16.8475100417
H         16.0930352145       32.8990492834       12.4896401712
H         16.4611817759       36.2350688410       15.2109069929
H         15.8936596912       34.7761414225       10.9501091143
H         14.3202776429       34.3439996058       11.6777925734
H         14.6025836915       35.9928631939       11.0744447987
