    84
VM2 Rank=1      G=220.152           E=124.029           -TS=96.123              
C         21.3927496749       24.7346382333        4.9982215474
C         21.2835297035       23.7821555740        6.0342269437
C         21.4614794110       26.0993715370        5.3455298093
C         21.4379355136       24.3287168735        3.5438819302
C         21.2410446445       24.1875184377        7.3787712369
C         21.4203179777       26.5036264931        6.6898626103
C         21.3618715643       22.8515836269        3.1742567100
O         21.5333124479       25.1604093712        2.6551658821
C         21.3036145145       25.5512000443        7.7185643930
N         21.2608113244       25.9597703204        9.0813277599
C         22.1632007968       26.9802783032        9.6015983615
C         20.4233951002       25.4618983258       10.0617444998
C         21.7761866318       27.0887258338       11.0887768727
O         19.5596751200       24.6110731848        9.9341538921
O         20.7395092553       26.0839716905       11.2320953042
C         21.2804758507       28.4943902923       11.4865149882
N         20.1949647176       28.5203901740       12.3353871387
O         21.7765888070       29.5192832460       11.0487165506
C         19.3026997826       29.6772048768       12.4949450543
C         19.0705064564       29.9678900675       14.0043635088
C         17.9918538981       29.4486846357       11.6956944168
O         18.4263199946       28.8515484558       14.6272541468
C         18.2460513474       31.2639641594       14.2297217384
C         18.2348818655       29.0813752886       10.2361623448
N         18.3110018966       31.8175624958       15.6099681625
C         17.9363098900       27.7876710385        9.7694095653
C         18.7686802906       30.0298412252        9.3446562866
C         19.6551153373       32.2188125802       16.1065484431
S         17.2426552403       31.1447883888       16.7614427187
C         18.1624561126       27.4479023597        8.4252875997
C         18.9990684298       29.6900753139        8.0010729067
C         20.4172767744       33.2084982545       15.1877442430
O         15.9181482322       31.2287275532       16.1348112581
C         17.2304037859       32.3655083936       18.0952122085
O         17.8236796349       29.8641287382       17.1847140492
C         18.6917025461       28.4000399876        7.5401306985
C         19.6235779548       34.5199270011       14.9877732089
C         21.8048131299       33.5226652906       15.7855543537
C         16.6330075354       33.6239582885       17.8929119152
C         17.8383410178       32.0782511678       19.3326977012
C         16.6416116963       34.5820089128       18.9180644181
C         17.8466008821       33.0377968631       20.3599218907
C         17.2472007733       34.2993220011       20.1598103283
F         16.0614123908       35.7818410152       18.6916350630
O         17.2366292829       35.2706519441       21.1455700879
C         17.8303307658       35.0893521413       22.4461252526
H         21.2306413990       22.7206410999        5.8114861173
H         21.5465256341       26.8546960654        4.5680126366
H         21.1606344165       23.4334228705        8.1576295042
H         21.4693191816       27.5631534875        6.9246459899
H         21.4056944636       22.7348342801        2.0851213616
H         22.2026164459       22.3097837007        3.6219279672
H         20.4215128919       22.4224786805        3.5381534938
H         22.0085613948       27.9336158553        9.0804288603
H         23.2069938738       26.6607776420        9.4906226669
H         22.6317000597       26.8428634012       11.7295154975
H         19.8574560057       27.6223345334       12.6604239119
H         19.8012642107       30.5593905493       12.0697630838
H         20.0656060378       30.1057087063       14.4464910202
H         17.4041162681       28.6611660730       12.1843815649
H         17.3733320367       30.3529982029       11.7343058538
H         18.3818886019       29.0362983482       15.5951034184
H         18.5996222650       32.0233616134       13.5221998117
H         17.2005532850       31.0671761005       13.9583512481
H         17.5318835662       27.0420534770       10.4489649997
H         19.0104653751       31.0295430363        9.6950921067
H         19.5631867377       32.7020538193       17.0871303502
H         20.2722985440       31.3240515583       16.2633543652
H         17.9314848861       26.4458657190        8.0717946414
H         19.4131443286       30.4271589026        7.3177614157
H         20.5832475390       32.7423612574       14.2069856080
H         18.8654486123       28.1374510906        6.4996140865
H         18.6523915219       34.3303311565       14.5139452015
H         19.4385802523       35.0199194390       15.9472278030
H         20.1754167232       35.2163678699       14.3436963346
H         22.3690801193       34.1984430391       15.1300074398
H         21.7148882808       34.0023756682       16.7688600279
H         22.3965807867       32.6062176161       15.9070774537
H         16.1664228071       33.8610311972       16.9404830132
H         18.3074560358       31.1107022696       19.4978130074
H         18.3221127744       32.7904924962       21.3039602343
H         17.6954737260       35.9956962680       23.0499018904
H         17.3578908997       34.2515726530       22.9751813001
H         18.9067825320       34.8934447324       22.3575159105
    84
VM2 Rank=2      G=220.189           E=124.063           -TS=96.126              
C         21.4172943031       24.6969811140        5.0205840858
C         21.2844056643       23.7544696730        6.0629212575
C         21.4938444731       26.0639536622        5.3573067267
C         21.4794643194       24.2781744916        3.5705310014
C         21.2265799831       24.1717258855        7.4032417216
C         21.4373358634       26.4800901316        6.6974562952
C         21.3951608120       22.7986591313        3.2123915734
O         21.5951118647       25.1012938513        2.6762570191
C         21.2970689662       25.5376343651        7.7323783963
N         21.2388675894       25.9581794754        9.0909210415
C         22.1428469059       26.9752204010        9.6151818208
C         20.3835152534       25.4759582241       10.0636405615
C         21.7385384043       27.0971236585       11.0966963881
O         19.5133613582       24.6325293329        9.9307777802
O         20.6890368897       26.1048107257       11.2331671125
C         21.2539724445       28.5106161380       11.4800331502
N         20.1582911558       28.5538510529       12.3150189662
O         21.7670826248       29.5272134854       11.0424869642
C         19.2766753887       29.7212006278       12.4558471665
C         19.0259578128       30.0219108388       13.9603389401
C         17.9749212629       29.5028808603       11.6390305352
O         18.3609147879       28.9155858788       14.5791756203
C         18.2123452967       31.3278367904       14.1675919740
C         18.2346730462       29.1245269974       10.1852102314
N         18.2641569195       31.8881168693       15.5457237231
C         17.9297028800       27.8311034103        9.7218119320
C         18.7905994624       30.0622576877        9.2958837401
C         19.6055917198       32.2771844993       16.0589715646
S         17.1726569693       31.2327373385       16.6855331538
C         18.1714506507       27.4810494030        8.3830559508
C         19.0365792306       29.7121694866        7.9577239767
C         20.3925711741       33.2517589377       15.1449245169
O         15.8577062907       31.3287728404       16.0407645294
C         17.1570861301       32.4574088708       18.0157454193
O         17.7330864743       29.9474239808       17.1221842127
C         18.7227977693       28.4225330979        7.4999911699
C         19.6176524470       34.5712998616       14.9257404799
C         21.7752197190       33.5530629296       15.7604265845
C         17.7416641142       32.1625469174       19.2620602299
C         16.5811524600       33.7247921506       17.8035497643
C         17.7456154242       33.1247392035       20.2837234524
C         16.5859650375       34.6888112299       18.8263336385
C         17.1693439310       34.3951329484       20.0768701303
F         18.3156841838       32.8117286361       21.4688483064
O         17.1955996542       35.3174626201       21.1083356877
C         16.6438508878       36.6444802873       21.0016115070
H         21.2247770276       22.6916134693        5.8484292396
H         21.5970907288       26.8117531844        4.5747346109
H         21.1280884678       23.4250992130        8.1872022587
H         21.4930962359       27.5410743527        6.9239897277
H         22.2242990223       22.2531221134        3.6768568512
H         20.4457133392       22.3812751209        3.5661803555
H         21.4536981147       22.6721140665        2.1250435078
H         22.0017224666       27.9260423970        9.0856184331
H         23.1854452664       26.6471011212        9.5191281797
H         22.5832432049       26.8454411502       11.7494034146
H         19.8066697544       27.6615622787       12.6409961034
H         19.7910352790       30.5956675234       12.0335319141
H         20.0160292593       30.1512389425       14.4161111697
H         17.3713525459       28.7247784436       12.1234846552
H         17.3661715210       30.4142867574       11.6637876689
H         18.3043946486       29.1056024149       15.5453752806
H         18.5837106317       32.0796755873       13.4611154795
H         17.1686449655       31.1407182798       13.8827786079
H         17.5081975063       27.0936532692       10.3999005575
H         19.0375231171       31.0615429921        9.6439165984
H         19.5050608459       32.7682335682       17.0347977523
H         20.2099527070       31.3763987167       16.2305842803
H         17.9353807629       26.4792909883        8.0321493989
H         19.4677347234       30.4409704539        7.2760929228
H         20.5667596170       32.7775031278       14.1695009859
H         18.9086032679       28.1520182250        6.4635975942
H         18.6510777004       34.3903219686       14.4392909592
H         19.4250881682       35.0792085228       15.8795140941
H         20.1869119113       35.2571462865       14.2854707508
H         22.3567945793       34.2178797239       15.1088109206
H         21.6772203608       34.0400252619       16.7393877943
H         22.3541281217       32.6303886899       15.8959679161
H         18.1949315905       31.1910980242       19.4401859189
H         16.1331656150       33.9626074584       16.8410699754
H         16.1358740151       35.6579458286       18.6350111605
H         17.1425630066       37.2090996503       20.2031861666
H         15.5677457228       36.6015591900       20.7891723925
H         16.7855677205       37.1868724305       21.9449649348
    84
VM2 Rank=3      G=220.190           E=124.068           -TS=96.122              
C         21.4127551866       24.6698421474        5.0339657719
C         21.2841181972       23.7329549114        6.0797959044
C         21.4864568210       26.0401173650        5.3644732100
C         21.4689883916       24.1914241607        3.6022253246
C         21.2271309069       24.1517105011        7.4192800389
C         21.4308687976       26.4579700568        6.7045298798
C         21.6059573066       25.2094736485        2.4756482962
O         21.4072870720       23.0036127183        3.3266745827
C         21.2947834561       25.5187562267        7.7432314065
N         21.2380230109       25.9439401879        9.1003475498
C         22.1417215809       26.9636539631        9.6198626010
C         20.3847806740       25.4638448141       10.0759504366
C         21.7394705675       27.0900201850       11.1015656501
O         19.5151289600       24.6192851068        9.9471266989
O         20.6913353307       26.0969395364       11.2429152756
C         21.2537565780       28.5042002402       11.4808970624
N         20.1593924541       28.5488710632       12.3175289894
O         21.7648945154       29.5199523956       11.0391004619
C         19.2768632046       29.7157533603       12.4563972570
C         19.0272561317       30.0196600626       13.9604446176
C         17.9745151999       29.4942756583       11.6413808637
O         18.3635300393       28.9142413529       14.5823122188
C         18.2129704389       31.3255124307       14.1655358541
C         18.2331031578       29.1133738883       10.1880227267
N         18.2651311755       31.8885627603       15.5425306456
C         17.9309623364       27.8180923223        9.7279698821
C         18.7848696920       30.0507137972        9.2957060487
C         19.6066103552       32.2792187606       16.0544535545
S         17.1743231555       31.2350923707       16.6840988786
C         18.1712695299       27.4658257144        8.3895346958
C         19.0293424443       29.6984575022        7.9578360352
C         20.3926810135       33.2524939873       15.1382437286
O         15.8591114727       31.3291341882       16.0395670205
C         17.1585746894       32.4625846341       18.0117071926
O         17.7355112815       29.9509762236       17.1232843266
C         18.7182706357       28.4069901707        7.5034278301
C         19.6170282114       34.5712653888       14.9170340287
C         21.7754941945       33.5555728586       15.7525094763
C         17.7435308133       32.1705981751       19.2585215828
C         16.5820558399       33.7292731969       17.7969606326
C         17.7473153975       33.1349581254       20.2781406641
C         16.5866917566       34.6954581121       18.8177008486
C         17.1704855659       34.4046777753       20.0687207261
F         18.3177602309       32.8246915717       21.4638057635
O         17.1966112458       35.3292092107       21.0982178491
C         16.6442809832       36.6557671725       20.9888159106
H         21.2278178251       22.6707129098        5.8544669608
H         21.5865197694       26.7950911378        4.5904016151
H         21.1317264973       23.4065994829        8.2050072865
H         21.4842559381       27.5196014190        6.9288241560
H         20.7547202497       25.8994333426        2.4889072623
H         22.5340695607       25.7793595642        2.5966873225
H         21.6299621990       24.6961837103        1.5072867831
H         21.9988532428       27.9125808957        9.0873822177
H         23.1845104141       26.6362662963        9.5233676285
H         22.5854460686       26.8415296620       11.7538526127
H         19.8093578115       27.6572519137       12.6470346442
H         19.7900347446       30.5896919030       12.0315497805
H         20.0176325775       30.1506777002       14.4150714545
H         17.3723538894       28.7164297235       12.1279924309
H         17.3647144557       30.4050053512       11.6649997380
H         18.3073333064       29.1065005852       15.5480850753
H         18.5835541523       32.0761677175       13.4573905774
H         17.1692371198       31.1372239356       13.8816238242
H         17.5126688572       27.0809660756       10.4084004670
H         19.0295793898       31.0514403952        9.6411541880
H         19.5062897204       32.7720051738       17.0294269464
H         20.2114906240       31.3790440093       16.2274408253
H         17.9372810409       26.4626735696        8.0412160843
H         19.4571238836       30.4270402768        7.2738542365
H         20.5665998958       32.7765402021       14.1635996512
H         18.9026742055       28.1348740263        6.4672500795
H         18.6502604461       34.3889279829       14.4314751770
H         19.4247731257       35.0808700474       15.8699657978
H         20.1856071181       35.2561736283       14.2751564630
H         22.3564153435       34.2195143683       15.0994190744
H         21.6777508695       34.0442289310       16.7306529175
H         22.3549230465       32.6334244630       15.8894034396
H         18.1972190960       31.1997079575       19.4386145144
H         16.1337408893       33.9648575796       16.8340848427
H         16.1361474907       35.6639958429       18.6244319163
H         17.1425135104       37.2188783119       20.1890270956
H         15.5681284959       36.6119426677       20.7768030290
H         16.7860627224       37.2002439656       21.9309583795
    84
VM2 Rank=4      G=220.209           E=124.089           -TS=96.120              
C         21.3904350717       24.7000785618        5.0121715694
C         21.2866400159       23.7553255466        6.0536790876
C         21.4537548638       26.0689944258        5.3503728881
C         21.4319462209       24.2312558771        3.5767595804
C         21.2437983479       24.1650631210        7.3964772806
C         21.4123227779       26.4778391897        6.6937138651
C         21.5421784477       25.2577629870        2.4549331727
O         21.3793359609       23.0445833262        3.2944967043
C         21.3010489479       25.5307231507        7.7281844616
N         21.2586520865       25.9468021984        9.0886409314
C         22.1584647047       26.9730349597        9.6020303718
C         20.4243367987       25.4514074829       10.0729250734
C         21.7752154247       27.0862088592       11.0898202809
O         19.5622875003       24.5980929274        9.9508736715
O         20.7402411918       26.0806201731       11.2394997119
C         21.2789990088       28.4926139526       11.4841794475
N         20.1957759379       28.5201168587       12.3359075514
O         21.7727054786       29.5166005715       11.0415700412
C         19.3024576331       29.6762870205       12.4940716834
C         19.0709696254       29.9688631569       14.0032450369
C         17.9912209496       29.4449419272       11.6962465737
O         18.4286912010       28.8525261973       14.6281204790
C         18.2450677312       31.2642073074       14.2275443924
C         18.2334921538       29.0754414144       10.2371435721
N         18.3105385772       31.8197702364       15.6069974905
C         17.9392409345       27.7795913899        9.7735914573
C         18.7623374975       30.0240458169        9.3428529196
C         19.6545887749       32.2233229652       16.1018917537
S         17.2438950399       31.1473505592       16.7602755271
C         18.1646801279       27.4378304924        8.4298545894
C         18.9919473945       29.6823407501        7.9996250203
C         20.4147683031       33.2126818331       15.1810995931
O         15.9186745775       31.2297881540       16.1349561649
C         17.2321585506       32.3692146681       18.0930047025
O         17.8262627644       29.8675434491       17.1842704540
C         18.6888289597       28.3901644072        7.5418711251
C         19.6193416902       34.5229055047       14.9800913062
C         21.8024521198       33.5292810922       15.7772823525
C         16.6337881274       33.6271289108       17.8902559305
C         17.8414635471       32.0833438577       19.3301392747
C         16.6427767281       34.5860103412       18.9146320611
C         17.8501054444       33.0437144426       20.3565826092
C         17.2497185116       34.3046978210       20.1560327162
F         16.0616110305       35.7852968142       18.6877931702
O         17.2394633715       35.2767932586       21.1410410105
C         17.8343198469       35.0967920423       22.4412513430
H         21.2388025512       22.6939550785        5.8223654262
H         21.5347372090       26.8298439120        4.5798304831
H         21.1675174710       23.4140622295        8.1786780924
H         21.4572085109       27.5385759130        6.9240233250
H         21.5583841022       24.7508273187        1.4830685526
H         20.6837223597       25.9382141876        2.4843296659
H         22.4655971733       25.8370659647        2.5668213728
H         21.9982788277       27.9235447489        9.0773645574
H         23.2032526224       26.6574047293        9.4893509173
H         22.6327731581       26.8434591536       11.7290120454
H         19.8602149109       27.6227212376       12.6647842135
H         19.7998269385       30.5582974821       12.0671140233
H         20.0662225212       30.1085293018       14.4444437851
H         17.4047396262       28.6575617384       12.1866633895
H         17.3716998113       30.3486132843       11.7338866141
H         18.3845654058       29.0385841764       15.5957346454
H         18.5970714958       32.0230787705       13.5186782278
H         17.1995774932       31.0657302863       13.9573663499
H         17.5386709028       27.0339024088       10.4553527806
H         19.0008098294       31.0253966155        9.6908440996
H         19.5629316377       32.7078082341       17.0818827237
H         20.2729846449       31.3295246856       16.2594036463
H         17.9369308297       26.4341867005        8.0788263632
H         19.4020614111       30.4196115741        7.3141322269
H         20.5804275565       32.7454382880       14.2008159212
H         18.8617393941       28.1261549389        6.5016226960
H         18.6479831871       34.3315319278       14.5073310295
H         19.4345575175       35.0239291416       15.9390504587
H         20.1698079206       35.2191635109       14.3346429617
H         22.3653466519       34.2048643141       15.1203583472
H         21.7128179142       34.0101760493       16.7600358596
H         22.3954116605       32.6136964249       15.8994946000
H         16.1661405561       33.8631403827       16.9380859899
H         18.3113377956       31.1162220952       19.4955965158
H         18.3266730671       32.7974573036       21.3003629977
H         17.6994778257       36.0035203170       23.0444533322
H         17.3627561340       34.2591614634       22.9713264576
H         18.9108024686       34.9013842132       22.3519131682
    84
VM2 Rank=5      G=220.235           E=123.473           -TS=96.762              
C         19.8644436026       25.0108780765        5.6570381013
C         19.9537978958       24.0993365243        6.7310596920
C         20.1433620793       26.3703992576        5.9054736256
C         19.4823966212       24.5669601998        4.2645964892
C         20.3091596494       24.5396965189        8.0170301903
C         20.4998320246       26.8095250079        7.1909523841
C         19.1812967047       23.0956483158        4.0020781743
O         19.4083195110       25.3633545404        3.3421601524
C         20.5799416898       25.8986446790        8.2600418959
N         20.9409766599       26.3426434437        9.5633801923
C         22.0319487372       27.2871359197        9.7734155556
C         20.3616277560       25.9490012141       10.7549997358
C         22.0809474900       27.4572174705       11.3036627021
O         19.4263064837       25.1814652707       10.9042479438
O         21.0342636235       26.5658006291       11.7667861264
C         21.8500711179       28.9119960082       11.7616192838
N         21.0494790078       29.0616807153       12.8734140084
O         22.2999885823       29.8739413657       11.1612158821
C         20.3470000812       30.3047654897       13.2204344906
C         20.5554052717       30.6275401075       14.7270299211
C         18.8533407764       30.2010952826       12.8072501944
O         19.9979763440       29.5839023300       15.5316799648
C         19.9516165340       32.0025702380       15.1190856038
C         18.6565791008       29.7730612424       11.3574171184
N         20.3304158652       32.4922639309       16.4751160219
C         19.0251041981       30.6330070064       10.3067492299
C         18.1111608979       28.5110136328       11.0567736511
C         21.7770316409       32.7273486170       16.7177596014
S         19.4645301433       31.9200789345       17.8356062433
C         18.8482700573       30.2371502297        8.9704362057
C         17.9298429503       28.1157581131        9.7210715552
C         22.4758705696       33.6495273019       15.6841379638
O         20.0048056382       30.5897828596       18.1449650392
C         17.7487575080       31.8173969924       17.2679011372
O         19.5109812302       33.0297115773       18.7952733229
C         18.2961142802       28.9799949306        8.6774797926
C         21.8145661325       35.0456304594       15.6287024981
C         23.9727652575       33.7929371960       16.0309234955
C         16.9964393818       32.9931899153       17.0840271008
C         17.1624591658       30.5698833627       16.9772010676
C         15.6763622226       32.9207223331       16.6135587953
C         15.8413263774       30.4972745234       16.5035025349
C         15.0870540241       31.6745759013       16.3167651983
F         14.9829485949       34.0686503641       16.4435107805
O         13.7851980213       31.6445402742       15.8483305063
C         13.1009184981       30.4303016967       15.4821388300
H         19.7502218190       23.0429495209        6.5833215497
H         20.0829767298       27.0944828052        5.0965607285
H         20.3749111491       23.8162052857        8.8257096322
H         20.7032546102       27.8645345872        7.3511841728
H         18.3389363259       22.7693515453        4.6223882746
H         18.9215209959       22.9484563725        2.9472713785
H         20.0605044589       22.4856137072        4.2380062419
H         21.8161546383       28.2409218074        9.2752144180
H         22.9751207282       26.8741736503        9.3942213627
H         23.0525135193       27.1338347196       11.6965719541
H         20.7318903656       28.2080771871       13.3167646935
H         20.7954946321       31.1278191110       12.6468163329
H         21.6406183292       30.6688838095       14.8894553029
H         18.3421031211       29.4955017741       13.4745042998
H         18.3596584057       31.1681096758       12.9572563982
H         20.2690011984       29.7497563470       16.4647050674
H         20.2752973218       32.7365316309       14.3715334251
H         18.8621714839       31.9520628335       15.0187823834
H         19.4544534376       31.6066864797       10.5264094247
H         17.8302107167       27.8328149060       11.8582511215
H         21.9025806273       33.1877738138       17.7077305027
H         22.3042713835       31.7646087907       16.7556397017
H         19.1365774206       30.9057106668        8.1632537046
H         17.5097327733       27.1384597888        9.4958093461
H         22.4161020167       33.1908636304       14.6878453724
H         18.1544550980       28.6745948711        7.6438241835
H         22.3222072344       35.6905125562       14.9001488801
H         20.7606012494       34.9766554481       15.3322563474
H         21.8567561880       35.5406194383       16.6074155953
H         24.1095049471       34.2558577220       17.0168669873
H         24.4683103396       32.8136002840       16.0435656420
H         24.4881091223       34.4171996920       15.2896299315
H         17.4362754389       33.9634055083       17.2990962752
H         17.7333491747       29.6537484536       17.1107057412
H         15.4170955149       29.5225980457       16.2835524343
H         13.6324567355       29.9148698138       14.6716732891
H         13.0220390087       29.7541836231       16.3432872730
H         12.0862618158       30.6616550840       15.1341203205
    84
VM2 Rank=6      G=220.243           E=123.839           -TS=96.405              
C         22.2127497699       25.2316572206        5.4912170739
C         22.5697536118       24.5180316763        6.6555747081
C         21.5856214308       26.4857902613        5.6383244588
C         22.4851500043       24.6881114758        4.1083790747
C         22.3020480652       25.0457106557        7.9298589011
C         21.3197740739       27.0132519593        6.9124508041
C         23.1627107621       23.3309608737        3.9554583453
O         22.1726516908       25.3133929408        3.1073904183
C         21.6699545253       26.2946522555        8.0701073133
N         21.3998060105       26.8288088600        9.3615247744
C         21.6487978349       28.2315456443        9.6735235730
C         20.9130994280       26.1343029409       10.4535276834
C         21.3032812078       28.3396591602       11.1687534323
O         20.5990395767       24.9574403235       10.5026276796
O         20.8362417054       27.0060743382       11.4987106019
C         20.2561849677       29.4321972386       11.4589756574
N         19.1004946979       29.0009324140       12.0732447684
O         20.4073343392       30.5926847828       11.1175855630
C         17.8145877182       29.7106371310       11.9726717608
C         17.4014253749       30.3355128600       13.3352947512
C         16.7528598801       28.7355398510       11.4043921327
O         16.1020787351       30.9214003252       13.2295972424
C         18.4159697933       31.4169535763       13.8017363849
C         17.2002482386       28.0609246713       10.1119807341
N         18.3382822898       31.7694589973       15.2455245528
C         17.4722403087       26.6803809218       10.0860062814
C         17.3617548043       28.8178481930        8.9369503431
C         18.5901103465       30.6673043788       16.2135760578
S         17.1672422891       32.9300130219       15.6923877067
C         17.8936004240       26.0625692518        8.8968698216
C         17.7869388922       28.2016443620        7.7481926994
C         19.9034158370       29.8765851057       15.9747105280
O         17.4302520918       34.0808670277       14.8204147479
C         17.6802302144       33.4413971122       17.3492083413
O         15.8694385016       32.2425152434       15.7039692927
C         18.0497345625       26.8226599582        7.7273367863
C         21.1423191722       30.7975984271       16.0542970594
C         20.0305661972       28.7379577163       17.0083215238
C         16.9229859322       33.0683803392       18.4759105786
C         18.8561232453       34.1961668903       17.5242362644
C         17.3373254329       33.4502821407       19.7612471596
C         19.2716353504       34.5778882342       18.8115220901
C         18.5134392938       34.2071356697       19.9420508390
F         16.5892706762       33.0757096481       20.8231267334
O         18.8897481711       34.5619658584       21.2257158821
C         20.0744825247       35.3264980657       21.5235168736
H         23.0570577481       23.5499568215        6.5879451539
H         21.2997395749       27.0573402244        4.7586256900
H         22.5910340698       24.4773632370        8.8102821473
H         20.8280779126       27.9786232589        6.9926196999
H         22.5531591018       22.5527286086        4.4283504291
H         23.2825816007       23.0892899818        2.8929176162
H         24.1516071194       23.3508619953        4.4271531703
H         20.9960390454       28.8793618409        9.0739921558
H         22.6999101720       28.4888225951        9.4917212849
H         22.2028564495       28.5753584673       11.7504907362
H         19.0797302045       28.0139961548       12.2995435430
H         17.9205981761       30.5356225137       11.2540654055
H         17.3791140001       29.5191053929       14.0682407019
H         16.5127852682       27.9810554710       12.1640292586
H         15.8194255092       29.2816138541       11.2178721982
H         15.8427488177       31.2305159348       14.1302110514
H         19.4312913769       31.0705207063       13.5827441613
H         18.2773126362       32.3140187098       13.1836716916
H         17.3604198964       26.0840550443       10.9875514869
H         17.1593500977       29.8855104868        8.9464420063
H         18.6409580830       31.0688820669       17.2331801694
H         17.7435943827       29.9677525673       16.2005164473
H         18.1055200766       24.9961698705        8.8843170590
H         17.9099920494       28.7920282294        6.8437785112
H         19.8734564556       29.4103368308       14.9806213057
H         18.3778301118       26.3440980032        6.8079304128
H         21.1028650100       31.5861734304       15.2925369762
H         21.2119377776       31.2814858046       17.0369650645
H         22.0650449564       30.2263499828       15.8914656889
H         20.9401697701       28.1495308221       16.8318525457
H         20.0763933645       29.1330236428       18.0314917598
H         19.1745388775       28.0537853311       16.9458589330
H         16.0159637570       32.4815223250       18.3584847336
H         19.4503592540       34.4827872420       16.6591518794
H         20.1826213292       35.1586821845       18.9173126688
H         20.1596898572       35.4800056487       22.6067359184
H         20.9735876001       34.7985118071       21.1802513761
H         20.0328627013       36.3110902123       21.0399655120
    84
VM2 Rank=7      G=220.246           E=123.854           -TS=96.393              
C         22.0726156877       25.5708491625        5.2673258218
C         22.8336729470       25.1153030878        6.3633789978
C         21.1209664689       26.5898358448        5.4870429578
C         22.2910144423       24.9659926810        3.9004551716
C         22.6481848696       25.6590117523        7.6451023744
C         20.9372321344       27.1342323016        6.7689232085
C         21.4633185511       25.4612142843        2.7197570326
O         23.1186125490       24.0867250061        3.7199297278
C         21.6940836461       26.6698170397        7.8603649841
N         21.5052886992       27.2229299239        9.1581808923
C         21.3588410298       28.6598153899        9.3603805181
C         21.4597368779       26.5251130932       10.3509175844
C         21.2663717698       28.8055783999       10.8890957321
O         21.5398511172       25.3187191538       10.5065726806
O         21.3028113126       27.4322932391       11.3562638318
C         19.9999511650       29.5598337981       11.3380480031
N         19.1619479103       28.8657783947       12.1836112573
O         19.7209508075       30.6740839933       10.9297205577
C         17.7227224346       29.1480044753       12.3113814357
C         17.3826147434       29.7531566040       13.7028120346
C         16.9334757379       27.8505173633       12.0038192438
O         15.9684327058       29.9148065089       13.8321204146
C         18.0782887536       31.1266955590       13.9167450279
C         17.3320386404       27.2159559447       10.6756501664
N         18.1457497409       31.5826206820       15.3317918226
C         18.0122450151       25.9842035469       10.6501374792
C         17.0374125652       27.8662825092        9.4632243110
C         18.8873893561       30.7055331974       16.2783080721
S         16.7702659938       32.3860187472       15.9484632853
C         18.3867308844       25.4058112183        9.4260075454
C         17.4149448351       27.2905487189        8.2386223674
C         20.3194419650       30.3191463531       15.8234172750
O         16.5100650081       33.4684203622       14.9920803873
C         17.3823559334       33.1927565762       17.4464464924
O         15.7705761810       31.3516591341       16.2448550054
C         18.0869285169       26.0579938070        8.2199046217
C         21.2072626732       31.5685792476       15.6228856855
C         20.9675239936       29.3775504412       16.8599344399
C         18.2768832488       34.2752470001       17.3484999518
C         16.9909927984       32.7305520408       18.7179466283
C         18.7710402071       34.8894204771       18.5093192964
C         17.4856849003       33.3460098520       19.8809026005
C         18.3811731395       34.4321337767       19.7850446736
F         19.6300701357       35.9253988882       18.3815326138
O         18.8913420652       35.0628647404       20.9063075218
C         18.5638958420       34.6739856820       22.2547682669
H         23.5758183862       24.3332073299        6.2225529642
H         20.5135970412       26.9700340866        4.6711261885
H         23.2521737162       25.2908134282        8.4704608460
H         20.1919840624       27.9119984560        6.9100901093
H         21.6383191698       26.5314634802        2.5624166270
H         21.7462576388       24.9191721397        1.8098661340
H         20.3976828278       25.2946472371        2.9134150182
H         20.4427136694       29.0237086113        8.8771909226
H         22.2293697843       29.1979712189        8.9645892876
H         22.1358307952       29.3540090564       11.2718130111
H         19.4886202132       27.9440789524       12.4471120904
H         17.4391282054       29.8921367926       11.5536960159
H         17.7430061863       29.0428280071       14.4576553869
H         17.0780343146       27.1371449449       12.8248761756
H         15.8590976057       28.0733323172       11.9851843276
H         15.7884890412       30.2218694814       14.7525642016
H         19.0972883427       31.0751504236       13.5194608516
H         17.5653260713       31.8765876103       13.2999167136
H         18.2544223743       25.4740484128       11.5785694224
H         16.5168571389       28.8201822737        9.4710228234
H         18.9851696661       31.2026749042       17.2513324542
H         18.3093200904       29.7892393083       16.4582111322
H         18.9151563548       24.4556071400        9.4132944289
H         17.1843870168       27.7980615403        7.3053931719
H         20.2651762855       29.7687171238       14.8744029304
H         18.3787200133       25.6104686540        7.2730877241
H         20.7960919633       32.2304952292       14.8505510439
H         21.2913066135       32.1465299995       16.5521739600
H         22.2191148140       31.2826042776       15.3088150753
H         21.9700828134       29.0700597364       16.5357534920
H         21.0635915909       29.8680018964       17.8373197705
H         20.3675588754       28.4681208966       16.9931826085
H         18.5923631153       34.6374607776       16.3736565312
H         16.3042267923       31.8913717523       18.8051086595
H         17.1678311320       32.9698599004       20.8483512426
H         19.0896894864       35.3194504094       22.9696858496
H         17.4853798029       34.7697109687       22.4353635268
H         18.8661829739       33.6357409689       22.4435784614
    84
VM2 Rank=8      G=220.251           E=123.846           -TS=96.405              
C         22.0279386751       25.6216072548        5.2241273671
C         21.0346936278       26.5936750419        5.4614780044
C         22.8460939932       25.2196254240        6.3018418591
C         22.1918670855       25.0409529607        3.8392634249
C         20.8605891115       27.1484925856        6.7398199209
C         22.6702457219       25.7740205390        7.5807572396
C         23.2670544100       23.9894986731        3.5887632572
O         21.4792210417       25.3956392350        2.9135511053
C         21.6729616008       26.7387177026        7.8128102379
N         21.4959925589       27.3003113859        9.1087054468
C         21.2803284831       28.7303995395        9.2967297966
C         21.5244275084       26.6187470867       10.3113454824
C         21.2298108389       28.8938539324       10.8256246467
O         21.6723701870       25.4205463808       10.4801017845
O         21.3522288590       27.5313019391       11.3092783626
C         19.9413958055       29.5888197128       11.3065486324
N         19.1694052951       28.8659086815       12.1899237424
O         19.5913213953       30.6806105403       10.8923543034
C         17.7225880190       29.0756272587       12.3633309806
C         17.3987576434       29.6798535278       13.7590080614
C         16.9915720361       27.7356479619       12.0967166225
O         15.9833250350       29.7684841942       13.9362927572
C         18.0273688561       31.0908239225       13.9332419744
C         17.3793368703       27.1048415371       10.7635571056
N         18.1250927924       31.5648740014       15.3405433719
C         18.1197495629       25.9085047188       10.7299391456
C         17.0143241814       27.7241681917        9.5540505445
C         18.9505714008       30.7398549383       16.2642648182
S         16.7322645690       32.2979159337       16.0042179928
C         18.4844057687       25.3341659718        9.5009399623
C         17.3819131977       27.1526551690        8.3244609971
C         20.3823930003       30.4264507320       15.7556422933
O         16.3777230872       33.3565067980       15.0515139148
C         17.3554976366       33.1491311254       17.4727312428
O         15.8022040824       31.2135847232       16.3453362014
C         18.1144137593       25.9552265882        8.2978962476
C         21.1921069075       31.7197387778       15.5080623995
C         21.1215362903       29.5331141657       16.7737719064
C         18.1842003622       34.2785533973       17.3340752623
C         17.0393915585       32.6760151393       18.7610489261
C         18.6876685154       34.9281323994       18.4713886702
C         17.5434401752       33.3268921242       19.9004609073
C         18.3730037480       34.4599858466       19.7638320509
F         19.4824114161       36.0089029961       18.3045594189
O         18.8900980021       35.1265992945       20.8609038641
C         18.6376953273       34.7300199496       22.2231877463
H         20.3902039277       26.9220717758        4.6496553694
H         23.6250522015       24.4759753705        6.1625011370
H         20.0811667782       27.8896615476        6.8924875364
H         23.3165622570       25.4497591914        8.3924256709
H         23.0884286394       23.1130866058        4.2218680261
H         23.2480504649       23.6766168701        2.5382823090
H         24.2558225760       24.4033898189        3.8164501392
H         20.3309820635       29.0383305000        8.8394328567
H         22.1077868920       29.3076203316        8.8652077602
H         22.0817638362       29.4915852915       11.1721817416
H         19.5522486680       27.9665070187       12.4548524397
H         17.3757994439       29.7947722975       11.6078149381
H         17.8221238810       28.9991801104       14.5084479046
H         17.1990231231       27.0414248884       12.9207004246
H         15.9071224152       27.9031435905       12.1108584560
H         15.8195783207       30.0748942612       14.8599934859
H         19.0313346245       31.0897053184       13.4963159217
H         17.4510151214       31.8055281136       13.3307711900
H         18.4164619269       25.4229774318       11.6557457167
H         16.4468487213       28.6508512320        9.5679116612
H         19.0597689570       31.2524072878       17.2280219266
H         18.4309831602       29.7956721211       16.4755978428
H         19.0595225360       24.4115876574        9.4818457013
H         17.0969855416       27.6361535269        7.3934900394
H         20.3205939850       29.8631365509       14.8147088435
H         18.3987234455       25.5110954892        7.3471643487
H         21.2813972021       32.3118703152       16.4278840441
H         22.2047552845       31.4853964134       15.1560807211
H         20.7150916015       32.3496700062       14.7469208761
H         22.1256992560       29.2766968927       16.4122837258
H         21.2294700223       30.0390788276       17.7419671898
H         20.5778364521       28.5941062585       16.9393872324
H         18.4415395230       34.6499748528       16.3457088094
H         16.4040917964       31.8008991710       18.8795170543
H         17.2842796798       32.9413319318       20.8816112629
H         17.5633619125       34.7667640951       22.4455188440
H         19.0047969258       33.7116713228       22.4053527016
H         19.1539333677       35.4090616451       22.9135438183
    84
VM2 Rank=9      G=220.254           E=123.487           -TS=96.767              
C         19.8154827924       25.1744360719        5.5950880874
C         19.7694710615       24.2397326784        6.6517824263
C         20.2005302683       26.4989799079        5.8868409681
C         19.4666910104       24.7910913288        4.1761777333
C         20.0967464124       24.6238019026        7.9630002402
C         20.5288402005       26.8817259633        7.1975978318
C         19.0503020319       23.3574681259        3.8668520567
O         19.5101685297       25.6070593445        3.2690244495
C         20.4738082955       25.9486411577        8.2489961130
N         20.8062276943       26.3355284389        9.5779497357
C         21.9628638422       27.1770647172        9.8615579879
C         20.1362665882       25.9723253189       10.7311501236
C         21.9523531514       27.3107985399       11.3961296526
O         19.1313535408       25.2876041220       10.8178082557
O         20.8087698203       26.5086926921       11.7878569725
C         21.8312217525       28.7708221214       11.8787789240
N         20.9934823745       28.9699675255       12.9548535754
O         22.3948798405       29.6998688500       11.3243267424
C         20.3877723076       30.2640379694       13.2978199313
C         20.5471823183       30.5355463390       14.8204327038
C         18.9136449611       30.3038191764       12.8097658747
O         19.8588216871       29.5300175015       15.5702746540
C         20.0497785309       31.9511670464       15.2172591305
C         18.7529312388       29.9221866753       11.3426130769
N         20.3904139509       32.3707865751       16.6064450170
C         18.1099953181       28.7218786550       10.9869149214
C         19.2523006106       30.7629048693       10.3311437695
C         21.8354470060       32.4654280457       16.9375278443
S         19.3975353630       31.8483504751       17.8985942710
C         17.9618448777       28.3692288954        9.6352888343
C         19.1086025393       30.4092440333        8.9791151818
C         22.6745777936       33.3456049057       15.9740631505
O         19.8041063763       30.4711033197       18.2070662983
C         17.7167433174       31.8998412332       17.2281310785
O         19.4781050179       32.9313269983       18.8860345094
C         18.4590328465       29.2142819721        8.6308833667
C         22.1461406491       34.7974090409       15.9240500202
C         24.1550857356       33.3422798637       16.4095118520
C         17.0463450024       30.7099151663       16.8846285541
C         17.0784856330       33.1375034688       17.0170361493
C         15.7566863159       30.7598455609       16.3340074888
C         15.7860296070       33.1877391243       16.4669820588
C         15.1146824017       31.9967106169       16.1192991667
F         15.1425048685       29.5999951548       16.0100082430
O         13.8437655339       32.0045687129       15.5716600031
C         13.1049789843       33.2106697980       15.2956709738
H         19.4811459330       23.2085219184        6.4709628888
H         20.2454485236       27.2397258915        5.0921335368
H         20.0573289208       23.8830812614        8.7576674059
H         20.8164381463       27.9113161936        7.3907734391
H         18.8319693016       23.2527948813        2.7976742161
H         19.8591399839       22.6672027808        4.1316655936
H         18.1522329911       23.0968372486        4.4381392360
H         21.8536472405       28.1561087702        9.3777657193
H         22.8844098267       26.6918773383        9.5162383936
H         22.8706908165       26.8923710957       11.8256276728
H         20.5789873497       28.1398463147       13.3612718465
H         20.9364420629       31.0547942895       12.7674740671
H         21.6220544705       30.4753448753       15.0369222648
H         18.3077240317       29.6353599097       13.4348124617
H         18.5016250546       31.3086717783       12.9574289348
H         20.0975175709       29.6493699715       16.5190386527
H         20.4834108765       32.6691481242       14.5110327126
H         18.9682934530       32.0055108300       15.0536100545
H         17.7269382206       28.0585926017       11.7580411102
H         19.7575048236       31.6883592395       10.5937126047
H         21.9432539338       32.8868166408       17.9467965152
H         22.2703523578       31.4575946322       16.9752834009
H         17.4656968194       27.4394561143        9.3675169565
H         19.4980984428       31.0625287305        8.2024911039
H         22.6329184500       32.9198107610       14.9623825664
H         18.3429028189       28.9420694340        7.5848497716
H         22.7521685496       35.4113659244       15.2457083809
H         21.1097331780       34.8328497045       15.5661539456
H         22.1744598087       35.2613779074       16.9183357477
H         24.2742308788       33.7655300585       17.4153646539
H         24.5587685620       32.3216173398       16.4202278955
H         24.7676425931       33.9352613456       15.7181772755
H         17.5237942599       29.7456534207       17.0354999881
H         17.5898027867       34.0626000687       17.2746796977
H         15.3191915329       34.1556903203       16.3135179728
H         12.1282002781       32.9614805892       14.8621015324
H         12.9351579032       33.7815276546       16.2177493162
H         13.6468086479       33.8423909860       14.5799036464
    84
VM2 Rank=10     G=220.256           E=123.505           -TS=96.751              
C         19.8560272390       24.9841774455        5.6793519442
C         19.9501962527       24.0782037405        6.7556305913
C         20.1342503625       26.3466144823        5.9214715986
C         19.4655450868       24.4819816992        4.3092256940
C         20.3089151425       24.5197608053        8.0398378847
C         20.4943567716       26.7871498559        7.2058667526
C         19.3635086547       25.4668799103        3.1499410792
O         19.2294601865       23.3009254195        4.1092368290
C         20.5790273391       25.8795165722        8.2776380327
N         20.9437545325       26.3278519623        9.5784232574
C         22.0358279271       27.2724250640        9.7823433913
C         20.3675789226       25.9382748380       10.7729069654
C         22.0865612122       27.4504435421       11.3116470379
O         19.4327744744       25.1711511970       10.9273513064
O         21.0430922553       26.5583774069       11.7807522703
C         21.8515009274       28.9068419416       11.7623929154
N         21.0525716720       29.0595576490       12.8749694340
O         22.2970651176       29.8671984252       11.1562258719
C         20.3480639969       30.3025180565       13.2182574654
C         20.5585010454       30.6316079689       14.7232213964
C         18.8538644575       30.1939134164       12.8082987405
O         20.0046788367       29.5899078542       15.5328592090
C         19.9527032291       32.0069793601       15.1109913975
C         18.6551886451       29.7610794155       11.3601718278
N         20.3308051099       32.5015782636       16.4654302309
C         19.0179781342       30.6194508528       10.3062319656
C         18.1132032213       28.4964155221       11.0643753162
C         21.7770820903       32.7394264310       16.7073158476
S         19.4655991678       31.9329009371       17.8278453063
C         18.8386549050       30.2195334376        8.9714602476
C         17.9294821525       28.0970380029        9.7302294970
C         22.4745334716       33.6595518347       15.6709338031
O         20.0088715266       30.6051203733       18.1427026557
C         17.7503309347       31.8236751578       17.2597830376
O         19.5090250601       33.0465160263       18.7830269861
C         18.2897918135       28.9598187091        8.6833616856
C         21.8111881078       35.0545147454       15.6113728160
C         23.9712286343       33.8061859403       16.0172281431
C         16.9951553732       32.9968382986       17.0708834205
C         17.1673701101       30.5735704971       16.9735251290
C         15.6756105671       32.9192134051       16.5997342074
C         15.8467874076       30.4957898526       16.4991247709
C         15.0896965600       31.6704487729       16.3072498075
F         14.9794373421       34.0647205924       16.4247113391
O         13.7883143813       31.6353076517       15.8378535241
C         13.1078396419       30.4180466671       15.4746073702
H         19.7441406647       23.0223739203        6.5973152522
H         20.0744224489       27.0780202750        5.1210648990
H         20.3775543183       23.7977702830        8.8495633499
H         20.6973944053       27.8426248846        7.3638280327
H         20.3322549014       25.9513823123        2.9838018139
H         19.0703079138       24.9395960115        2.2346420910
H         18.6113259711       26.2317686381        3.3735328430
H         21.8208449998       28.2237857450        9.2792225183
H         22.9781456398       26.8562574900        9.4045317596
H         23.0596745806       27.1322789520       11.7049851678
H         20.7385901661       28.2072416164       13.3233461333
H         20.7937334580       31.1242556712       12.6405638652
H         21.6439078773       30.6758122706       14.8836178775
H         18.3456449635       29.4891334724       13.4787135593
H         18.3580659889       31.1601468383       12.9562748505
H         20.2761819776       29.7603234077       16.4649143093
H         20.2752834100       32.7390073322       14.3610702981
H         18.8633458466       31.9546368395       15.0109256409
H         19.4445909226       31.5951663191       10.5221540666
H         17.8366577560       27.8194455366       11.8684232491
H         21.9020019979       33.2029489943       17.6959206484
H         22.3056861721       31.7775479899       16.7479974643
H         19.1223714720       30.8869854007        8.1617417963
H         17.5119829926       27.1177573154        9.5087363277
H         22.4153865805       33.1978464274       14.6760120361
H         18.1460095931       28.6513501932        7.6509584623
H         22.3178819882       35.6979805530       14.8809100138
H         20.7573247118       34.9831160869       15.3151395770
H         21.8526583740       35.5524572565       16.5886171215
H         24.1073230919       34.2722386584       17.0017837277
H         24.4682107444       32.8276195672       16.0327670713
H         24.4856286967       34.4289988924       15.2740623547
H         17.4323930878       33.9689903115       17.2824787870
H         17.7404720206       29.6594009507       17.1109564424
H         15.4251923766       29.5192002577       16.2826207199
H         13.6416501289       29.9017071202       14.6662145052
H         13.0299991838       29.7442736390       16.3376844300
H         12.0928835458       30.6454871513       15.1248882161
    84
VM2 Rank=11     G=220.271           E=124.037           -TS=96.234              
C         21.9965589672       24.8960179556        5.5804726276
C         21.8155795957       26.2675245700        5.8606314248
C         21.8618337363       23.9714972903        6.6365187392
C         22.3278316431       24.4036471638        4.1913407812
C         21.5067515909       26.6983064527        7.1615363722
C         21.5512946290       24.4029080836        7.9366308619
C         22.4692681650       25.4080153087        3.0530909215
O         22.4855114436       23.2153694501        3.9595083404
C         21.3657406552       25.7701394748        8.2094993376
N         21.0506160253       26.2094609711        9.5260086043
C         21.7024731480       27.3719894506       10.1182800807
C         20.1510274311       25.6211723912       10.3955464676
C         21.1214644309       27.4304092373       11.5415028990
O         19.4504880963       24.6453105127       10.1883352396
O         20.1725460037       26.3326188992       11.5582264639
C         20.4738444809       28.7922146927       11.8583356956
N         19.1192081818       28.7647102507       12.1093396962
O         21.0989119442       29.8383610346       11.8242956432
C         18.2327662071       29.9179845182       11.8874792395
C         17.8069995729       30.5866582372       13.2240943742
C         17.0230565486       29.4650757883       11.0334333192
O         16.9620757723       31.7096067437       12.9627113466
C         19.0367634741       31.0569774894       14.0466789246
C         17.4422007345       28.7683917817        9.7436852570
N         18.7282150524       31.8592189262       15.2660675919
C         17.2300597413       27.3870877910        9.5779530128
C         18.0617636722       29.4996496535        8.7136551452
C         19.9296357095       32.4733510733       15.8985057235
S         17.5670272565       31.1734752329       16.3275953604
C         17.6270138582       26.7457794899        8.3928567798
C         18.4620518127       28.8585335190        7.5294403777
C         20.7808017243       33.3844167817       14.9732574327
O         16.2734203741       31.5072501443       15.7176112903
C         17.6762501212       32.1243920658       17.8650081478
O         17.9956077499       29.7916177352       16.5731910747
C         18.2420608762       27.4813514513        7.3678703116
C         19.9265214698       34.4995115151       14.3271949012
C         21.9396993382       34.0133084028       15.7759237579
C         17.0562112659       33.3850735938       17.9611870928
C         18.3958826930       31.6223121632       18.9672066936
C         17.1547081961       34.1320065312       19.1450241227
C         18.4947189638       32.3707271672       20.1529237440
C         17.8738028382       33.6337326486       20.2508501632
F         16.5500535015       35.3396341602       19.2039923737
O         17.9498519413       34.4010662627       21.4000543991
C         18.6628293658       33.9911359432       22.5834478460
H         21.9098917051       27.0132995088        5.0770018624
H         21.9983999661       22.9090476242        6.4498933149
H         21.3641747300       27.7593162456        7.3463425160
H         21.4569052744       23.6677912881        8.7318030260
H         21.5307568240       25.9578746944        2.9201220494
H         23.2740895517       26.1171272623        3.2772226427
H         22.7082319034       24.8855019323        2.1194732242
H         21.4519010919       28.2811639941        9.5563863221
H         22.7910052642       27.2355220239       10.1420526403
H         21.9115233812       27.2548274467       12.2818828012
H         18.7025322295       27.8416448878       12.1101754548
H         18.7808075928       30.6728445554       11.3057247057
H         17.2549798096       29.8373000101       13.8078099573
H         16.3833117792       28.8050497929       11.6326921548
H         16.4057558339       30.3379671561       10.7855519227
H         16.5803372622       31.9658289299       13.8352785655
H         19.6194100423       30.1730227798       14.3375921228
H         19.6591068060       31.6358173123       13.3561953109
H         16.7599786881       26.8073541474       10.3677890138
H         18.2344575743       30.5659781901        8.8326520457
H         19.6304788428       33.1058743335       16.7417643718
H         20.5722939501       31.6803889675       16.3055007599
H         17.4641456350       25.6774700353        8.2725526011
H         18.9404788529       29.4289788190        6.7373912986
H         21.2341682039       32.7785124582       14.1770827719
H         18.5516997289       26.9835775324        6.4522976102
H         20.5439435358       35.1461226883       13.6908870854
H         19.1323695835       34.0782964726       13.6973596898
H         19.4529619917       35.1278581315       15.0922462361
H         22.5744159934       34.6307219388       15.1272910218
H         21.5629633362       34.6510157604       16.5861653114
H         22.5748864718       33.2368715833       16.2214569992
H         16.5015685284       33.7887026127       17.1182891143
H         18.8823351316       30.6513334794       18.9042562505
H         19.0561211683       31.9599667598       20.9863470598
H         19.7273318081       33.8397183915       22.3623370616
H         18.5802262899       34.7640754147       23.3580025522
H         18.2457930191       33.0582046359       22.9843135459
    84
VM2 Rank=12     G=220.280           E=123.522           -TS=96.758              
C         19.8061135629       25.1501737698        5.6115650335
C         19.7579728917       24.2200993256        6.6701738113
C         20.1953420738       26.4760929606        5.8991358391
C         19.4456855495       24.7113948008        4.2117489209
C         20.0858653263       24.6030121059        7.9811636698
C         20.5245436296       26.8578487293        7.2103646348
C         19.4975433689       25.7223189745        3.0717014454
O         19.1130368703       23.5612749052        3.9725898775
C         20.4669351117       25.9271295066        8.2639960079
N         20.8006865032       26.3159019069        9.5920217962
C         21.9612277425       27.1526250815        9.8739406401
C         20.1287748234       25.9584501817       10.7458710651
C         21.9490195826       27.2927146991       11.4079485468
O         19.1209449978       25.2782278977       10.8339555982
O         20.8033313647       26.4944748227       11.8014419886
C         21.8295938633       28.7549805769       11.8842967312
N         20.9914458368       28.9598088837       12.9589813601
O         22.3950150080       29.6808983281       11.3264172522
C         20.3885774252       30.2564114825       13.2973259856
C         20.5470750154       30.5320837479       14.8192959328
C         18.9150535299       30.2982292545       12.8076864399
O         19.8558722209       29.5302155000       15.5714164223
C         20.0522334120       31.9498764156       15.2115593829
C         18.7550745313       29.9143978270       11.3410384181
N         20.3931620686       32.3731245507       16.5995701397
C         18.1111577057       28.7142075650       10.9867325769
C         19.2557434948       30.7531991300       10.3286245090
C         21.8382539556       32.4663310741       16.9308081855
S         19.3990282488       31.8562188926       17.8929762094
C         17.9632270357       28.3598336630        9.6355317517
C         19.1121909864       30.3978616235        8.9770201304
C         22.6791614969       33.3421665065       15.9649406523
O         19.8029480192       30.4791023775       18.2054910518
C         17.7184708928       31.9089661119       17.2220290777
O         19.4813949414       32.9418632313       18.8773347088
C         18.4615291226       29.2030948029        8.6301702062
C         22.1531097204       34.7946701432       15.9102620893
C         24.1595051919       33.3377719056       16.4009381693
C         17.0457635648       30.7193061510       16.8821431498
C         17.0826882221       33.1472252547       17.0070046909
C         15.7562837079       30.7700727958       16.3311815391
C         15.7904099499       33.1983044903       16.4566070935
C         15.1167587164       32.0075301555       16.1125274092
F         15.1398429866       29.6104361636       16.0107302324
O         13.8459445350       32.0161948019       15.5646603503
C         13.1094611950       33.2228769251       15.2850792765
H         19.4643217647       23.1911249719        6.4770886046
H         20.2466831573       27.2241934055        5.1137090687
H         20.0437650840       23.8632022137        8.7764867523
H         20.8154189980       27.8866981199        7.4028522774
H         19.2066749695       25.2413426016        2.1305198513
H         18.8081866114       26.5499115274        3.2734523464
H         20.5143941397       26.1171981961        2.9673153034
H         21.8582089792       28.1301784675        9.3858322343
H         22.8806829898       26.6609668308        9.5322199040
H         22.8660468325       26.8745994134       11.8405377783
H         20.5753761148       28.1320388259       13.3685794747
H         20.9397248549       31.0442163755       12.7651584700
H         21.6216090638       30.4702470810       15.0369953425
H         18.3071738511       29.6320996641       13.4333212088
H         18.5048558986       31.3041496032       12.9531012516
H         20.0943305946       29.6515623957       16.5199901918
H         20.4874468568       32.6648579753       14.5032667292
H         18.9708988356       32.0057379593       15.0474062699
H         17.7270562367       28.0524089615       11.7586203738
H         19.7616736103       31.6785558376       10.5901364436
H         21.9464658707       32.8906038506       17.9388240395
H         22.2714535741       31.4578890057       16.9717667447
H         17.4662437668       27.4301865984        9.3688599222
H         19.5025636259       31.0497599039        8.1996757697
H         22.6371700110       32.9133182998       14.9545649858
H         18.3453380408       28.9296943884        7.5844986681
H         22.7604336998       35.4055719779       15.2303236377
H         21.1169192739       34.8307055670       15.5517981100
H         22.1817427821       35.2616212536       16.9031415192
H         24.2789762839       33.7639264819       17.4055250707
H         24.5615193331       32.3164909842       16.4149508067
H         24.7732786380       33.9276204121       15.7080044273
H         17.5212691003       29.7545740312       17.0361125387
H         17.5957905465       34.0721030786       17.2618697989
H         15.3255028628       34.1666929353       16.3000743572
H         13.6526252279       33.8515613421       14.5676518917
H         12.1323226481       32.9742724749       14.8519841121
H         12.9404882319       33.7966569985       16.2054986057
    84
VM2 Rank=13     G=220.305           E=124.050           -TS=96.255              
C         21.9985599664       24.8929246482        5.6017961646
C         21.8223056671       23.9696989381        6.6549269525
C         21.8435288230       26.2663726717        5.8800079401
C         22.3456514498       24.4471233620        4.2008531726
C         21.4964575963       24.4114690764        7.9482069867
C         21.5193869302       26.7072399938        7.1733820950
C         22.5106549839       22.9605502579        3.9055611272
O         22.4963243594       25.2537336509        3.2968148188
C         21.3366767911       25.7828246057        8.2179492116
N         21.0058119561       26.2294717399        9.5281902983
C         21.6699799726       27.3788860795       10.1323162465
C         20.0778281972       25.6606370299       10.3806983932
C         21.0638594392       27.4499544669       11.5444557484
O         19.3613458829       24.6992717502       10.1605871714
O         20.0922148338       26.3721128904       11.5434585666
C         20.4388000680       28.8249808617       11.8493274513
N         19.0796169577       28.8253910047       12.0760589624
O         21.0856934669       29.8580799401       11.8263357013
C         18.2210936445       29.9963910704       11.8379067301
C         17.7837315337       30.6733590688       13.1665409262
C         17.0189868627       29.5681952481       10.9606877274
O         16.9662586563       31.8128888477       12.8899187775
C         19.0070627532       31.1191869297       14.0120746024
C         17.4485696586       28.8627718094        9.6791466644
N         18.6908252100       31.9271100386       15.2256835185
C         17.2097046232       27.4864562911        9.5083184281
C         18.1047345068       29.5804726743        8.6623318424
C         19.8903948008       32.5202456011       15.8811878988
S         17.4958762734       31.2638898911       16.2638397047
C         17.6165915242       26.8367842206        8.3311667015
C         18.5150075884       28.9308995556        7.4861810455
C         20.7785138301       33.4114514210       14.9714532286
O         16.2212309672       31.6307327666       15.6332743199
C         17.6031583690       32.2010318754       17.8098815204
O         17.8879497392       29.8712011109       16.5092263565
C         18.2683820028       27.5588703512        7.3193753235
C         19.9601849623       34.5413762959       14.3049329790
C         21.9327612126       34.0196687784       15.7964428527
C         18.2925194743       31.6717418764       18.9180178840
C         17.0128057714       33.4762859673       17.9081615110
C         18.3879186692       32.4097307434       20.1078595421
C         17.1090462938       34.2156226316       19.0996463802
C         17.7988535858       33.6867390240       20.2107496637
F         19.0584475228       31.8743565466       21.1524566634
O         17.9171603217       34.3841266557       21.4002445435
C         17.3605323003       35.6966897414       21.6103656556
H         21.9349968668       22.9030755136        6.4851752771
H         21.9731715114       26.9997371158        5.0877833890
H         21.3696709003       23.6798822817        8.7421804642
H         21.3978600597       27.7715272689        7.3540250268
H         22.7585014450       22.8135980670        2.8478548751
H         23.3177442891       22.5442777060        4.5188566551
H         21.5783690713       22.4290292230        4.1272727362
H         21.4483532706       28.2926040329        9.5656408875
H         22.7548961320       27.2204395276       10.1763704043
H         21.8361554291       27.2582358506       12.2994303697
H         18.6441896490       27.9110414948       12.0696363457
H         18.7952814681       30.7400806885       11.2670927044
H         17.2061110105       29.9350873187       13.7395089730
H         16.3544686272       28.9215396427       11.5474304372
H         16.4245984405       30.4535043266       10.7011219230
H         16.5752322305       32.0783355532       13.7556052921
H         19.5667073544       30.2239676098       14.3135079221
H         19.6534519980       31.6857884958       13.3336421090
H         16.7111762401       26.9170062729       10.2881269944
H         18.2982863290       30.6427449290        8.7854312032
H         19.5853438838       33.1616643791       16.7156444848
H         20.5089308294       31.7165534554       16.3041854028
H         17.4329743906       25.7722961407        8.2069711652
H         19.0219543124       29.4907814556        6.7043902821
H         21.2362075750       32.7942529431       14.1865013869
H         18.5859358612       27.0546062180        6.4100334045
H         20.6033597201       35.1735558174       13.6797320755
H         19.1707727163       34.1342268605       13.6600804045
H         19.4837466695       35.1813856557       15.0584241560
H         22.5928666138       34.6225577736       15.1595941232
H         21.5520125594       34.6670299651       16.5970968616
H         22.5431046405       33.2321528769       16.2570067687
H         18.7572204315       30.6912256958       18.8592188382
H         16.4818531184       33.8964925297       17.0566176017
H         16.6455986434       35.1961671209       19.1466011129
H         17.7882476540       36.4176753134       20.9016853077
H         16.2698590107       35.6800949942       21.4873511802
H         17.5854532881       36.0413105208       22.6276359127
    84
VM2 Rank=14     G=220.320           E=124.078           -TS=96.242              
C         22.0000908890       24.9044265660        5.5733019936
C         21.8466912349       23.9755922456        6.6250819423
C         21.8308636003       26.2749053117        5.8578525302
C         22.3378299859       24.4676260905        4.1672449300
C         21.5293355526       24.4089865355        7.9232966352
C         21.5152776955       26.7074245526        7.1561557717
C         22.5191369902       22.9842865490        3.8653133337
O         22.4682036640       25.2789893432        3.2643054702
C         21.3555003328       25.7773458127        8.1994390445
N         21.0338177652       26.2155160353        9.5147857544
C         21.6912785605       27.3703923164       10.1157668454
C         20.1221359924       25.6327598849       10.3754240372
C         21.1022715307       27.4274730578       11.5357451585
O         19.4141972720       24.6641476689       10.1594783956
O         20.1414405628       26.3399872583       11.5407081864
C         20.4678121664       28.7944836641       11.8566816341
N         19.1117830522       28.7801215314       12.1010720886
O         21.1041527967       29.8340573644       11.8311846947
C         18.2386766405       29.9436253047       11.8797993295
C         17.8111881931       30.6092182846       13.2173572631
C         17.0302260677       29.5079026516       11.0150919962
O         16.9785707210       31.7415795237       12.9571069775
C         19.0405642340       31.0633063875       14.0495938561
C         17.4512023247       28.8123788243        9.7252896309
N         18.7323281169       31.8615792185       15.2716382000
C         17.2230667314       27.4346956964        9.5508406146
C         18.0890827160       29.5406906282        8.7043881982
C         19.9354469681       32.4615063249       15.9143774661
S         17.5585037576       31.1807054542       16.3223383754
C         17.6224659760       26.7941206997        8.3661635319
C         18.4919080145       28.9002352139        7.5206863312
C         20.8001362545       33.3698142972       14.9990100731
O         16.2717555147       31.5319157588       15.7076542412
C         17.6695654758       32.1195156186       17.8670501661
O         17.9716222520       29.7928740832       16.5606640749
C         18.2560765271       27.5267358123        7.3503980262
C         19.9596666392       34.4959442571       14.3539641567
C         21.9598629685       33.9840338252       15.8117746317
C         17.0607642713       33.3851584985       17.9696457568
C         18.3795946460       31.6028502545       18.9687398264
C         17.1608702017       34.1225820613       19.1592998932
C         18.4800430703       32.3417343404       20.1602798834
C         17.8703810514       33.6096947078       20.2646380017
F         16.5671464231       35.3353087878       19.2243721454
O         17.9483637455       34.3679558836       21.4197193355
C         18.6521008535       33.9428158134       22.6032795705
H         21.9708603954       22.9110294610        6.4504730410
H         21.9428277380       27.0124418590        5.0668052385
H         21.4202882826       23.6732879182        8.7161070791
H         21.3826092860       27.7695135824        7.3418528100
H         23.3379601420       22.5766704147        4.4687938886
H         21.5962431257       22.4398923770        4.0949374244
H         22.7578316621       22.8439620195        2.8046062532
H         21.4508710200       28.2837186234        9.5561443610
H         22.7785814868       27.2255077673       10.1453013053
H         21.8859257908       27.2389235285       12.2797344178
H         18.6854219408       27.8615028080       12.0949469242
H         18.7982659836       30.6960326054       11.3059219818
H         17.2485655351       29.8620592821       13.7937208221
H         16.3790335275       28.8522374651       11.6067557485
H         16.4243472832       30.3886442406       10.7667934625
H         16.5945331184       31.9971368651       13.8288570274
H         19.6131715577       30.1722946451       14.3389092346
H         19.6723605596       31.6400588290       13.3659825392
H         16.7387638466       26.8571500743       10.3336545027
H         18.2742887281       30.6041331001        8.8301894129
H         19.6369497282       33.0922433665       16.7592095282
H         20.5685781965       31.6606684654       16.3208811420
H         17.4472256670       25.7285532130        8.2391517895
H         18.9847327725       29.4683016592        6.7357738370
H         21.2527405672       32.7641048265       14.2022566226
H         18.5678878638       27.0295216473        6.4352062374
H         20.5865607120       35.1403158746       13.7246848300
H         19.1654456627       34.0852328844       13.7173160944
H         19.4873168813       35.1244937597       15.1195965442
H         22.6038558586       34.5991763029       15.1701653511
H         21.5840797426       34.6207818967       16.6232129814
H         22.5854708019       33.1995878488       16.2568307422
H         16.5136508008       33.7999894394       17.1272662185
H         18.8573423143       30.6278870381       18.9008855313
H         19.0339132691       31.9197895352       20.9931562849
H         18.5731111582       34.7108266688       23.3830953590
H         18.2246250080       33.0109006815       22.9954188800
H         19.7161567066       33.7831329797       22.3858638663
    84
VM2 Rank=15     G=220.325           E=123.933           -TS=96.391              
C         22.1994301975       25.3195765335        5.4344058519
C         21.4405562967       26.4999712026        5.5861715357
C         22.7147021918       24.6993223664        6.5910527877
C         22.4687912168       24.7146374835        4.0766959988
C         21.2041935031       27.0408194592        6.8609144607
C         22.4765098405       25.2398312967        7.8653927263
C         21.9068796518       25.3886907206        2.8299923324
O         23.1289108213       23.6947482377        3.9554951132
C         21.7142340828       26.4127787493        8.0120746710
N         21.4725902058       26.9627432071        9.3024451465
C         21.5793781641       28.3955916080        9.5524994353
C         21.1445931982       26.2605634758       10.4474351251
C         21.3255033049       28.5219642772       11.0645689325
O         20.9717037646       25.0586638926       10.5550250385
O         21.0392663766       27.1579137647       11.4681997497
C         20.1808987556       29.4991935511       11.3949861843
N         19.1269704627       28.9637559480       12.1031229247
O         20.1734262980       30.6552907108       11.0083316803
C         17.7640800977       29.5196846685       12.0749011296
C         17.3759532610       30.1436745445       13.4452776615
C         16.7854021387       28.4106225069       11.6131987492
O         16.0134193324       30.5743135942       13.4174218866
C         18.2881713040       31.3496222631       13.8057554890
C         17.2180309366       27.7434486206       10.3119367601
N         18.2727431551       31.7410741135       15.2414854344
C         17.6479991485       26.4034262468       10.3069204563
C         17.2071206620       28.4687227546        9.1063030929
C         18.7203383533       30.7096618725       16.2167912979
S         17.0084844729       32.7742650897       15.7435913786
C         18.0550511435       25.7934515994        9.1087947324
C         17.6176643462       27.8607589594        7.9081819167
C         20.0965097830       30.0666433719       15.9009290256
O         17.0741079202       33.9177801382       14.8259653679
C         17.5726836514       33.3961950921       17.3450496604
O         15.8036298390       31.9435828059       15.8676153099
C         18.0385570568       26.5213706215        7.9088889358
C         21.2218638405       31.1256899608       15.8624579522
C         20.4295553454       28.9871532059       16.9520042509
C         16.9445697927       32.9768426446       18.5331756722
C         18.6620400386       34.2858663036       17.4145388161
C         17.4004037521       33.4462292220       19.7747504809
C         19.1192123671       34.7552483568       18.6579801061
C         18.4901969402       34.3381123736       19.8499316826
F         16.7770855796       33.0241676407       20.8976117793
O         18.9114570182       34.7761312297       21.0933097416
C         20.0181303911       35.6792037143       21.2844215388
H         21.0251629300       27.0100026507        4.7221777347
H         23.3051162521       23.7904546969        6.5035486848
H         20.6099536293       27.9460880610        6.9481849782
H         22.8897612523       24.7420205058        8.7388904416
H         20.8133175216       25.4297066707        2.8871462008
H         22.3020354503       26.4072081932        2.7446226662
H         22.1932002044       24.8222805058        1.9361439832
H         20.8176353989       28.9423210459        8.9815150365
H         22.5793500627       28.7620632239        9.2882319743
H         22.2289281046       28.8806108820       11.5729041819
H         19.2357484746       27.9902699569       12.3603577432
H         17.7250318395       30.3242342441       11.3269615535
H         17.4985804415       29.3575390537       14.2010328791
H         16.6863657262       27.6624557537       12.4096726315
H         15.7847094820       28.8405696474       11.4788687833
H         15.7824543878       30.8836206327       14.3256738846
H         19.3187901174       31.1142341042       13.5207252740
H         18.0022040338       32.2028469657       13.1763179668
H         17.6702101804       25.8329073892       11.2315341068
H         16.8817859701       29.5055786632        9.0990900767
H         18.7969249913       31.1499288765       17.2186510338
H         17.9626004556       29.9177280329       16.2860815671
H         18.3894233048       24.7588172478        9.1122685323
H         17.6068718015       28.4265474220        6.9800587076
H         20.0500480798       29.5653138208       14.9247246120
H         18.3553392048       26.0489730870        6.9824063204
H         22.1909305376       30.6584864942       15.6459119576
H         21.0360880013       31.8772755961       15.0850966553
H         21.3047442703       31.6486339533       16.8238579724
H         21.3866696163       28.5009440401       16.7233106000
H         20.5021330980       29.4206256992       17.9579310084
H         19.6570558609       28.2076634087       16.9723965292
H         16.1060956345       32.2865180190       18.4972350269
H         19.1570066434       34.6095095515       16.5013569716
H         19.9615591760       35.4395527059       18.6822026024
H         20.1603150293       35.8775020256       22.3543043086
H         20.9459406298       35.2450322864       20.8898889914
H         19.8298708318       36.6360590663       20.7804798856
    84
VM2 Rank=16     G=220.354           E=124.621           -TS=95.733              
C         22.0212356821       24.6983362867        5.6159662397
C         21.9165244006       26.0806959745        5.8813008901
C         21.7847545554       23.7924647404        6.6702822959
C         22.3773100003       24.1751369443        4.2443461941
C         21.5826652989       26.5403029178        7.1660684144
C         21.4492835732       24.2527968640        7.9541761830
C         22.6291791097       25.1596050064        3.1077943552
O         22.4683601523       22.9774774065        4.0253950214
C         21.3400693975       25.6311242192        8.2120843003
N         21.0002461417       26.0997275695        9.5122654594
C         21.6996078274       27.2236439652       10.1245141516
C         20.0311685319       25.5757493741       10.3475915997
C         21.0690602863       27.3271177606       11.5239253604
O         19.2786803689       24.6449163333       10.1166499078
O         20.0514882679       26.2926305564       11.5069269027
C         20.4987183072       28.7292891290       11.8122792851
N         19.1390655002       28.7873079576       12.0276417483
O         21.1876676308       29.7347637802       11.7866794022
C         18.3313368506       29.9911922967       11.7763229146
C         17.8936656660       30.6784227745       13.0992208754
C         17.1323052093       29.6122860273       10.8725155172
O         17.1123099200       31.8420755108       12.8157102630
C         19.1151488682       31.0844387558       13.9666244994
C         17.5604972637       28.8924415320        9.5984913448
N         18.7854173175       31.8956664955       15.1666589756
C         17.2685158013       27.5276177863        9.4182362271
C         18.2679221636       29.5844548899        8.5983653101
C         19.9662704542       32.5775944699       15.7478354053
S         17.5452375162       31.3121532118       16.1985102426
C         17.6734468655       26.8642188931        8.2480921751
C         18.6762709234       28.9210152738        7.4292887752
C         19.7650835642       34.1088889153       15.8617032639
O         16.3000537316       31.7842317755       15.5797061654
C         17.7434653459       32.1568197389       17.7907824141
O         17.8439516688       29.8895065740       16.3988256148
C         18.3763525570       27.5608549377        7.2528206003
C         20.9091744086       34.7413244494       16.6806422613
C         19.6793077083       34.7661541306       14.4662268983
C         17.0149846035       33.3297491598       18.0701917046
C         18.6086287157       31.6342132570       18.7728143622
C         17.1728819960       33.9842323202       19.3013431862
C         18.7671660855       32.2896200124       20.0059327003
C         18.0518747269       33.4743276071       20.2785322263
F         16.4679187690       35.1144435614       19.5314098481
O         18.1830316375       34.1504761096       21.4788107375
C         19.0656946301       33.7274927478       22.5364977798
H         22.0902035790       26.8128655052        5.0984103757
H         21.8610100658       22.7220759360        6.4949748113
H         21.5006256620       27.6096311214        7.3393922672
H         21.2759088020       23.5313278323        8.7485483760
H         22.8724837539       24.6157143255        2.1876024660
H         21.7339124378       25.7669164965        2.9331564026
H         23.4677083282       25.8178799362        3.3614829109
H         21.5272536146       28.1427336829        9.5494565573
H         22.7759305247       27.0206470225       10.1909236255
H         21.8169669318       27.1046911480       12.2948574475
H         18.6664262628       27.8916071689       12.0240558670
H         18.9449354348       30.7148560162       11.2210572840
H         17.2857911232       29.9568323263       13.6621165337
H         16.4304536419       28.9914903447       11.4434967990
H         16.5790088745       30.5208513561       10.6026916829
H         16.7328187160       32.1317277348       13.6785317479
H         19.6429371830       30.1739919185       14.2798094870
H         19.8018188513       31.6481609560       13.3209759863
H         16.7299783475       26.9776589376       10.1853289750
H         18.5026965600       30.6374810182        8.7289522292
H         20.2114696525       32.1531338878       16.7288522969
H         20.8524223849       32.4080737433       15.1207153262
H         17.4483482683       25.8086046898        8.1165711612
H         19.2227247612       29.4611767361        6.6603537129
H         18.8256419453       34.3162425440       16.3864137392
H         18.6917983162       27.0458948013        6.3488101154
H         20.7639570501       35.8243876938       16.7836184908
H         20.9507372362       34.3137627043       17.6908650627
H         21.8813374709       34.5738381436       16.1991718974
H         19.5285260845       35.8497070739       14.5523689819
H         20.5982119234       34.5958158409       13.8908713709
H         18.8389367322       34.3587227376       13.8890428151
H         16.3330522194       33.7417889598       17.3312185898
H         19.1648207615       30.7200465889       18.5766747228
H         19.4464413585       31.8676117811       20.7400572310
H         20.1066593060       33.7079593495       22.1886405444
H         18.9996153562       34.4243173683       23.3816313159
H         18.7907465801       32.7270482223       22.8949171659
    84
VM2 Rank=17     G=220.369           E=124.627           -TS=95.742              
C         22.0202584025       24.7331798331        5.6185008287
C         21.8931920120       26.1152080136        5.8756477021
C         21.8074432247       23.8302796739        6.6803852426
C         22.3754263219       24.2072888241        4.2476770156
C         21.5606623273       26.5773536137        7.1598410164
C         21.4732736556       24.2931221428        7.9637220155
C         22.6014938211       25.1885219086        3.1029292139
O         22.4859889650       23.0099998376        4.0358011451
C         21.3417077140       25.6709943567        8.2134950363
N         21.0030220394       26.1421846398        9.5130396118
C         21.6869426948       27.2821922432       10.1128534410
C         20.0490636821       25.6070903180       10.3586621269
C         21.0633515766       27.3851590100       11.5154161805
O         19.3117051510       24.6614312306       10.1394492792
O         20.0646455519       26.3323117130       11.5128822139
C         20.4694021930       28.7790262294       11.7963171890
N         19.1102183082       28.8142919435       12.0195157992
O         21.1398863991       29.7965278659       11.7585448453
C         18.2794430725       30.0013117451       11.7630728217
C         17.8385725753       30.6929595215       13.0826272780
C         17.0811340631       29.5929712159       10.8711993925
O         17.0355713423       31.8403898867       12.7935856500
C         19.0584016351       31.1278027838       13.9383289689
C         17.5132504446       28.8702732130        9.6001324092
N         18.7230958154       31.9454884742       15.1325378294
C         17.2443750272       27.4990372586        9.4331074360
C         18.2010441346       29.5664807824        8.5892790991
C         19.8979438094       32.6491891127       15.7000782007
S         17.5002008132       31.3500457241       16.1783313053
C         17.6527262950       26.8333098463        8.2654767450
C         18.6128229663       28.9007771956        7.4226981734
C         19.6735360942       34.1774857671       15.8114156618
O         16.2422508431       31.7900066559       15.5616414892
C         17.6909540610       32.2152779814       17.7604109819
O         17.8282883334       29.9360270102       16.3931379797
C         18.3359829463       27.5340858512        7.2594889937
C         20.8190233280       34.8313860443       16.6113699421
C         19.5572230274       34.8280343610       14.4149888117
C         18.5741795713       31.7198828038       18.7396448481
C         16.9397003722       33.3754537889       18.0356190735
C         18.7244851499       32.3920351457       19.9621306375
C         17.0902851389       34.0491025781       19.2599404142
C         17.9887018162       33.5636894074       20.2329109325
F         19.5902395282       31.8958819731       20.8740200064
O         18.1678937469       34.2004798705       21.4484018746
C         17.4839900092       35.4139706040       21.8177431406
H         22.0482331798       26.8451326095        5.0867708850
H         21.9012223798       22.7602588213        6.5114411505
H         21.4610217116       27.6461961025        7.3267963350
H         21.3183649475       23.5739921195        8.7640087824
H         22.8474908170       24.6429436572        2.1844553048
H         21.6944111391       25.7788721085        2.9311278660
H         23.4301692671       25.8630655014        3.3460371511
H         21.4956348141       28.1940751023        9.5323504224
H         22.7669224109       27.0978228652       10.1740061291
H         21.8199403410       27.1825045134       12.2833216207
H         18.6538120424       27.9102282213       12.0259829288
H         18.8762502883       30.7306094462       11.1969809396
H         17.2468083073       29.9662755969       13.6560444440
H         16.3947868788       28.9644203904       11.4524528614
H         16.5094469547       30.4889800402       10.5977557602
H         16.6560678448       32.1308641309       13.6561428766
H         19.6032395585       30.2293415569       14.2569035496
H         19.7314615115       31.6963668651       13.2826708395
H         16.7211780372       26.9459436963       10.2085190092
H         18.4178536493       30.6245761835        8.7095496370
H         20.1601344017       32.2315445641       16.6796216278
H         20.7804258448       32.4926947168       15.0644462266
H         17.4455892230       25.7728051740        8.1441926084
H         19.1440541553       29.4441981657        6.6454391023
H         18.7386990647       34.3718863301       16.3490349918
H         18.6541459116       27.0173589745        6.3574410014
H         20.6578246413       35.9123481799       16.7125406345
H         20.8822599468       34.4084757699       17.6224259200
H         21.7866833527       34.6778048122       16.1163774061
H         19.3904998831       35.9093784949       14.4994349622
H         20.4703349211       34.6700728581       13.8270188447
H         18.7152340664       34.4051646752       13.8514387150
H         19.1500724192       30.8175349253       18.5523819804
H         16.2437872176       33.7623539489       17.2943684411
H         16.5046452122       34.9451757357       19.4402187927
H         16.3972051365       35.2598287106       21.8269029004
H         17.7938673384       35.7285390761       22.8223336384
H         17.7233781219       36.2232628920       21.1157827910
    84
VM2 Rank=18     G=220.372           E=124.122           -TS=96.250              
C         21.9981980374       24.8729650577        5.6149764022
C         21.8304680077       23.9551953766        6.6721830619
C         21.8361070254       26.2484862790        5.8869003256
C         22.3434870844       24.3693357726        4.2333141607
C         21.5061969284       24.3971434046        7.9653845427
C         21.5135286172       26.6897792729        7.1809279907
C         22.5204283164       25.3664691798        3.0936713526
O         22.4846222955       23.1776095835        4.0086298897
C         21.3395744515       25.7684368410        8.2299595174
N         21.0106609272       26.2184311450        9.5394705940
C         21.6726617196       27.3720200886       10.1379455869
C         20.0870686693       25.6491323407       10.3963850854
C         21.0693189949       27.4464013036       11.5510996752
O         19.3733040567       24.6846045869       10.1813893693
O         20.1019110201       26.3647499963       11.5566016949
C         20.4394647944       28.8202131126       11.8515289733
N         19.0806201294       28.8163680583       12.0802564797
O         21.0824213845       29.8556437428       11.8235615070
C         18.2173639544       29.9834255527       11.8398562764
C         17.7807743260       30.6637791305       13.1670411658
C         17.0145722959       29.5476511694       10.9673336494
O         16.9589881375       31.7996499061       12.8881406411
C         19.0044794596       31.1166345815       14.0082970441
C         17.4433533339       28.8397141552        9.6869187854
N         18.6882675876       31.9276808299       15.2198249985
C         17.2117847746       27.4613922920        9.5223608020
C         18.0912013822       29.5572656837        8.6646828462
C         19.8873379176       32.5267090545       15.8708728236
S         17.4974818503       31.2643155869       16.2626633040
C         17.6175430437       26.8095681628        8.3460154443
C         18.5002637193       28.9055884782        7.4892627803
C         20.7712370308       33.4170756847       14.9562164730
O         16.2204381368       31.6257573571       15.6338356858
C         17.6057696565       32.2062350585       17.8057323273
O         17.8939627017       29.8734523174       16.5113030162
C         18.2608109938       27.5315373776        7.3287079218
C         19.9485004760       34.5423415274       14.2872424879
C         21.9254040665       34.0314254314       15.7767673452
C         18.2995309635       31.6822363878       18.9136379034
C         17.0117587066       33.4799537750       17.9018533985
C         18.3956723249       32.4239282881       20.1011136003
C         17.1087447630       34.2230050578       19.0909672379
C         17.8029727754       33.6994267510       20.2018317753
F         19.0704771149       31.8936083936       21.1455352018
O         17.9221588331       34.4005874399       21.3890196403
C         17.3621072139       35.7120694268       21.5967792154
H         21.9518605467       22.8898191792        6.4918606166
H         21.9558871814       26.9893351660        5.1020777040
H         21.3863085270       23.6669966438        8.7616992757
H         21.3860988354       27.7538079238        7.3593341218
H         22.7653699446       24.8361256774        2.1660373072
H         21.5937508828       25.9317427581        2.9434613270
H         23.3335909816       26.0626294286        3.3280630608
H         21.4472180798       28.2830336086        9.5684406844
H         22.7581222633       27.2168713125       10.1803170600
H         21.8439733495       27.2609075573       12.3052120130
H         18.6485722893       27.9004015153       12.0780413301
H         18.7874843942       30.7269895818       11.2648128268
H         17.2068236754       29.9257025549       13.7439350184
H         16.3541596046       28.9003474576       11.5579862201
H         16.4160122817       30.4297729109       10.7065054642
H         16.5690762218       32.0670332242       13.7537366906
H         19.5677702649       30.2243400187       14.3115941294
H         19.6474549271       31.6830450079       13.3264683061
H         16.7197302784       26.8920882971       10.3063792149
H         18.2790608080       30.6211104374        8.7829379176
H         19.5819530495       33.1703385146       16.7035085165
H         20.5089618022       31.7263664926       16.2956922686
H         17.4395145734       25.7435763387        8.2266322039
H         19.0005598256       29.4654622654        6.7032041631
H         21.2291154510       32.7983147428       14.1726007152
H         18.5771748351       27.0256036071        6.4199324609
H         20.5886965980       35.1739934140       13.6584605672
H         19.1589080581       34.1307072411       13.6454657051
H         19.4718276121       35.1837879242       15.0393626409
H         22.5826070106       34.6338390159       15.1364765804
H         21.5444318314       34.6806031548       16.5758424427
H         22.5388165107       33.2472522393       16.2389554436
H         18.7670828678       30.7029789256       18.8564733780
H         16.4773732914       33.8960840674       17.0504556030
H         16.6424186083       35.2022617107       19.1362846403
H         16.2711827228       35.6918414698       21.4765689636
H         17.5885462995       36.0602937768       22.6124846405
H         17.7858663405       36.4322947357       20.8849569765
    84
VM2 Rank=19     G=220.383           E=124.641           -TS=95.741              
C         22.0216841946       24.7415241745        5.6124370166
C         21.7945216423       23.8363918973        6.6715024230
C         21.9049886055       26.1222794047        5.8726457793
C         22.3829821419       24.2690105953        4.2238933025
C         21.4566447038       24.3029562487        7.9529290690
C         21.5687873521       26.5878930241        7.1542240077
C         22.5066441711       22.7746886836        3.9481303696
O         22.5776923959       25.0600843238        3.3145528503
C         21.3353339062       25.6816725782        8.2046088811
N         20.9926345363       26.1534206254        9.5029607542
C         21.6805861771       27.2882403216       10.1080182216
C         20.0305379600       25.6235790122       10.3426778398
C         21.0517864710       27.3918387145       11.5082124202
O         19.2878051932       24.6834206455       10.1179679726
O         20.0451676630       26.3466157393       11.4982592613
C         20.4672497703       28.7892543763       11.7912013164
N         19.1076495739       28.8337608262       12.0100799089
O         21.1452815204       29.8019271869       11.7587438732
C         18.2863276095       30.0275014091       11.7544747835
C         17.8433367413       30.7160789713       13.0748705305
C         17.0901066023       29.6312594547       10.8543761094
O         17.0486921328       31.8696969882       12.7872727475
C         19.0617946776       31.1395854002       13.9382083101
C         17.5241818540       28.9096102704        9.5833634910
N         18.7251297899       31.9531703903       15.1347779586
C         17.2448431602       27.5413059646        9.4095454717
C         18.2247300147       29.6035457486        8.5797344668
C         19.9000099542       32.6498568277       15.7107719660
S         17.4930481988       31.3599545413       16.1710334099
C         17.6555559345       26.8762708340        8.2423436567
C         18.6389223671       28.9384860104        7.4136487154
C         19.6791053527       34.1779177974       15.8320693259
O         16.2414847012       31.8166630845       15.5535482268
C         17.6867436235       32.2075374424       17.7622910777
O         17.8076203080       29.9411555087       16.3742984170
C         18.3517047376       27.5747736675        7.2436304890
C         20.8234246303       34.8232794763       16.6405800554
C         19.5693425076       34.8384861764       14.4398241023
C         18.5654234372       31.6964620489       18.7375517454
C         16.9419723749       33.3691748723       18.0487061864
C         18.7178309928       32.3546591647       19.9673416124
C         17.0946581857       34.0288522064       19.2803598257
C         17.9886179883       33.5277368408       20.2494734400
F         19.5791280895       31.8436195112       20.8752227995
O         18.1696427749       34.1504075627       21.4719863938
C         17.4916432802       35.3633934508       21.8536494185
H         21.8765231950       22.7648680921        6.5155746948
H         22.0742421563       26.8421048837        5.0754894688
H         21.2904400520       23.5848214868        8.7518956502
H         21.4779074421       27.6574984119        7.3209731346
H         21.5535824104       22.2754302764        4.1560756400
H         22.7713151089       22.6079010790        2.8974659631
H         23.2873502911       22.3401744462        4.5825631808
H         21.4966519245       28.2023453686        9.5286074244
H         22.7592699033       27.0977520338       10.1731517803
H         21.8035535092       27.1809423324       12.2786301175
H         18.6446996332       27.9330075391       12.0122437577
H         18.8910465861       30.7552667338       11.1948495348
H         17.2443963116       29.9904601678       13.6421428761
H         16.3957876499       29.0058691094       11.4295355229
H         16.5267412368       30.5324917683       10.5808235922
H         16.6681226943       32.1597672400       13.6494816414
H         19.6000139139       30.2364837047       14.2549063796
H         19.7411162138       31.7075299280       13.2885019158
H         16.7117709879       26.9899085196       10.1794163643
H         18.4497685204       30.6592998582        8.7053286884
H         20.1582647816       32.2246493900       16.6880920737
H         20.7839225476       32.4956582856       15.0765809929
H         17.4403307375       25.8179930133        8.1158344004
H         19.1802019030       29.4800543730        6.6420361737
H         18.7428709171       34.3710087740       16.3677115388
H         18.6719321426       27.0585899401        6.3419494135
H         20.8820228881       34.3931613353       17.6488715535
H         21.7924286647       34.6706769870       16.1479193433
H         20.6646163317       35.9039200488       16.7487353943
H         19.4049021826       35.9196142980       14.5312392463
H         20.4841710642       34.6824420660       13.8540147344
H         18.7283765199       34.4215935711       13.8703268396
H         19.1361480650       30.7926776156       18.5415809272
H         16.2494417812       33.7680099032       17.3106168353
H         16.5140700437       34.9264249904       19.4693099558
H         17.8017727165       35.6653143769       22.8620347117
H         17.7362853910       36.1790329906       21.1609110835
H         16.4040490000       35.2149131169       21.8596639514
    84
VM2 Rank=20     G=220.431           E=124.692           -TS=95.739              
C         22.0243631682       24.7194448698        5.6017496804
C         21.9225474007       26.0994229240        5.8721378867
C         21.7832904076       23.8089204541        6.6530936853
C         22.3851706798       24.2534384349        4.2108805629
C         21.5873435952       26.5590709108        7.1561272054
C         21.4463919121       24.2695386046        7.9369288795
C         22.4930824519       22.7599582484        3.9241718578
O         22.5918926078       25.0491422794        3.3082561159
C         21.3400605539       25.6475971085        8.1987684809
N         20.9984758196       26.1133446846        9.4995670310
C         21.6976500312       27.2353060572       10.1156157239
C         20.0274385351       25.5883809660       10.3320203838
C         21.0661220921       27.3348264345       11.5148679568
O         19.2744515265       24.6588163820       10.0975768263
O         20.0466904181       26.3022764130       11.4932107104
C         20.4982570020       28.7369568129       11.8082164966
N         19.1386808621       28.7966097036       12.0236057862
O         21.1889829547       29.7412999091       11.7863158675
C         18.3331019831       30.0025486185       11.7752453158
C         17.8949111341       30.6861959521       13.0997999635
C         17.1346657250       29.6285212888       10.8686105657
O         17.1159772422       31.8521246384       12.8190198803
C         19.1160200908       31.0872004040       13.9700544830
C         17.5633895828       28.9111124886        9.5933810752
N         18.7863175665       31.8951732275       15.1722957796
C         17.2669206457       27.5479207865        9.4081370591
C         18.2761303743       29.6035752374        8.5973467654
C         19.9678646678       32.5726472036       15.7572642751
S         17.5438493570       31.3105860639       16.2007773680
C         17.6727990755       26.8865773769        8.2371535220
C         18.6854948671       28.9421493194        7.4274949457
C         19.7700154493       34.1040473467       15.8754442380
O         16.3002057566       31.7861396447       15.5815330468
C         17.7408867899       32.1508593498       17.7955202543
O         17.8402326627       29.8869737906       16.3976616897
C         18.3812229423       27.5836137931        7.2460764827
C         20.9143432556       34.7313887346       16.6979628078
C         19.6877801578       34.7657136747       14.4818355114
C         17.0141120689       33.3244441222       18.0766204571
C         18.6033685795       31.6241702778       18.7777296519
C         17.1710669962       33.9755174833       19.3096988390
C         18.7609517293       32.2761534517       20.0127844001
C         18.0473782310       33.4614927839       20.2871372806
F         16.4678173327       35.1064650924       19.5413887233
O         18.1776641977       34.1343420513       21.4893629645
C         19.0576195199       33.7069946006       22.5475515171
H         22.1027372362       26.8233205572        5.0810890480
H         21.8536079415       22.7377491604        6.4892339013
H         21.5081698027       27.6283437899        7.3307993462
H         21.2692803880       23.5472934239        8.7298254177
H         22.7595690030       22.5981823746        2.8731822970
H         23.2666485403       22.3119360306        4.5579560682
H         21.5337726227       22.2698502633        4.1250326736
H         21.5257105873       28.1560554388        9.5430773506
H         22.7739139540       27.0320338167       10.1821270033
H         21.8130113949       27.1079915060       12.2855018602
H         18.6645385856       27.9017189606       12.0167200137
H         18.9485290173       30.7270814800       11.2231496889
H         17.2850503206       29.9638483312       13.6595663337
H         16.4306921108       29.0076609213       11.4369009925
H         16.5836704622       30.5389484193       10.6003566145
H         16.7357615230       32.1395626707       13.6822630475
H         19.6417474984       30.1747791536       14.2809552592
H         19.8045409163       31.6517290451       13.3270873127
H         16.7242443761       26.9976032595       10.1720474958
H         18.5144144830       30.6553260837        8.7317861343
H         20.2106156705       32.1446892816       16.7373724881
H         20.8545714784       32.4029680283       15.1309709187
H         17.4442966636       25.8321831966        8.1018098743
H         19.2362573464       29.4825480899        6.6617954975
H         18.8302845643       34.3119643937       16.3994107682
H         18.6976979472       27.0702385278        6.3414720119
H         20.7714311126       35.8144604146       16.8040287625
H         20.9534651644       34.3006612118       17.7069373156
H         21.8868253147       34.5631603304       16.2173967830
H         19.5393192217       35.8493403565       14.5710311409
H         20.6071408090       34.5950326793       13.9073111774
H         18.8473385851       34.3619312903       13.9021949115
H         16.3342591393       33.7396345434       17.3374951038
H         19.1582119473       30.7094745098       18.5802467110
H         19.4381494398       31.8510220664       20.7470269316
H         18.7801668721       32.7061427033       22.9028892433
H         20.0991768645       33.6864237403       22.2015331845
H         18.9912949026       34.4017587688       23.3943599630
    84
VM2 Rank=21     G=220.467           E=123.623           -TS=96.845              
C         21.3353109536       27.0580537342        5.3379327523
C         20.6932742363       28.1318571287        5.9913724284
C         21.9733032332       26.0777785641        6.1254056815
C         21.3540500165       26.9383555543        3.8322126969
C         20.6899881559       28.2183854952        7.3934462113
C         21.9680812967       26.1641273502        7.5273192446
C         20.6601670141       28.0001582863        2.9863531556
O         21.9146581752       26.0072016963        3.2760795932
C         21.3214806138       27.2327280508        8.1740929603
N         21.3153133488       27.3225001667        9.5945420854
C         21.5611003700       28.5864577457       10.2794127974
C         21.1111249497       26.2832754147       10.4833543305
C         21.5435188575       28.2033778119       11.7691514403
O         20.8718205570       25.1178410961       10.2178375794
O         21.2201959418       26.7890412788       11.7445978925
C         20.5359137522       29.0379734566       12.5828145729
N         19.5265146021       28.3256932215       13.1933763508
O         20.5844659903       30.2549671385       12.6358905013
C         18.2180140227       28.9083908320       13.5315824051
C         18.0530002876       29.1079863154       15.0647333074
C         17.1051157835       28.0252641483       12.9140816888
O         16.7527206777       29.6306024433       15.3425349975
C         19.1320718886       30.0693484322       15.6351298561
C         17.3035687904       27.7850893518       11.4214922642
N         19.1912772096       30.1399944064       17.1226895967
C         17.6417346339       26.5051862936       10.9440683659
C         17.1663575543       28.8475418559       10.5093459154
C         19.5033879926       28.8733447401       17.8335967174
S         18.1134063411       31.1780378966       17.9499360779
C         17.8334774681       26.2887830784        9.5694049838
C         17.3615188628       28.6329093803        9.1347745236
C         20.7735618766       28.1337905090       17.3348877710
O         16.8222839392       30.4801606537       18.0077281171
C         18.0174724634       32.6536995606       16.9067099507
O         18.8430141035       31.5797316135       19.1585891333
C         17.6922707408       27.3521460121        8.6642695509
C         22.0352032758       29.0175343608       17.4642639709
C         20.9683894855       26.8241739594       18.1274985648
C         16.8701611779       32.9076062327       16.1306535273
C         19.1037976002       33.5481252774       16.8470338101
C         16.8130585161       34.0413268832       15.3056652808
C         19.0466582009       34.6838928513       16.0210646594
C         17.8985809748       34.9390547406       15.2420035648
F         15.6983474550       34.2560847285       14.5715586403
O         17.8046534559       36.0448159078       14.4150568346
C         18.8596131568       37.0146043443       14.2624536495
H         20.1897822205       28.9085219569        5.4235292687
H         22.4779906134       25.2410063583        5.6485580874
H         20.1807965213       29.0515934748        7.8695876598
H         22.4713576586       25.3956561080        8.1084849361
H         21.1089884753       28.9817988351        3.1754463037
H         20.7680957656       27.7611553232        1.9219308572
H         19.5932905630       28.0376795340        3.2337308474
H         20.7647931157       29.3071934616       10.0522168039
H         22.5347974104       29.0015724199        9.9901241559
H         22.5362188708       28.3527679903       12.2112348959
H         19.5804289296       27.3212159831       13.0761058680
H         18.1446240691       29.9010660858       13.0650069467
H         18.1651850286       28.1233530046       15.5371630116
H         17.0618039681       27.0696651494       13.4515514376
H         16.1301358001       28.5034904103       13.0723517117
H         16.6388560712       29.6440635915       16.3219272525
H         20.1118509963       29.7458203870       15.2682864723
H         18.9822486245       31.0615129429       15.1936645874
H         17.7591781221       25.6764878033       11.6371408706
H         16.9097110697       29.8410232493       10.8673292338
H         19.6441755246       29.0886324481       18.9020149370
H         18.6430828893       28.1940404691       17.7653067000
H         18.0983349367       25.2983636301        9.2071986060
H         17.2541201108       29.4579018936        8.4351464997
H         20.6436161233       27.8575846971       16.2795596784
H         17.8432974352       27.1842354254        7.6008314749
H         22.9263936999       28.4807629657       17.1150886442
H         21.9444066012       29.9328412403       16.8663366436
H         22.2038352068       29.3129598408       18.5077598078
H         20.0953341018       26.1674965393       18.0210793461
H         21.8454202557       26.2734895024       17.7637323399
H         21.1144039138       27.0251050030       19.1967723465
H         16.0242402422       32.2262636255       16.1595619581
H         19.9963629996       33.3579249594       17.4392818485
H         19.8993327949       35.3551464250       15.9935524012
H         18.5530930487       37.7941743304       13.5535858974
H         19.0873595742       37.4949291828       15.2228557931
H         19.7707630490       36.5392618019       13.8766338696
    84
VM2 Rank=22     G=220.483           E=123.630           -TS=96.853              
C         21.3895115659       27.0591009502        5.3482619062
C         20.7733157576       28.1474444023        5.9991016206
C         21.9783741097       26.0489295308        6.1389945667
C         21.4056010389       27.0006452434        3.8388948131
C         20.7433502620       28.2253119610        7.4009927807
C         21.9465554087       26.1267687942        7.5414360257
C         22.0727239954       25.8209650292        3.1405901148
O         20.8935294423       27.8797070502        3.1638862268
C         21.3243947006       27.2119919579        8.1850256671
N         21.2927875482       27.2902404929        9.6058684923
C         21.5658588276       28.5398025378       10.3066545214
C         21.0368909905       26.2510943075       10.4813131249
C         21.5081377635       28.1448077709       11.7922626464
O         20.7646741515       25.0964300965       10.2008263072
O         21.1377907580       26.7425186077       11.7488809786
C         20.5148205224       29.0060243300       12.5956817897
N         19.4720996241       28.3228132449       13.1830103247
O         20.6026668196       30.2202744983       12.6598970848
C         18.1777227591       28.9457529967       13.5033813994
C         17.9914158771       29.1357079937       15.0352880565
C         17.0476302575       28.1065243652       12.8565523565
O         16.7036715882       29.6969573209       15.2955447164
C         19.0900434041       30.0565664323       15.6344518791
C         17.2665648648       27.8729939025       11.3657598158
N         19.1270671758       30.1078219276       17.1235161150
C         17.5682427411       26.5861982793       10.8824326908
C         17.1855674075       28.9480011211       10.4616292575
C         19.3890786259       28.8239466120       17.8237037857
S         18.0672932134       31.1681138636       17.9458888798
C         17.7795414276       26.3756646156        9.5097237356
C         17.4004395822       28.7391223615        9.0891203143
C         20.6438339116       28.0515718762       17.3358065687
O         16.7544708627       30.5099548774       17.9725088798
C         18.0352265142       32.6591887963       16.9208387074
O         18.7876698034       31.5316848568       19.1720243293
C         17.6946289633       27.4516995065        8.6125611109
C         21.9296961617       28.8944945258       17.4955678552
C         20.7858909192       26.7273691281       18.1152876034
C         16.9097376830       32.9588919358       16.1293201710
C         19.1497462577       33.5197842654       16.8911403856
C         16.9019861565       34.1043719302       15.3187608230
C         19.1420388293       34.6673210827       16.0796200006
C         18.0158494841       34.9683778039       15.2851445817
F         15.8071209782       34.3634292512       14.5692474940
O         17.9704237713       36.0871196490       14.4716786453
C         19.0573174932       37.0254979168       14.3499208499
H         20.3117239567       28.9398888905        5.4149575951
H         22.4659004746       25.1947040631        5.6787573029
H         20.2536293382       29.0724457842        7.8728528376
H         22.4109308261       25.3372482424        8.1268319649
H         21.5828769311       24.8859018034        3.4347558481
H         21.9930450295       25.9349816624        2.0531997867
H         23.1327655682       25.7744390532        3.4143744725
H         20.7971609819       29.2874258489       10.0713495852
H         22.5574703272       28.9261265036       10.0391601776
H         22.4971706479       28.2564843964       12.2532960083
H         19.4948502232       27.3180766640       13.0579966568
H         18.1460895026       29.9448622884       13.0459404426
H         18.0636792374       28.1434172344       15.4994023699
H         16.9617294704       27.1482109555       13.3839749040
H         16.0865404240       28.6162245833       13.0009398953
H         16.5722654473       29.7029851482       16.2728243534
H         20.0653320317       29.7074717206       15.2792762117
H         18.9777740864       31.0580300871       15.2029362541
H         17.6422454793       25.7475108482       11.5694625923
H         16.9575437943       29.9467558574       10.8242806750
H         19.5193835510       29.0222873751       18.8967201480
H         18.5096349677       28.1722259870       17.7338242291
H         18.0160799955       25.3797562466        9.1430098155
H         17.3367268658       29.5738220991        8.3956771580
H         20.5223105030       27.7918816395       16.2752949155
H         17.8610031645       27.2883702942        7.5506582630
H         21.8764371401       29.8191581803       16.9075998332
H         22.0907035180       29.1722509421       18.5451029115
H         22.8094849089       28.3347172935       17.1536793027
H         21.6513567160       26.1542738440       17.7585065296
H         20.9209355089       26.9111524229       19.1890778948
H         19.8949723873       26.0991530566       17.9872863735
H         16.0426285469       32.3041132567       16.1351062470
H         20.0257496926       33.2940942839       17.4955345992
H         20.0155413597       35.3118108478       16.0752411747
H         18.7872594453       37.8233749633       13.6466159142
H         19.2832577152       37.4859817929       15.3204149409
H         19.9598398761       36.5270839829       13.9730424708
    84
VM2 Rank=23     G=220.493           E=123.614           -TS=96.878              
C         21.0591155251       26.9908476059        5.2503776026
C         21.8934291942       26.1543628587        6.0228191907
C         20.3172309652       27.9923590745        5.9094482027
C         20.9456912579       26.8386952484        3.7517593203
C         21.9779448246       26.3157725988        7.4159107546
C         20.4034918323       28.1540808555        7.3018139006
C         21.7498391009       25.7535336804        3.0445764351
O         20.2210623588       27.5673729481        3.0925599226
C         21.2300788979       27.3126516421        8.0685552133
N         21.3166030616       27.4757493373        9.4798847593
C         21.4198656082       28.7965897458       10.0896369701
C         21.3381237661       26.4664548732       10.4246445284
C         21.5750151900       28.4944251541       11.5899872562
O         21.2568203347       25.2661407145       10.2280139462
O         21.4653302815       27.0488306809       11.6506255329
C         20.5206753468       29.2153806518       12.4516591200
N         19.6852120089       28.3969969361       13.1805030725
O         20.3867132873       30.4270911402       12.4463676262
C         18.3354141094       28.7970817725       13.6096655553
C         18.2671975982       29.0414636940       15.1436556203
C         17.3218773580       27.7322392755       13.1209902765
O         16.9282662262       29.3693728572       15.5189960059
C         19.2233658214       30.1846257696       15.5831019625
C         17.4373168796       27.4502791827       11.6269321992
N         19.4157718786       30.3144649512       17.0553346776
C         17.9201324141       26.2095796794       11.1708351523
C         17.0777436279       28.4369767397       10.6905573331
C         20.0023340349       29.1407750125       17.7524522199
S         18.2647931722       31.1883299020       17.9690390385
C         18.0352902135       25.9560243806        9.7939755414
C         17.1961227989       28.1856993403        9.3134473969
C         21.3196128354       28.5985841867       17.1360264985
O         17.1115513349       30.2973101814       18.1522426373
C         17.8463048627       32.6066051253       16.9260014071
O         19.0261611506       31.7286194769       19.1017319057
C         17.6722795735       26.9434462138        8.8649007199
C         22.4260714752       29.6778654505       17.1160782874
C         21.8053612048       27.3657408381       17.9268503996
C         18.7664161657       33.6605048001       16.7682811927
C         16.6126520315       32.6590495600       16.2480404081
C         18.4554212870       34.7518875526       15.9428961731
C         16.3015073984       33.7515476771       15.4203704802
C         17.2224869661       34.8081937278       15.2609954524
F         19.3616330617       35.7463651415       15.8110555336
O         16.9536242001       35.8996589514       14.4536800933
C         15.7340474774       36.0493728136       13.7007224775
H         22.4842008155       25.3722366494        5.5554112044
H         19.6664440868       28.6509610735        5.3393787033
H         22.6311272737       25.6606719858        7.9867629044
H         19.8130303075       28.9296737785        7.7813232609
H         21.5504902638       25.7812495635        1.9669595102
H         22.8212061208       25.9135368434        3.2100548017
H         21.4685736867       24.7673520901        3.4307926756
H         20.5082570976       29.3784299055        9.9008429827
H         22.2941276868       29.3353472263        9.7029828041
H         22.5657067342       28.8093979255       11.9400351888
H         19.8822092332       27.4066503420       13.1026856974
H         18.0766806678       29.7453931767       13.1175433739
H         18.5721949580       28.1091688562       15.6365749431
H         17.4634317688       26.8080855437       13.6952921161
H         16.3018347343       28.0707082423       13.3429443892
H         16.8953622517       29.4057002434       16.5039669472
H         20.2024203851       30.0135584245       15.1234547927
H         18.8679551158       31.1234662692       15.1425530436
H         18.2096097412       25.4406034482       11.8820051270
H         16.7079698839       29.4003153959       11.0314806496
H         20.2133245062       29.4134647479       18.7958948073
H         19.2629169754       28.3294739574       17.7880625538
H         18.4126256797       24.9967637964        9.4479957522
H         16.9169272707       28.9522094679        8.5950063201
H         21.1307922923       28.2684681557       16.1053738106
H         17.7642023017       26.7473221478        7.7995006100
H         23.3530993073       29.2798674875       16.6842429191
H         22.1266589018       30.5455347041       16.5152175431
H         22.6488932628       30.0322771647       18.1306406812
H         21.0454699731       26.5736977808       17.9245671636
H         22.7194970945       26.9512692876       17.4826308314
H         22.0236647127       27.6245147240       18.9710807948
H         19.7241491049       33.6319596686       17.2810605414
H         15.8949037544       31.8490418422       16.3571486266
H         15.3446259105       33.7641091201       14.9079490449
H         15.6152120107       35.2242103485       12.9865852044
H         14.8644000093       36.0693956654       14.3702521218
H         15.7542049033       36.9905766794       13.1368905979
    84
VM2 Rank=24     G=220.500           E=123.633           -TS=96.867              
C         20.9782535348       26.9886353143        5.2459232542
C         21.8710077783       26.2014106164        6.0017983262
C         20.2077295230       27.9626342405        5.9166439082
C         20.8688699315       26.7745857225        3.7545844924
C         21.9896281425       26.3783760147        7.3901268753
C         20.3282156293       28.1401479004        7.3049130728
C         19.8998518465       27.6272485258        2.9432003303
O         21.5417510933       25.9313047171        3.1829885945
C         21.2149827443       27.3459525616        8.0549935840
N         21.3339880512       27.5274034137        9.4616629575
C         21.3953378395       28.8578136089       10.0560578378
C         21.4273642847       26.5299054331       10.4145276204
C         21.6028878044       28.5785021861       11.5544976329
O         21.3950189165       25.3251839235       10.2312093706
O         21.5618805457       27.1300784399       11.6311265411
C         20.5383907804       29.2589373505       12.4364023503
N         19.7579127948       28.4104337929       13.1913197990
O         20.3502492767       30.4633902829       12.4253559908
C         18.4021504470       28.7538798602       13.6497143134
C         18.3598805115       29.0156689438       15.1818102711
C         17.4270053144       27.6372972691       13.2000421283
O         17.0172252789       29.2918531127       15.5845025681
C         19.2769562058       30.2036943797       15.5840124087
C         17.5159856036       27.3431339940       11.7065533363
N         19.4894145918       30.3683184598       17.0500153393
C         18.0463896001       26.1218874481       11.2508387016
C         17.0831178631       28.2995611759       10.7697869476
C         20.1328701402       29.2312970720       17.7575303090
S         18.3223841702       31.2152169710       17.9688030172
C         18.1361763979       25.8572858466        9.8741714883
C         17.1759234305       28.0373583645        9.3927472769
C         21.4605412535       28.7303508060       17.1286880974
O         17.2101302017       30.2827188109       18.1940815858
C         17.8256913363       32.5923580089       16.9051017557
O         19.0835745829       31.8099704355       19.0739839981
C         17.6998892586       26.8142828142        8.9447879696
C         22.5227983675       29.8518770474       17.0714351816
C         22.0074334422       27.5321162013       17.9326871016
C         18.6979389911       33.6797461670       16.7076934732
C         16.5786964897       32.5790203635       16.2500304130
C         18.3266149019       34.7390805205       15.8656557248
C         16.2071574538       33.6393857734       15.4056496310
C         17.0801967616       34.7294285223       15.2063875569
F         19.1879847917       35.7670351806       15.6955421804
O         16.7513989353       35.7908539108       14.3813945567
C         15.5141531596       35.8723784959       13.6470201303
H         22.4789468588       25.4453830883        5.5107642115
H         19.5079580493       28.5904466131        5.3731995782
H         22.6889755743       25.7594668773        7.9464115328
H         19.7165535444       28.8918325391        7.7958915507
H         19.9450695609       27.3426271616        1.8855086883
H         18.8764557220       27.4786981920        3.3057197772
H         20.1651127106       28.6864322166        3.0358306180
H         20.4546932174       29.3977348146        9.8861901170
H         22.2349029506       29.4297767237        9.6412297737
H         22.5864415156       28.9425934962       11.8758544568
H         19.9971132067       27.4292005292       13.1164658005
H         18.0879309027       29.6826016973       13.1525405340
H         18.7156116801       28.1038935340       15.6791267044
H         17.6266393893       26.7276738586       13.7802614774
H         16.3984371376       27.9306369222       13.4456226728
H         17.0059062243       29.3447232361       16.5691760979
H         20.2540490203       30.0626587097       15.1101707346
H         18.8771762570       31.1194252543       15.1330141997
H         18.3924047258       25.3766888756       11.9620619784
H         16.6759337825       29.2478367775       11.1103166506
H         20.3495662095       29.5308225248       18.7924165274
H         19.4267461491       28.3923843370       17.8194894181
H         18.5504323831       24.9133119845        9.5283691780
H         16.8398535126       28.7804220912        8.6740389934
H         21.2684757210       28.3745276915       16.1072257812
H         17.7720378910       26.6095795236        7.8795221714
H         23.4579363050       29.4829542388       16.6313436848
H         22.1796242799       30.6959610422       16.4604589299
H         22.7474358203       30.2332300638       18.0757779456
H         22.9300612298       27.1459882940       17.4805523394
H         22.2320014376       27.8181598842       18.9684415314
H         21.2796268722       26.7108477257       17.9569596157
H         19.6653034940       33.7019612007       17.2023871268
H         15.8975369558       31.7425604612       16.3898149099
H         15.2413954664       33.6011800118       14.9114866902
H         15.4186321262       35.0273918771       12.9528422985
H         14.6557313409       35.8704728708       14.3311694561
H         15.4848403070       36.8009377444       13.0629856644
    84
VM2 Rank=25     G=220.502           E=124.607           -TS=95.895              
C         20.1086383281       25.8417458166        5.6984721039
C         19.9656098950       24.7283586423        6.5517541646
C         20.4930985887       27.0767364484        6.2634772447
C         19.8498928005       25.6892708548        4.2180879595
C         20.1959749462       24.8444522293        7.9324334696
C         20.7251634686       27.1915025278        7.6441175246
C         20.0009520981       26.8982169219        3.3015745920
O         19.5214390905       24.6158613843        3.7379879842
C         20.5728046247       26.0787436418        8.4913964193
N         20.8020272436       26.1997070353        9.8905599500
C         21.9567826187       26.9202105941       10.4155478527
C         20.0225208769       25.6645362931       10.8990327242
C         21.8072097221       26.7876472330       11.9408097355
O         19.0006611943       25.0111394288       10.7785720965
O         20.6000812524       25.9958376332       12.0888366666
C         21.7098630800       28.1599827435       12.6342321890
N         20.4455975480       28.5402501701       13.0262976846
O         22.6670680361       28.9047092916       12.7582494846
C         20.0406541031       29.9451830560       13.1710668161
C         20.3337333406       30.4484295558       14.6118600651
C         18.5571272508       30.0962151773       12.7447232985
O         19.5986032984       29.6664626731       15.5493835189
C         20.0129532373       31.9528734623       14.7950751337
C         18.2945018206       29.5263626243       11.3560906461
N         20.5371498792       32.5527005421       16.0545574109
C         17.6306172004       28.2947116723       11.2051930693
C         18.7354630904       30.2179200159       10.2130951412
C         22.0120606008       32.5583476284       16.2285924613
S         19.6579162022       32.3695166081       17.5144912687
C         17.4074605038       27.7621588609        9.9247073230
C         18.5119845899       29.6862292830        8.9321263023
C         22.8169794945       33.1577288904       15.0452392810
O         20.1242053066       31.1498018318       18.1847140872
C         17.9208070413       32.2082263897       17.0251091626
O         19.7709241431       33.6865963427       18.1535450049
C         17.8470189934       28.4580939269        8.7878027595
C         22.4162895931       34.6250501566       14.7695824032
C         24.3296271279       33.0747651157       15.3393248998
C         17.2476857985       30.9791322338       17.1613600253
C         17.2312600192       33.3170915261       16.4961025355
C         15.9092345726       30.8575462286       16.7584305990
C         15.8900630810       33.1965514707       16.0935496799
C         15.2185372487       31.9623459759       16.2194973752
F         15.2942131832       29.6612842282       16.8947033806
O         13.8999571897       31.8022979568       15.8308214559
C         13.1105866773       32.8564676765       15.2458150496
H         19.6725300112       23.7642478670        6.1432878609
H         20.6136198951       27.9597759778        5.6431604210
H         20.0799636778       23.9689056221        8.5661280493
H         21.0085279221       28.1570993111        8.0532836186
H         19.7755552118       26.6148223628        2.2668534459
H         19.3093374453       27.6904066732        3.6097014253
H         21.0279107891       27.2776535383        3.3484187586
H         21.9304744884       27.9737954612       10.1089615720
H         22.8887252559       26.4547891045       10.0706116285
H         22.6672847084       26.2557333628       12.3657945154
H         19.7179686657       27.8534164150       12.8715503425
H         20.6491646113       30.5454449964       12.4793332213
H         21.4085097843       30.3034190310       14.7843487232
H         17.9084202115       29.6052994401       13.4817769972
H         18.2733397644       31.1551516768       12.7523753096
H         19.8049018192       28.7349945718       15.3284085820
H         20.4338403907       32.4930425214       13.9390880615
H         18.9300025053       32.0950690086       14.7207719928
H         17.2898611819       27.7462799553       12.0793941685
H         19.2538527373       31.1671689306       10.3179813995
H         22.2609284134       33.1396550334       17.1274287545
H         22.3593697966       31.5333548343       16.4170737223
H         16.9001927116       26.8067695812        9.8145444558
H         18.8555964042       30.2243466258        8.0523807951
H         22.6302813033       32.5633669095       14.1404174586
H         17.6784448188       28.0428521234        7.7973127186
H         22.9953485697       35.0385961542       13.9341167020
H         21.3537718333       34.7065652764       14.5091403629
H         22.5951448806       35.2542523137       15.6509212178
H         24.5930582468       33.6545031836       16.2334851364
H         24.6401837098       32.0349062026       15.5043070331
H         24.9140917678       33.4668506581       14.4970536047
H         17.7647955140       30.1134319830       17.5663773488
H         17.7410864955       34.2723384819       16.3906005362
H         15.3853567136       34.0664653445       15.6850439253
H         12.1026242193       32.4877820579       15.0172334533
H         13.0171126799       33.7021511563       15.9393650554
H         13.5665466515       33.2099078952       14.3119160634
    84
VM2 Rank=26     G=220.512           E=124.631           -TS=95.881              
C         20.0894366900       25.7591190713        5.7078495522
C         20.0921977637       24.6501358376        6.5811840046
C         20.3857463190       27.0316798036        6.2375265193
C         19.7794484769       25.6141091044        4.2365798579
C         20.3799815898       24.8139821043        7.9465469253
C         20.6750238487       27.1943167030        7.6020937042
C         19.4589294061       24.2357094255        3.6694755952
O         19.7788561441       26.5797857962        3.4895563146
C         20.6685599905       26.0873000060        8.4699964841
N         20.9554671520       26.2529624166        9.8539292158
C         22.0615286765       27.0879058822       10.3096649521
C         20.2823350107       25.6637461786       10.9078870142
C         22.0062871624       26.9627229780       11.8418727868
O         19.3217873868       24.9157542239       10.8484801172
O         20.8858585847       26.0670781254       12.0620225781
C         21.8224208502       28.3295041016       12.5286262585
N         20.5521684133       28.5985316703       12.9876444597
O         22.7129217832       29.1596388735       12.5928496474
C         20.0283808237       29.9627668312       13.1402522436
C         20.3490271645       30.5117473246       14.5582358594
C         18.5171533696       29.9722184153       12.7919198101
O         19.7403607445       29.6786304553       15.5413291594
C         19.8987655076       31.9823316237       14.7440616361
C         18.2361283000       29.3589634615       11.4255406061
N         20.4428051898       32.6516684195       15.9593692386
C         17.6786328723       28.0708126486       11.3236584056
C         18.5553984318       30.0681091915       10.2532345895
C         21.9185429218       32.8002265503       16.0366070251
S         19.6803122226       32.4113013791       17.4753740798
C         17.4402064845       27.4995111928       10.0627697146
C         18.3167615812       29.4975318061        8.9918965775
C         22.5854103638       33.4500060332       14.7954082425
O         20.2916953778       31.2431985514       18.1203555170
C         17.9347633625       32.1026716948       17.1008293135
O         19.7223591742       33.7405323110       18.0976883878
C         17.7583102254       28.2128800784        8.8965687602
C         22.0298281734       34.8674255460       14.5273781626
C         24.1147472465       33.5157947592       14.9910176008
C         17.1235169714       33.1485399802       16.6199014553
C         17.3755289282       30.8222760871       17.2777496708
C         15.7761067666       32.9115169170       16.3079791112
C         16.0266627692       30.5836373861       16.9634699526
C         15.2156091195       31.6282705769       16.4730095110
F         15.0274209665       33.9354297490       15.8404547207
O         13.8848078520       31.4323414306       16.1477259630
C         13.2248018404       30.1546772975       16.2404286984
H         19.8716774788       23.6520373283        6.2146566765
H         20.3895298178       27.9037010671        5.5880968773
H         20.3777230611       23.9433862024        8.5975114086
H         20.8880354086       28.1893253572        7.9823121504
H         19.2587439588       24.3098988765        2.5942140447
H         20.3075479629       23.5601377065        3.8252303571
H         18.5735749930       23.8230956693        4.1661883444
H         21.9170244273       28.1297560224        9.9959262947
H         23.0145835319       26.7096416572        9.9188706936
H         22.9325409652       26.5158596783       12.2235024542
H         19.8831915704       27.8462985855       12.8791418641
H         20.5424169982       30.6057499587       12.4112510185
H         21.4402484855       30.4692551973       14.6735550118
H         17.9553396868       29.4362442096       13.5678241736
H         18.1388151767       31.0011751824       12.8031896602
H         20.0210777276       28.7672783572       15.3184904332
H         20.2106907090       32.5444525728       13.8561610051
H         18.8045370614       32.0197467183       14.7388525687
H         17.4330270064       27.5085614679       12.2206641050
H         18.9913366747       31.0612390446       10.3199835843
H         22.1675398606       33.4197952614       16.9094730461
H         22.3737131542       31.8165979383       16.2155689387
H         17.0158596567       26.5010731461        9.9901880552
H         18.5664565138       30.0493324649        8.0892283785
H         22.3989358488       32.8233731115       13.9125792634
H         17.5786428446       27.7680371106        7.9209422251
H         22.5122305289       35.3175695528       13.6504549942
H         20.9499159909       34.8434192604       14.3360077902
H         22.2038793232       35.5275469403       15.3867914761
H         24.5329917302       32.5132316405       15.1488481632
H         24.6041568411       33.9450588301       14.1072965598
H         24.3782326127       34.1348419723       15.8584108225
H         17.5392545454       34.1429151512       16.4808290412
H         17.9928925425       30.0062915023       17.6471866319
H         15.6260017841       29.5844323542       17.1021495219
H         13.7161159865       29.4166030751       15.5931941365
H         13.2361238600       29.7858549829       17.2742385398
H         12.1790146948       30.2484472537       15.9215316816
    84
VM2 Rank=27     G=220.533           E=124.640           -TS=95.893              
C         20.1135418609       25.8515243894        5.6878102104
C         19.9766304924       24.7369645072        6.5431243835
C         20.4928872399       27.0872609274        6.2506653827
C         19.8651765471       25.7505705008        4.2012453669
C         20.2096300562       24.8598366652        7.9231581803
C         20.7272776168       27.2088118223        7.6299626151
C         19.4539979168       24.4120257314        3.5982919442
O         19.9857374361       26.7207522526        3.4699511061
C         20.5815245155       26.0971088782        8.4794823755
N         20.8126290231       26.2217409662        9.8781160973
C         21.9623788279       26.9526056585       10.3998012221
C         20.0398888946       25.6812727824       10.8890197132
C         21.8203481352       26.8159605375       11.9254288297
O         19.0228646922       25.0198006837       10.7716265173
O         20.6179228641       26.0177532766       12.0771256753
C         21.7198265083       28.1859496000       12.6229825055
N         20.4559488459       28.5580313812       13.0239400503
O         22.6735773354       28.9357729313       12.7428295521
C         20.0434264626       29.9603800055       13.1723316881
C         20.3380327968       30.4629565837       14.6130102090
C         18.5578709039       30.1036027514       12.7503368053
O         19.6109148039       29.6746658474       15.5514720814
C         20.0084717885       31.9650633446       14.7998684056
C         18.2943472650       29.5317581967       11.3626829966
N         20.5296138456       32.5651409381       16.0605037885
C         17.6330968199       28.2984096713       11.2140597302
C         18.7326932397       30.2227776477       10.2183616385
C         22.0044882376       32.5784748368       16.2342609937
S         19.6515505959       32.3746730165       17.5202426043
C         17.4100238165       27.7635920718        9.9344963385
C         18.5094584940       29.6887256620        8.9383493444
C         22.8057574613       33.1853184789       15.0522356898
O         20.1257635197       31.1572820496       18.1891385986
C         17.9155288928       32.2022429571       17.0307223730
O         19.7559335994       33.6917667113       18.1607309839
C         17.8472542330       28.4588529838        8.7962732659
C         22.3968415281       34.6510822953       14.7804027202
C         24.3189202100       33.1100254000       15.3457343772
C         17.2509297929       30.9682810467       17.1648265328
C         17.2183024682       33.3072209291       16.5036438501
C         15.9133811091       30.8380969102       16.7615926580
C         15.8779947446       33.1780667375       16.1008010475
C         15.2150612290       31.9390015842       16.2245216027
F         15.3066951703       29.6373428192       16.8957026211
O         13.8976629785       31.7704622684       15.8354310472
C         13.1011951846       32.8199927634       15.2517042804
H         19.6885405613       23.7661477365        6.1510903511
H         20.6046524216       27.9627330007        5.6156475805
H         20.0994341079       23.9856084081        8.5597691902
H         21.0068972331       28.1770805091        8.0352283049
H         19.3141115189       24.5154511362        2.5159337673
H         20.2318242734       23.6628675401        3.7841864136
H         18.5127172123       24.0732416404        4.0455544397
H         21.9239351189       28.0064362082       10.0952968802
H         22.8976015130       26.4973845982       10.0501613523
H         22.6848641844       26.2869492117       12.3449893355
H         19.7314667886       27.8672672273       12.8718200657
H         20.6464347416       30.5652865774       12.4798293689
H         21.4142597017       30.3243866271       14.7817739451
H         17.9139173722       29.6095685540       13.4894718251
H         18.2686416723       31.1610655593       12.7583818053
H         19.8224067023       28.7449287615       15.3281236607
H         20.4258615627       32.5096118599       13.9449399349
H         18.9247053345       32.1011264532       14.7262816156
H         17.2945115185       27.7503394610       12.0893299626
H         19.2491415808       31.1732766158       10.3214728358
H         22.2503498067       33.1588767222       17.1345092370
H         22.3574589452       31.5549243831       16.4200569541
H         16.9048798371       26.8068854829        9.8260751849
H         18.8512963280       30.2262089289        8.0575004134
H         22.6221070198       32.5922498919       14.1459440637
H         17.6791794184       28.0418381896        7.8063942306
H         22.9733805026       35.0699641628       13.9458527936
H         21.3338220075       34.7273354488       14.5204109280
H         22.5724072930       35.2790338561       15.6632932079
H         24.5793598294       33.6889876521       16.2412726960
H         24.6352972062       32.0715027903       15.5080454777
H         24.9009731059       33.5074603408       14.5043002413
H         17.7740142421       30.1054813218       17.5683553529
H         17.7214860935       34.2661655149       16.3998071424
H         15.3672759206       34.0451655059       15.6937874452
H         12.0958394941       32.4447077010       15.0223844603
H         13.0017609773       33.6640574508       15.9463967299
H         13.5549217815       33.1778436711       14.3183970556
    84
VM2 Rank=28     G=220.542           E=124.930           -TS=95.613              
C         21.5041580607       24.3911569170        5.1407030849
C         21.9358884079       25.6625278017        5.5759891067
C         20.8524935815       23.5503606760        6.0661157811
C         21.7236408483       23.9173463160        3.7232186355
C         21.7183229001       26.0786269903        6.8999875394
C         20.6340812663       23.9677522217        7.3893345069
C         22.4274027680       24.8317938898        2.7267909342
O         21.3489123675       22.8145663190        3.3570367595
C         21.0603175902       25.2382398810        7.8167927912
N         20.8408618720       25.6616220674        9.1580137536
C         21.8793831452       26.3408181156        9.9238989852
C         19.6875953148       25.4808352078        9.8982700092
C         21.2280877493       26.5731472294       11.3002854753
O         18.6474194623       24.9614000867        9.5316109740
O         19.9116471667       25.9837139032       11.1446875037
C         21.1567364815       28.0623273752       11.6957582104
N         19.9780184636       28.4606295708       12.2885485791
O         22.0559180897       28.8525740518       11.4608424695
C         19.5143616125       29.8542893870       12.3448409537
C         19.0534455321       30.1966060550       13.7900676140
C         18.4260119407       30.0893836880       11.2623510594
O         17.9282050909       29.3960332233       14.1686183328
C         18.7188647729       31.6999149708       13.9815775859
C         18.8499303690       29.6305747871        9.8713421869
N         18.2141407857       32.0512404116       15.3340334083
C         18.2283506830       28.5211335599        9.2684055679
C         19.8724101802       30.3071673731        9.1813161714
C         17.5479208308       33.3742256623       15.3875397531
S         19.0812229670       31.4704850711       16.6959626775
C         18.6191730387       28.0974784448        7.9873725283
C         20.2672670382       29.8817393763        7.9019244699
C         16.0897811778       33.2766771748       15.8997391842
O         18.5790971569       30.1055777081       16.8989408353
C         18.5758331154       32.4832949511       18.1126743194
O         20.4896174288       31.7672965117       16.4097986915
C         19.6371600960       28.7794458472        7.3027371423
C         15.5160817893       34.6851738788       16.1578802828
C         15.1956049011       32.5099875694       14.8998826708
C         19.2294031510       33.7011116295       18.3851520843
C         17.5429055711       32.0507496406       18.9681754688
C         18.8353146658       34.4863755962       19.4792130973
C         17.1475999649       32.8373188792       20.0638227126
C         17.7896035688       34.0655596460       20.3259133648
F         19.4758587975       35.6553128626       19.7040491815
O         17.4269925446       34.8698591397       21.3920573518
C         16.3599556936       34.5455483343       22.3047262041
H         22.4425879710       26.3413376947        4.8965312440
H         20.5118962274       22.5644541524        5.7590609602
H         22.0569390649       27.0646871498        7.2053015189
H         20.1327984279       23.2962904330        8.0817792717
H         23.4369060519       25.0667764208        3.0824590171
H         22.5024377390       24.3366269762        1.7516263257
H         21.8611338461       25.7624093263        2.6079696086
H         22.1476059140       27.2924162116        9.4473705584
H         22.7691572033       25.7049699317       10.0128566648
H         21.7859774125       26.0460313631       12.0837539809
H         19.2923306608       27.7337728036       12.4546949083
H         20.3632728053       30.5121522374       12.1121011958
H         19.9002356482       29.9527260872       14.4462956374
H         17.5046276101       29.5723073072       11.5591263723
H         18.1721488520       31.1543627867       11.2167898684
H         17.8375516984       29.5004545948       15.1444681649
H         19.6188838142       32.2896529353       13.7620764700
H         17.9579633934       31.9755089683       13.2418165254
H         17.4433533419       27.9832465593        9.7934940679
H         20.3652937278       31.1600871246        9.6398946514
H         18.1221854744       34.0699472487       16.0109659886
H         17.5171502860       33.8277876520       14.3873963594
H         18.1358296158       27.2385048218        7.5281194373
H         21.0588753948       30.4081906423        7.3747997954
H         16.0729528525       32.7304233852       16.8498457774
H         19.9382498937       28.4526096415        6.3106586753
H         16.1178415297       35.2232364266       16.9018382705
H         15.4994504793       35.2818303024       15.2366429325
H         14.4893915389       34.6249185609       16.5412557120
H         15.5640637573       31.4875856518       14.7439478167
H         14.1656063018       32.4380433809       15.2715923612
H         15.1700977271       33.0126638301       13.9246916837
H         20.0386003676       34.0440044270       17.7459583754
H         17.0381207432       31.1060041469       18.7781522461
H         16.3430797508       32.4823049250       20.7003204877
H         15.4053430660       34.4575084636       21.7699617276
H         16.5664664528       33.6004487802       22.8234629505
H         16.2585738291       35.3355883096       23.0595360032
    84
VM2 Rank=29     G=220.567           E=124.472           -TS=96.096              
C         21.5010779468       24.4225948554        5.1829751768
C         20.7909093698       23.5912062414        6.0756307582
C         21.9644876156       25.6691079703        5.6512160083
C         21.7730540497       24.0105683771        3.7553239171
C         20.5499101361       24.0001834848        7.3979663209
C         21.7243366542       26.0765735491        6.9735908012
C         21.2693286524       22.6615504812        3.2545789102
O         22.3885716777       24.7369750162        2.9910606337
C         21.0090896179       25.2480792491        7.8574392016
N         20.7654349467       25.6599701251        9.1980949526
C         21.8042884344       26.2911577404       10.0035560876
C         19.5853762993       25.5099944493        9.9021548956
C         21.1229076354       26.5235314513       11.3652431406
O         18.5387275793       25.0331456052        9.4979463851
O         19.7904389923       25.9870060271       11.1619512188
C         21.0964486167       28.0069953097       11.7866961489
N         19.9158554641       28.4405176615       12.3503190844
O         22.0322758353       28.7655812492       11.5944281387
C         19.5042818124       29.8499892585       12.4170673451
C         19.0206740115       30.1882603142       13.8561276221
C         18.4550262267       30.1427762321       11.3100577270
O         17.8533101512       29.4308176154       14.1909852928
C         18.7429179004       31.7014449902       14.0641741778
C         18.8968688524       29.6846398636        9.9243972531
N         18.2225371522       32.0729710437       15.4126665003
C         18.2452746349       28.6110656519        9.2890980082
C         19.9660060325       30.3254893718        9.2719559226
C         17.7712608470       33.4893754691       15.5184014393
S         19.0851950981       31.4331500462       16.7520844303
C         18.6528421223       28.1877885186        8.0131695261
C         20.3775700660       29.9001243488        7.9978252642
C         16.6946615837       33.9280044686       14.4892581061
O         18.5733300788       30.0638483831       16.8936436956
C         18.5207778330       32.3596044364       18.2024398495
O         20.5011738016       31.7310610407       16.5068212410
C         19.7177022322       28.8339673254        7.3661701422
C         15.4569817988       33.0019633983       14.5273509213
C         16.2652760717       35.3846917483       14.7657097268
C         19.2851478746       33.4296408687       18.7065549750
C         17.3019632990       32.0272972427       18.8257953888
C         18.8347025280       34.1555903696       19.8199007682
C         16.8505726411       32.7549137046       19.9404073767
C         17.6151899298       33.8268322058       20.4468141637
F         19.5906895420       35.1784649344       20.2777585422
O         17.2041774695       34.5682776020       21.5406943645
C         15.9743688847       34.3222107039       22.2504984489
H         20.4188476590       22.6219018848        5.7574402225
H         22.5150977384       26.3294329614        4.9855691778
H         20.0042963844       23.3387025383        8.0661429770
H         22.0899840413       27.0452339298        7.3023711644
H         20.1776911422       22.6149793350        3.3381314534
H         21.5497506320       22.5230598069        2.2038889856
H         21.7112524783       21.8531323076        3.8478540040
H         22.1170551217       27.2407143358        9.5506447785
H         22.6696476899       25.6244008007       10.1060564271
H         21.6380686983       25.9615817446       12.1537463591
H         19.1979446781       27.7380104285       12.4813702817
H         20.3835844999       30.4777504732       12.2162195698
H         19.8403799536       29.8970022154       14.5271354021
H         17.5060662249       29.6597840816       11.5757292522
H         18.2454930973       31.2176122456       11.2716912992
H         17.7572910801       29.5075134588       15.1690669011
H         19.6717538906       32.2534623452       13.8676916497
H         18.0204094807       31.9979597377       13.2995649269
H         17.4238548921       28.1006295158        9.7850508640
H         20.4821230971       31.1502529913        9.7557779627
H         17.3270346923       33.6708328114       16.5034938040
H         18.6401337522       34.1563563616       15.4313236362
H         18.1461328724       27.3565197087        7.5288182349
H         21.2053133783       30.3986787302        7.4998855413
H         17.1226218998       33.9068417272       13.4782005292
H         20.0320074371       28.5072536512        6.3781113545
H         15.7238673483       31.9681874223       14.2727560589
H         14.9990650974       32.9958448544       15.5246856686
H         14.6980236597       33.3335518083       13.8074425791
H         15.5317041269       35.7236916374       14.0229023568
H         15.8099907674       35.4838189214       15.7596983018
H         17.1263620072       36.0636493721       14.7169224449
H         20.2260825116       33.7024500598       18.2364233513
H         16.7014616178       31.2053495925       18.4418452669
H         15.9069831785       32.4775427981       20.3999290036
H         15.9654168993       33.3085986035       22.6717903135
H         15.8678993603       35.0373681901       23.0759721366
H         15.1108931345       34.4383275482       21.5827309537
    84
VM2 Rank=30     G=220.569           E=121.362           -TS=99.207              
C         21.0354048641       24.5161374122        7.4441798404
C         20.2242838836       23.9715340764        8.4630513349
C         21.5564565598       25.8140569201        7.6224145829
C         21.3533766907       23.7483095614        6.1827699649
C         19.9414899350       24.7090619006        9.6249342697
C         21.2747233989       26.5499697364        8.7848521384
C         20.7871450347       22.3452441514        5.9953754021
O         22.0552475522       24.2286876058        5.3068760678
C         20.4595281814       26.0058829454        9.7938908170
N         20.1716065990       26.7524167273       10.9705226354
C         21.2063335945       27.5092399598       11.6662990508
C         18.9446333084       26.8531852426       11.5993472599
C         20.4772286548       28.0726538380       12.8969513466
O         17.8880738991       26.3584939327       11.2468859119
O         19.1053588658       27.6479188535       12.6939848434
C         20.6144712544       29.6013931578       13.0156364453
N         19.4861137289       30.3262041513       12.7061035104
O         21.6625377037       30.1565497039       13.2946644796
C         19.5232337103       31.7057515457       12.1938829522
C         19.3698647931       32.7567625724       13.3309150076
C         18.4752024161       31.8615922000       11.0657279847
O         20.4566528653       32.6110472335       14.2429614763
C         18.0076243072       32.6491449816       14.0708797381
C         18.6804308427       30.8414029900        9.9521294671
N         17.8875535718       33.4604277198       15.3143387364
C         17.8374049955       29.7185520235        9.8517127576
C         19.7332597855       30.9984186987        9.0324395659
C         18.0641423212       34.9262750062       15.1665886015
S         18.3981099517       32.8200939177       16.8227168252
C         18.0419636560       28.7662112291        8.8397551082
C         19.9385983016       30.0462768927        8.0199533576
C         17.1342090838       35.5956810783       14.1206451462
O         19.6851792617       33.4387561856       17.1638622257
C         18.6520768049       31.0408701529       16.5738708376
O         17.2206465323       32.9691493095       17.6866895712
C         19.0911195887       28.9311176336        7.9220630540
C         15.6428455965       35.3700603932       14.4586119987
C         17.4305175128       37.1080159624       14.0400525148
C         19.9518637839       30.4999579991       16.5340825707
C         17.5446503015       30.1814750718       16.4272370577
C         20.1393802206       29.1250922325       16.3279769881
C         17.7327665784       28.8065238163       16.2046983955
C         19.0348575969       28.2683492597       16.1477305509
F         21.3995126047       28.6382885385       16.2823756208
O         19.2637868708       26.9241902281       15.9123570452
C         18.2215324353       25.9925752508       15.5630049430
H         19.8045109042       22.9746045629        8.3675682278
H         22.1835773330       26.2586995289        6.8534845192
H         19.3164759488       24.2655395985       10.3958940818
H         21.6827851053       27.5514884884        8.8884659994
H         21.1416976476       21.6881449700        6.7974507577
H         19.6919617212       22.3779330951        6.0135216174
H         21.1127316076       21.9350312279        5.0323145444
H         21.5823298425       28.3208823160       11.0298647970
H         22.0337891376       26.8528431859       11.9641157451
H         20.8801394247       27.6222806538       13.8124099910
H         18.6658399892       29.7697892461       12.5001826919
H         20.5094276190       31.8722724197       11.7362861276
H         19.4293836423       33.7555057484       12.8782289262
H         17.4621721859       31.7601365747       11.4730364029
H         18.5369230807       32.8756853369       10.6505827170
H         20.9133643108       31.7716312918       13.9946199170
H         17.2249655722       32.9665602054       13.3731593867
H         17.7914640926       31.5962678098       14.2714587265
H         17.0247952398       29.5790691198       10.5596532182
H         20.3948635827       31.8575083913        9.1045907406
H         17.8751537355       35.4075487262       16.1362353886
H         19.1113311409       35.1396029223       14.9110078193
H         17.3904712808       27.8983782443        8.7704068314
H         20.7539128107       30.1726456484        7.3121373707
H         17.3381121275       35.1706580674       13.1287965020
H         19.2503459315       28.1927152272        7.1401217125
H         15.3954297174       35.7832650096       15.4448406677
H         14.9954812710       35.8531535551       13.7157509049
H         15.3944002617       34.3014890449       14.4701833074
H         17.2374511747       37.6021354568       15.0010865923
H         18.4791096763       37.2881181282       13.7701112546
H         16.8029638264       37.5899734655       13.2793734056
H         20.8185652188       31.1449080151       16.6515314979
H         16.5357700023       30.5863919824       16.4679877225
H         16.8617424543       28.1713259937       16.0778471744
H         17.7069014773       26.3116665042       14.6472262684
H         18.6508394607       24.9982739491       15.3871001204
H         17.4867029708       25.9097158761       16.3740370868
