    77
VM2 Rank=1      G=193.459           E=107.272           -TS=86.187              
C         22.0828899703       24.3141196143        6.0468665705
C         21.7526090167       25.6572365044        6.3051899010
F         22.0221476408       23.8161169832        4.7915890453
C         22.4789819671       23.4762746817        7.1010244775
C         21.8196156444       26.1596229338        7.6142842512
F         21.3619695102       26.4768626023        5.3037412750
C         22.5425142345       23.9792753034        8.4122065113
C         22.2107869440       25.3225031903        8.6773444751
N         22.2681355203       25.8281974660       10.0044630761
C         21.7385210297       25.2290437888       11.1313051430
C         22.9407630352       27.0840817950       10.3165872420
O         22.0099995792       26.0380337892       12.1943667945
O         21.1392520608       24.1695031400       11.1925742169
C         22.6512331256       27.2842146626       11.8146492872
C         21.7514804554       28.5120332172       12.0611579193
O         22.1089709977       29.6496214436       11.8053920669
N         20.4814382451       28.2424996188       12.5184961082
C         19.3612189551       29.1860272772       12.4192161908
C         18.0739321113       28.4265454615       12.0103614171
C         19.2190567655       30.0088614569       13.7302526690
C         18.2466894065       27.6548330361       10.7077224509
C         18.2205051351       31.1857012668       13.5671864184
O         18.8175022351       29.1633566306       14.8125917365
C         18.2525157671       28.3368142004        9.4772008688
C         18.4164902681       26.2579294334       10.7235290659
N         18.3547940637       32.2643279446       14.5840421423
C         18.4198317300       27.6296996665        8.2747134647
C         18.5842195107       25.5499916634        9.5218506139
S         17.5503622764       32.0179411562       16.0717948350
C         19.6680116974       32.9624799318       14.6491944099
C         18.5816714830       26.2352323740        8.2967488465
O         16.1595771403       31.7332796421       15.6982049073
C         17.5335721252       33.6590745880       16.8304288638
O         18.3600883768       31.0622002092       16.8389994844
C         20.1893350883       33.5042983023       13.2924582989
C         16.7282889463       34.6799426197       16.2885726198
C         18.3429176309       33.9348929829       17.9501392428
C         21.5744393811       34.1574293704       13.4820189570
C         19.2073491730       34.5275099912       12.6774491775
C         16.7314664781       35.9619465705       16.8638158285
C         18.3419840578       35.2185959577       18.5218941543
C         17.5372739268       36.2330201659       17.9804327163
N         17.5395972934       37.4948273665       18.5439422589
H         22.7339430990       22.4393938124        6.9007882056
H         21.5474118538       27.1945451182        7.7977716091
H         22.8493594796       23.3218060781        9.2221608902
H         22.5352885574       27.9106966712        9.7191242170
H         24.0192880739       26.9903102246       10.1376262499
H         23.5809339511       27.4304754388       12.3779618976
H         20.2776392271       27.2760299133       12.7376840354
H         19.5928344993       29.8950849124       11.6116765117
H         17.7799450763       27.7431286492       12.8173687883
H         17.2446914416       29.1351733982       11.8997447724
H         20.2139934019       30.4219821853       13.9403802333
H         18.3575908854       31.6180195506       12.5689474024
H         17.1982466982       30.7852526860       13.5805847279
H         18.8396064364       29.7071793022       15.6351929191
H         18.1278805615       29.4160400672        9.4531559647
H         18.4223344295       25.7189189457       11.6672296895
H         18.4233169197       28.1618085112        7.3267292697
H         18.7198148067       24.4713456111        9.5417050484
H         19.6015406631       33.8202377209       15.3302273371
H         20.4209194625       32.2876477987       15.0781593229
H         18.7113114687       25.6875521255        7.3666634152
H         20.3185754759       32.6694493303       12.5899111380
H         16.1050745893       34.4789243080       15.4202565245
H         18.9731287595       33.1569134949       18.3746755910
H         22.2959355794       33.4356278884       13.8862597232
H         21.9693500769       34.5211994037       12.5246871615
H         21.5214625387       35.0093417432       14.1723440527
H         19.0581083595       35.3832241724       13.3485196246
H         19.5879615269       34.9086879965       11.7213189157
H         18.2264524754       34.0747931609       12.4867272085
H         16.1087446805       36.7454946812       16.4408125182
H         18.9682145106       35.4258416310       19.3853867096
H         16.9621741464       38.2338167540       18.1581736411
H         18.1197467795       37.6994528602       19.3501082354
    77
VM2 Rank=2      G=193.472           E=106.628           -TS=86.844              
C         22.7323111298       24.3188326502        6.1241658845
C         21.6142909891       25.1715268251        6.1716568164
F         22.9249121711       23.4882490351        5.0751190754
C         23.6622186759       24.3270488494        7.1752238554
C         21.4280841639       26.0287189432        7.2676693421
F         20.7063967190       25.1756344770        5.1701628522
C         23.4733836317       25.1836083586        8.2738110595
C         22.3529702422       26.0366892107        8.3306451818
N         22.1622134957       26.9031536170        9.4431320749
C         22.3341016885       26.5787525942       10.7760060035
C         21.7684951249       28.2960752325        9.2658631059
O         22.0862540686       27.6996855123       11.5107761926
O         22.6489869768       25.4957701193       11.2384338839
C         21.7482656799       28.8545200246       10.6994550189
C         20.3880466824       29.4738014423       11.0747717196
O         19.8678856374       30.3602526486       10.4192236522
N         19.7612487836       28.9150231075       12.1673151942
C         18.3081128918       28.9802119281       12.3933685505
C         17.7650341286       27.5366982520       12.5419485565
C         17.9617491356       29.8894502404       13.6065371506
C         18.1711036957       26.6290035627       11.3858284410
C         18.3905590483       31.3633263112       13.3612663767
O         16.5569609601       29.8443798567       13.8655574151
C         17.6439520406       26.8427909623       10.0989970672
C         19.0855994405       25.5791470725       11.5909660943
N         18.4902691768       32.2003193827       14.5877895290
C         18.0218473388       26.0132385046        9.0300075171
C         19.4616029324       24.7469976639       10.5234807985
S         17.0424037621       32.9052810286       15.1587580422
C         19.4695819543       31.7582538326       15.6178515727
C         18.9276538306       24.9620250925        9.2433481591
O         16.5008183050       33.6294609244       14.0024541522
C         17.6070153791       34.1736793506       16.3170030952
O         16.2877426533       31.8391226664       15.8308319915
C         20.9017851664       31.4890796979       15.0851344750
C         18.2620461347       35.3256330661       15.8392912433
C         17.4193531683       34.0072650006       17.7033459429
C         21.8078139644       30.9931928972       16.2314595995
C         21.5148813261       32.7540990117       14.4423924890
C         18.7211769100       36.3014473085       16.7400844972
C         17.8800024899       34.9864707470       18.5998780093
C         18.5308308116       36.1337887183       18.1204104104
N         18.9840374946       37.0942942728       19.0045779109
H         24.5266128577       23.6700712836        7.1371435744
H         20.5550355574       26.6735009978        7.2897980902
H         24.2024352870       25.1824235963        9.0805097802
H         20.7729744181       28.3591878701        8.8074060916
H         22.4999797813       28.8294772872        8.6457726407
H         22.5133882726       29.6317721341       10.8164486659
H         20.2798982183       28.1767076410       12.6271954933
H         17.8308627894       29.4215250768       11.5069684250
H         18.1111950894       27.1171060260       13.4948687631
H         16.6698757093       27.5642417448       12.6062402182
H         18.5085946794       29.4918935560       14.4708946790
H         19.3612476754       31.3724030867       12.8549711712
H         17.6887469068       31.8162890019       12.6483826366
H         16.3918209872       30.3655877176       14.6872317193
H         16.9409236802       27.6536481830        9.9279735366
H         19.5078217713       25.4069375660       12.5773690840
H         17.6100588732       26.1828767982        8.0383369699
H         20.1701504834       23.9389034865       10.6884497433
H         19.5588711437       32.5216379913       16.4008932079
H         19.0957423688       30.8519781737       16.1128012111
H         19.2178816003       24.3171365554        8.4176959318
H         20.8672613057       30.6913032933       14.3310409373
H         18.4178712182       35.4600722772       14.7713778296
H         16.9199625705       33.1199092866       18.0852420900
H         21.4057990511       30.0758742694       16.6805356807
H         22.8170656605       30.7687063784       15.8629975910
H         21.8966327650       31.7488036221       17.0228446627
H         21.5710865891       33.5767225320       15.1669065647
H         22.5299575401       32.5540571694       14.0765743613
H         20.9171664433       33.0976249164       13.5889437978
H         19.2264688511       37.1874734628       16.3655275198
H         17.7326362449       34.8530020822       19.6681475551
H         19.4563738196       37.9255750904       18.6666371734
H         18.8516070550       36.9804398549       20.0034986046
    77
VM2 Rank=3      G=193.496           E=106.844           -TS=86.652              
C         22.1554588112       23.2486190078        6.2833329399
C         21.8818630822       24.6260632005        6.1989866462
F         22.1625024188       22.4754257331        5.1744594739
C         22.4259507720       22.6653476653        7.5307911129
C         21.8786712989       25.4160954557        7.3593960774
F         21.6168073271       25.2053828992        5.0067427683
C         22.4195773331       23.4567191865        8.6926707493
C         22.1413054052       24.8362386251        8.6164137397
N         22.1336274241       25.6355040024        9.7937250357
C         21.5584864290       25.3043508935       11.0060652760
C         22.7857242181       26.9390105116        9.8370026610
O         21.8121353184       26.3211668499       11.8766638985
O         20.9350729325       24.2919333444       11.2750902372
C         22.5234197648       27.4323283510       11.2728103968
C         21.7065644488       28.7400450240       11.3252837602
O         21.8671919631       29.6527964403       10.5320211534
N         20.7366721583       28.7921009770       12.3029900384
C         19.5881908824       29.7084462281       12.2759388530
C         18.3157139945       28.9477896633       11.8166532738
C         19.4325896500       30.4099139717       13.6544728327
C         18.5030026309       28.2060116537       10.4980367612
C         18.3199996357       31.4924988709       13.6367405313
O         19.1689254551       29.4401019093       14.6737219929
C         18.5293070807       26.7991658323       10.4707799582
C         18.6577989540       28.9218514631        9.2968774340
N         18.3755162727       32.4684630536       14.7593417285
C         18.7004758984       26.1154604181        9.2556271016
C         18.8327162886       28.2393908779        8.0814061483
S         17.6451096879       31.9939547117       16.2299713166
C         19.6083975303       33.2947930824       14.8672903023
C         18.8489527565       26.8356979100        8.0599346403
O         16.2859678473       31.5859344857       15.8543119110
C         17.4612216331       33.5456925279       17.1394904502
O         18.5784869294       31.0711372396       16.8893656641
C         19.9957133047       34.0571399318       13.5735281190
C         16.5381614559       34.5157430021       16.7022434296
C         18.2558857794       33.8058124126       18.2733607722
C         21.3052156242       34.8427594744       13.7954110626
C         18.8737931294       35.0234771584       13.1296646221
C         16.4104720246       35.7316236101       17.3948826546
C         18.1238021321       35.0232153323       18.9627825755
C         17.2020546407       35.9869652311       18.5252997286
N         17.0754976760       37.1838317807       19.2044201711
H         22.6393785271       21.6020790027        7.5953110249
H         21.6597595556       26.4758923220        7.2741938405
H         22.6330327834       22.9933733730        9.6529179649
H         23.8618249614       26.8346771848        9.6497857218
H         22.3434618088       27.6175252955        9.0964559105
H         23.4687940960       27.6079550199       11.8003861792
H         20.6837101176       27.9952275316       12.9260942459
H         19.7905614075       30.4946204996       11.5352933485
H         18.0144684693       28.2420168953       12.6012459797
H         17.4825186718       29.6522766655       11.7103245206
H         20.3932332516       30.8996440681       13.8593901451
H         18.3844898977       32.0359538795       12.6866093067
H         17.3426753148       30.9922801228       13.6285236740
H         19.1664814053       29.9133831251       15.5391848478
H         18.4196256779       26.2334038239       11.3923075568
H         18.6467931965       30.0083405579        9.3063428432
H         18.7204326818       25.0283916315        9.2422538861
H         18.9522760506       28.7985348643        7.1568755326
H         19.4856742030       34.0481628317       15.6555074470
H         20.4499304474       32.6610553469       15.1775789963
H         18.9783652073       26.3071835002        7.1187538457
H         20.1817208153       33.3359561926       12.7660938513
H         15.9249862140       34.3271772029       15.8240453101
H         18.9759881442       33.0673033017       18.6179012747
H         21.1889715993       35.5931155076       14.5882714722
H         22.1232712253       34.1692755325       14.0818107745
H         21.6087944896       35.3638922846       12.8783198667
H         17.9438186409       34.4829003007       12.9139340663
H         18.6591754891       35.7640732887       13.9109303701
H         19.1611800425       35.5645429658       12.2191659735
H         15.6972929284       36.4763413605       17.0522054236
H         18.7392783361       35.2186936931       19.8366882902
H         16.4128188412       37.8860179674       18.8943735073
H         17.6442845373       37.3767763769       20.0214883389
    77
VM2 Rank=4      G=193.579           E=106.838           -TS=86.740              
C         22.7904560218       23.8398744577        6.5714400895
C         22.1816137127       25.1053202098        6.4859260393
F         23.0246876961       23.1082408083        5.4590978808
C         23.1614125065       23.3262760420        7.8237206258
C         21.9450054937       25.8533174250        7.6500361000
F         21.8141112034       25.6149752335        5.2890650295
C         22.9212106644       24.0746528284        8.9892620122
C         22.3072732299       25.3407957893        8.9115095623
N         22.0626143013       26.0969523739       10.0916086377
C         21.5514988105       25.6169567130       11.2830171393
C         22.3663300309       27.5216493146       10.1610567190
O         21.5021597628       26.6575931265       12.1620078414
O         21.2003008670       24.4762798662       11.5306473820
C         21.9980275261       27.9029288645       11.6054185632
C         20.9635454364       29.0434485243       11.6664168693
O         21.1744576946       30.1448384839       11.1881702825
N         19.7495425565       28.7180116609       12.2312210341
C         18.4967224439       29.4246208230       11.9215764944
C         17.4112339210       28.3834426539       11.5536718703
C         18.0592012252       30.3621393443       13.0813408357
C         17.8526465306       27.4417954343       10.4388545035
C         19.1524632294       31.4133960701       13.4127493127
O         16.8495191791       31.0399992887       12.7341181617
C         18.1284489652       26.0896133019       10.7145676319
C         18.0008876142       27.9220053716        9.1247520952
N         18.7587955325       32.4610687542       14.3990945735
C         18.5397903220       25.2256265771        9.6861077494
C         18.4148534384       27.0594088570        8.0960361846
S         18.0671300057       31.8795844057       15.8586117508
C         19.7443439637       33.5717901419       14.5237253862
C         18.6806746270       25.7096133432        8.3761461861
O         16.6609077372       31.6267840762       15.5175958559
C         18.0903198777       33.2744609412       17.0131611614
O         18.9649132660       30.8263309677       16.3476261439
C         20.0997233344       34.3045141741       13.2017441103
C         19.1085215054       33.3825508876       17.9815065372
C         17.0995026882       34.2734904573       16.9363321826
C         21.0665712167       35.4724111434       13.4913846950
C         18.8365593784       34.8367559571       12.4864161547
C         19.1325451936       34.4778192073       18.8615215884
C         17.1284795163       35.3666584069       17.8186983303
C         18.1439277136       35.4706071830       18.7816789771
N         18.1710700604       36.5474005095       19.6473597192
H         23.6332772559       22.3499027521        7.8891293841
H         21.4659262427       26.8236872204        7.5646219683
H         23.2149628925       23.6667555893        9.9534332140
H         23.4314817777       27.6998443570        9.9666210144
H         21.7562253854       28.0819865381        9.4406857920
H         22.8905239237       28.2307038911       12.1524132791
H         19.6839562607       27.7746866545       12.5937408882
H         18.6608057570       30.0553222354       11.0362044780
H         17.1385574830       27.8119793958       12.4498346971
H         16.4979038244       28.9054086081       11.2409344382
H         17.8894278717       29.7351845618       13.9673681087
H         20.0407924702       30.8865943570       13.7852500695
H         19.4304514723       31.8722423214       12.4581428481
H         16.5348993692       31.4685558924       13.5649186260
H         18.0260369011       25.7059224868       11.7261125180
H         17.7948693164       28.9654379514        8.9014338614
H         18.7538375432       24.1825710719        9.9063182697
H         18.5266060527       27.4361675510        7.0824517206
H         19.3558459622       34.3454925831       15.1959670704
H         20.6689791149       33.1884965309       14.9770087449
H         18.9988465613       25.0406713651        7.5804589919
H         20.6246237884       33.6134759259       12.5283271758
H         19.8818952763       32.6211295475       18.0500346093
H         16.3112273146       34.2041792508       16.1902887090
H         20.6041333557       36.2172871779       14.1520692153
H         21.9834833638       35.1116086892       13.9750135144
H         21.3574220930       35.9788408707       12.5620307488
H         18.2821779157       35.5320178815       13.1296064026
H         19.1037370276       35.3668923877       11.5635122016
H         18.1591938013       34.0177171636       12.2123878936
H         19.9208058482       34.5559409448       19.6053515145
H         16.3621586868       36.1342319817       17.7532185281
H         18.9004999476       36.6294224595       20.3470403199
H         17.4597580787       37.2684242652       19.5973003634
    77
VM2 Rank=5      G=193.616           E=107.462           -TS=86.154              
C         22.8789101992       23.6846849775        6.6347246436
C         22.3147534097       24.9681617023        6.5173633102
F         23.1359225254       22.9389047468        5.5369008669
C         23.1808643013       23.1676952934        7.9040295251
C         22.0537856892       25.7307350055        7.6667241761
F         22.0139506043       25.4815156197        5.3035803579
C         22.9162946557       23.9307798263        9.0546607991
C         22.3467034760       25.2151545651        8.9448545113
N         22.0776419459       25.9863586828       10.1098277222
C         21.5037425816       25.5303341965       11.2819106357
C         22.4225084609       27.4014019724       10.1840191144
O         21.4523780348       26.5774615615       12.1530147888
O         21.1063438503       24.4029902596       11.5206581565
C         22.0119942452       27.8023186064       11.6116166157
C         21.0161712882       28.9782694437       11.6292742294
O         21.2783964356       30.0658228927       11.1447874912
N         19.7762629669       28.7015820919       12.1625540869
C         18.5579629918       29.4474368960       11.8103114992
C         17.4549590846       28.4413035013       11.3992686403
C         18.1095428886       30.3942031365       12.9578920856
C         17.9081790727       27.4869490778       10.3000391880
C         19.2176665903       31.4170386058       13.3255099137
O         16.9256455219       31.1018085499       12.5799513247
C         18.1254376352       27.9639499251        8.9943872481
C         18.1260082057       26.1255820120       10.5823994228
N         18.8024310550       32.4614785842       14.2967351004
C         18.5504771572       27.0893221111        7.9804486724
C         18.5482471261       25.2496217911        9.5685878588
S         18.0287209172       31.9412783373       15.7372728820
C         19.7221877010       33.6233336470       14.3308642601
C         18.7581203126       25.7306635821        8.2668039404
O         16.6157463635       31.7993105118       15.3626508859
C         18.1751806692       33.2934537161       16.9361371163
O         18.8366648181       30.8168342821       16.2241965063
C         18.9886106914       34.9628426753       14.0746116450
C         17.1329617664       34.2308679387       17.0851539443
C         19.3222490495       33.4037592734       17.7481375682
C         18.4379132478       35.0317952356       12.6327613304
C         19.9338480836       36.1520024411       14.3425649131
C         17.2514336380       35.2795529137       18.0128144082
C         19.4358137931       34.4541510292       18.6743642312
C         18.4032023442       35.3949162377       18.8057631224
N         18.5181646052       36.4283725440       19.7158712612
H         23.6183254798       22.1773641665        7.9941067605
H         21.6100320486       26.7152877787        7.5563774108
H         23.1566466825       23.5200435335       10.0323230600
H         23.4991709415       27.5458581952       10.0289863414
H         21.8572612530       27.9757107803        9.4384837269
H         22.8936479259       28.1013910474       12.1916371317
H         19.6678745842       27.7654195668       12.5332972979
H         18.7728436394       30.0757669226       10.9342210356
H         17.1307303717       27.8780324426       12.2833607231
H         16.5710403417       28.9921557216       11.0533434786
H         17.8988747281       29.7713316396       13.8380295837
H         20.0812380101       30.8717508002       13.7284819648
H         19.5452546631       31.8941250819       12.3921403856
H         16.6090689502       31.5575263429       13.3951499764
H         17.9645959234       29.0142452486        8.7661926593
H         17.9700516675       25.7439867833       11.5878814078
H         18.7156886168       27.4637242131        6.9733170587
H         18.7171990351       24.1994189809        9.7939883143
H         20.2580732644       33.6619115893       15.2869373507
H         20.4969968858       33.5197472313       13.5588034276
H         19.0846657938       25.0524593219        7.4824292328
H         18.1395491678       35.0512050095       14.7620211474
H         16.2356269806       34.1524204362       16.4758718628
H         20.1278260654       32.6789894214       17.6563949623
H         17.9128218315       35.9796161945       12.4592011615
H         19.2469192856       34.9515323814       11.8955557447
H         17.7258789088       34.2179754068       12.4429649436
H         20.2928540461       36.1395769572       15.3800593880
H         20.8073031992       36.1225966682       13.6784240823
H         19.4166580237       37.1065676291       14.1814787138
H         16.4474087609       36.0031579220       18.1156815623
H         20.3265484929       34.5367347480       19.2911612537
H         19.3463134911       36.5175512928       20.2941380139
H         17.7756630683       37.1112932852       19.8182684530
    77
VM2 Rank=6      G=193.617           E=106.934           -TS=86.683              
C         22.1341384982       23.4572971893        6.0575801609
C         22.4041451085       22.8557050544        7.3003627217
F         22.1473427615       22.7289357078        4.9187881455
C         21.8489781673       24.8298029519        5.9932166910
C         22.3861250093       23.6255173039        8.4744350000
F         22.6851525395       21.5357947107        7.3809006191
C         21.8321293712       25.5998952229        7.1690040351
C         22.0947725615       25.0029964963        8.4187903337
N         22.0772479768       25.7837792801        9.6088118358
C         21.5185639709       25.4214381491       10.8200773414
C         22.7026886218       27.0996480863        9.6688576394
O         21.7615241475       26.4269863253       11.7066626527
O         20.9149836431       24.3937168452       11.0760616017
C         22.4679898867       27.5516985442       11.1227964186
C         21.6631894981       28.8633124048       11.2292862902
O         21.8186012292       29.7987188222       10.4617680438
N         20.7080550606       28.8918658856       12.2223777080
C         19.5575634086       29.8061576772       12.2300850847
C         18.2808617769       29.0535515408       11.7687503607
C         19.4168080189       30.4764397810       13.6256335734
C         18.4584497023       28.3283710455       10.4394806652
C         18.3007965960       31.5554553103       13.6450793641
O         19.1683552463       29.4835186422       14.6263034330
C         18.4700803762       26.9218224913       10.3930254496
C         18.6213978511       29.0588470499        9.2482103008
N         18.3647832421       32.5046904688       14.7899358579
C         18.6352960425       26.2530120461        9.1688463160
C         18.7910350920       28.3911895000        8.0237993963
S         17.6504568581       31.9935257754       16.2561633594
C         19.5963350067       33.3319720177       14.9051865029
C         18.7933081029       26.9878049338        7.9833889912
O         16.2894170501       31.5884135229       15.8842399416
C         17.4690347834       33.5233189666       17.2025864281
O         18.5938255979       31.0597970726       16.8852795056
C         19.9676871196       34.1269446123       13.6264787936
C         16.5383153197       34.4993875212       16.7960507383
C         18.2730113451       33.7606182841       18.3348947971
C         21.2771046028       34.9111615347       13.8537737323
C         18.8382461408       35.1001791537       13.2181901675
C         16.4122889225       35.6985647297       17.5175139040
C         18.1425514065       34.9613710023       19.0532203595
C         17.2131606480       35.9311501028       18.6462976407
N         17.0882016913       37.1116262373       19.3538080976
H         21.6410899403       25.2940005064        5.0332578105
H         22.6011335564       23.1455952990        9.4247953612
H         21.6042246635       26.6603332027        7.1032545399
H         23.7752205105       27.0256260831        9.4494922193
H         22.2237814787       27.7858010937        8.9586380477
H         23.4242761367       27.7040015725       11.6378225849
H         20.6594338665       28.0764424906       12.8213546591
H         19.7496509434       30.6091342114       11.5049015616
H         17.9836519149       28.3378259895       12.5458125202
H         17.4482106838       29.7608131460       11.6773531058
H         20.3784036194       30.9646544018       13.8297396420
H         18.3539365668       32.1215553619       12.7075494097
H         17.3249901780       31.0523162554       13.6348089468
H         19.1741054957       29.9375855419       15.5019688089
H         18.3543684770       26.3446318466       11.3066730921
H         18.6219838852       30.1451657431        9.2724566319
H         18.6442817412       25.1660901747        9.1405861607
H         18.9175646302       28.9616324562        7.1071474818
H         19.4797516209       34.0654154649       15.7128933473
H         20.4429200992       32.6934760507       15.1910155492
H         18.9189487221       26.4704175767        7.0356472018
H         20.1472754946       33.4262982193       12.7997397552
H         15.9178725352       34.3284892822       15.9193426132
H         18.9990392896       33.0173222105       18.6559023343
H         21.1669875595       35.6415609191       14.6659115084
H         22.1001453079       34.2335476599       14.1150490502
H         21.5694361029       35.4555055130       12.9465653057
H         17.9077158158       34.5619801382       12.9989368826
H         18.6295818542       35.8206705160       14.0196093908
H         19.1144166555       35.6643646942       12.3183149211
H         15.6931595690       36.4480430707       17.1984662062
H         18.7652110507       35.1392686021       19.9257920169
H         16.4200009991       37.8180206953       19.0659676879
H         17.6636320622       37.2880881133       20.1699499422
    77
VM2 Rank=7      G=193.622           E=106.339           -TS=87.284              
C         20.7994061871       23.4468750690        6.6703063160
C         20.8471336622       24.8484607980        6.5582645908
F         20.5338923819       22.6752199907        5.5925628141
C         21.0306728184       22.8373155231        7.9130494201
C         21.1246701736       25.6364361023        7.6864483302
F         20.6252460081       25.4538371784        5.3701565738
C         21.3056210215       23.6273563356        9.0428736395
C         21.3496686885       25.0322907143        8.9393777462
N         21.6270799023       25.8306467066       10.0843817883
C         21.1011268251       25.6593570963       11.3510687102
C         22.5591628134       26.9505908679       10.0275398446
O         21.6569998821       26.6026086665       12.1618624410
O         20.2884926738       24.8228149980       11.7058206223
C         22.5545350230       27.5047867107       11.4650180600
C         22.0836455256       28.9713845539       11.5493140882
O         22.3834551237       29.8115417625       10.7171617555
N         21.2501597505       29.2640987949       12.6070230683
C         20.3546854979       30.4281347277       12.6528238497
C         18.9032456987       29.9917379459       12.3144990640
C         20.4862206420       31.1432334593       14.0270496362
C         18.7980599018       29.2065789398       11.0120209283
C         19.6705158930       32.4627083941       14.0799550202
O         20.0859069839       30.2596350064       15.0789208202
C         19.0256451564       29.8439102440        9.7786795014
C         18.4774176015       27.8363826214       11.0315392552
N         19.9599851306       33.3338088013       15.2544616026
C         18.9298539415       29.1210072136        8.5778713081
C         18.3774740798       27.1132554323        9.8313579589
S         19.1759979556       33.0067252566       16.7399137219
C         21.3526726226       33.8339948177       15.3859024402
C         18.6004332162       27.7564938354        8.6037667981
O         19.8971450060       31.8829042844       17.3521839922
C         17.4937304253       32.5348965927       16.2679644441
O         19.0671922290       34.3164882053       17.3941345628
C         21.9155655331       34.5494583315       14.1295571512
C         17.0911211897       31.1850118809       16.3065962550
C         16.5828540412       33.5160294758       15.8290209206
C         23.3719846355       34.9927834912       14.3819192452
C         21.0555639456       35.7729504797       13.7386904181
C         15.7929100401       30.8235604773       15.9087977448
C         15.2851578864       33.1494626251       15.4339156995
C         14.8886740146       31.8038692145       15.4722614906
N         13.6130182712       31.4453563773       15.0799663618
H         20.9961810881       21.7548547158        7.9987668056
H         21.1519642473       26.7163920186        7.5803519065
H         21.4857086867       23.1426808506        9.9994101183
H         23.5605658551       26.6018493340        9.7455873137
H         22.2121689090       27.7052633007        9.3102185878
H         23.5586960699       27.4509787411       11.9028304751
H         21.0661884113       28.5090421865       13.2567391412
H         20.6761657476       31.1431097936       11.8827417131
H         18.5037307624       29.3924515339       13.1426257908
H         18.2575980283       30.8747897600       12.2448509538
H         21.5491991638       31.3903380237       14.1478773905
H         19.8790545223       33.0234004427       13.1610301346
H         18.6029699657       32.2210796255       14.0335634265
H         20.2995416275       30.6995643682       15.9347484973
H         19.2814352949       30.8995986520        9.7515125364
H         18.3073741111       27.3292759687       11.9777094458
H         19.1074661087       29.6193676519        7.6282614598
H         18.1297789272       26.0547670464        9.8540832643
H         21.3983308029       34.5482158942       16.2198692616
H         22.0175623636       33.0022293771       15.6548121152
H         18.5200055491       27.1982294202        7.6743994540
H         21.9319100402       33.8457396107       13.2863203467
H         17.7843770517       30.4154266677       16.6373519481
H         16.8839185078       34.5603277136       15.7894489368
H         23.7950082748       35.4727707753       13.4900337225
H         23.4309654764       35.7088947747       15.2118488748
H         24.0067828310       34.1322677764       14.6296524497
H         21.4674703650       36.2742101853       12.8535772663
H         20.0255466023       35.4777957591       13.5031491273
H         21.0170186079       36.5045251811       14.5559921220
H         15.4902697631       29.7804216901       15.9378033814
H         14.5881507758       33.9110280119       15.0950255181
H         13.3194972920       30.4750863650       15.1023823125
H         12.9542242904       32.1473004873       14.7615526497
    77
VM2 Rank=8      G=193.684           E=106.742           -TS=86.942              
C         22.2227316241       24.4539803913        5.7980374559
C         23.3288340816       24.7209060811        6.6254663755
F         22.3276606661       23.5972215415        4.7576195953
C         20.9938984416       25.0829852455        6.0500992247
C         23.2038810971       25.6126096060        7.7027785118
F         24.5214242979       24.1274360099        6.3949510419
C         20.8700018226       25.9763970731        7.1281522963
C         21.9717655591       26.2434462130        7.9660628157
N         21.8439487011       27.1483856926        9.0572388186
C         22.3608602234       26.9812773718       10.3287062474
C         21.1386570670       28.4171873141        8.9171977836
O         22.0490255350       28.0931493022       11.0528029220
O         22.9855112268       26.0241367119       10.7524659239
C         21.3246335432       29.0910567681       10.2878125759
C         19.9870988528       29.4931459190       10.9386847326
O         19.1731011672       30.2066548572       10.3779295808
N         19.7370255501       28.9385150861       12.1750213888
C         18.3836648405       28.7558095418       12.7246280430
C         18.1833731681       27.2563114267       13.0597215620
C         18.1330218704       29.6914267444       13.9411071787
C         18.5148615630       26.3381371822       11.8880865988
C         18.1943975777       31.1905590024       13.5347643565
O         16.8558169116       29.4112654040       14.5179913440
C         19.6346235114       25.4875243611       11.9440602276
C         17.7119273527       26.3460208488       10.7327265520
N         18.3894049614       32.1394502706       14.6645650546
C         19.9431148595       24.6484798994       10.8604951507
C         18.0218066792       25.5101413227        9.6469526359
S         16.9897037440       32.6133137879       15.5222400102
C         19.6381766072       31.9813238898       15.4589738457
C         19.1358383877       24.6582313562        9.7123725881
O         16.0752921098       33.1179631456       14.4907478234
C         17.5273252550       34.0631316613       16.4593549343
O         16.6289292181       31.4910007668       16.3986853295
C         20.9437519881       31.9345555959       14.6218930373
C         17.8176782506       35.2686991404       15.7910901546
C         17.6840027538       33.9901308738       17.8575637721
C         22.1587627229       31.7210157546       15.5487189885
C         21.1349546449       33.2275137112       13.7966753464
C         18.2570403994       36.3895240551       16.5157670598
C         18.1232178813       35.1141683023       18.5775929038
C         18.4100652043       36.3142728445       17.9088069684
N         18.8431880808       37.4175379261       18.6193912435
H         20.1400304814       24.8764844013        5.4109820275
H         24.0692781213       25.8102769660        8.3286445961
H         19.9099059247       26.4497522516        7.3152453570
H         21.5828474899       29.0222035966        8.1167313226
H         20.0748717334       28.2436354316        8.7085985308
H         21.9330851204       29.9980382488       10.1858314868
H         20.4781606667       28.3512027023       12.5375936856
H         17.6485090039       29.0208016924       11.9516323888
H         18.7966527369       26.9966881269       13.9317432111
H         17.1425132624       27.0867935692       13.3632780892
H         18.9222834489       29.4817925849       14.6741301390
H         19.0094044419       31.3321166303       12.8174810630
H         17.2779643598       31.4398120713       12.9834523314
H         16.7717951421       29.9647875249       15.3307966267
H         20.2692119676       25.4765680134       12.8261462829
H         16.8477145764       27.0024726398       10.6764007414
H         20.8111839928       23.9955476712       10.9092496029
H         17.3971101127       25.5206289119        8.7574000121
H         19.7411378599       32.8158313422       16.1638640989
H         19.5710752202       31.0702109757       16.0684264289
H         19.3753516417       24.0089902609        8.8739733483
H         20.9064171031       31.0790619697       13.9341193947
H         17.7065278578       35.3331342527       14.7111428152
H         17.4683635511       33.0636783866       18.3846521924
H         23.0872808929       31.6546374073       14.9671742918
H         22.2645443762       32.5486817237       16.2620941151
H         22.0570567272       30.7897725113       16.1207329869
H         21.1814082405       34.1086653476       14.4495178932
H         22.0647606429       33.1864160876       13.2153046747
H         20.3089567974       33.3755071949       13.0899385200
H         18.4802113943       37.3164212803       15.9945060092
H         18.2423687872       35.0522727475       19.6558806519
H         19.0537147876       38.2880936306       18.1438427999
H         18.9574108501       37.3714175863       19.6259543949
    77
VM2 Rank=9      G=193.701           E=106.378           -TS=87.323              
C         21.8792531654       25.3891467298        5.7484682788
C         21.0246607610       26.4527259267        6.0916610666
F         21.8543081877       24.8544765208        4.5071120634
C         22.7706851850       24.8737259679        6.7020009516
C         21.0624148755       26.9976528052        7.3848334806
F         20.1572487242       26.9604032862        5.1877032942
C         22.8056842741       25.4180117823        7.9976784654
C         21.9488494418       26.4800421220        8.3500800187
N         21.9841248009       27.0300578015        9.6619281367
C         22.0530737525       26.3226432477       10.8477550850
C         21.9726813646       28.4711906823        9.8848736711
O         22.1008572290       27.2261199960       11.8672368715
O         22.0691110672       25.1116920728       10.9862100237
C         22.0885061823       28.6044792301       11.4132676129
C         20.9380131243       29.4280574185       12.0234906619
O         20.6956833952       30.5716790810       11.6779128170
N         20.1518277005       28.7651109901       12.9406499893
C         18.7602089223       29.1411744270       13.2377325717
C         17.8582647255       27.8963192897       13.0456324274
C         18.6272181626       29.7755265793       14.6511952078
C         18.0357551360       27.2429063463       11.6794093398
C         19.4520969520       31.0870449187       14.7697093253
O         17.2535204103       30.0509863157       14.9308814141
C         17.6005900626       27.9047451531       10.5165977836
C         18.6467834567       25.9801920915       11.5667636611
N         19.6203779442       31.6008763004       16.1585304126
C         17.7689862265       27.3091344229        9.2554223560
C         18.8127105117       25.3822995898       10.3064534254
S         18.3761177527       32.5523407268       16.8442771698
C         20.3209529180       30.7059945774       17.1158360262
C         18.3714738244       26.0453694553        9.1507156232
O         17.3117881919       31.6225269214       17.2452949674
C         17.8417520555       33.6343378931       15.4961764940
O         19.0643217464       33.4157316525       17.8119755957
C         21.6879437888       30.1573788169       16.6262629063
C         18.6580471298       34.7070672581       15.0865082542
C         16.6198003367       33.4023619150       14.8339492577
C         22.2916526178       29.2163085850       17.6897630835
C         22.6811972028       31.2994724927       16.3126195565
C         18.2545849313       35.5378855275       14.0275007219
C         16.2213663184       34.2356676079       13.7750025807
C         17.0368122842       35.3037845595       13.3705495475
N         16.6426931600       36.1213509155       12.3283778022
H         23.4319802712       24.0538779662        6.4359535543
H         20.3894571701       27.8124978360        7.6329938085
H         23.5025733040       25.0114927767        8.7266273922
H         21.0326979464       28.9090083754        9.5243466783
H         22.8238514773       28.9477748752        9.3823956701
H         23.0313759202       29.0963463249       11.6821158362
H         20.4395276716       27.8157709304       13.1445039620
H         18.4357169458       29.8973866818       12.5088359412
H         18.0659428430       27.1728242049       13.8439762271
H         16.8068084156       28.1854872196       13.1685322483
H         19.0111443793       29.0429718392       15.3729315431
H         20.4466377993       30.9117145834       14.3465745199
H         18.9993131719       31.8431409100       14.1172373277
H         17.1954982875       30.3462144642       15.8701541514
H         17.1316165468       28.8822386603       10.5914333706
H         18.9953850168       25.4603835859       12.4551244811
H         17.4295762497       27.8250884196        8.3608014288
H         19.2875797243       24.4074540648       10.2262294048
H         20.5003696360       31.2535468916       18.0515335766
H         19.6671740500       29.8615860644       17.3721310031
H         18.4993576703       25.5820510557        8.1756287338
H         21.5366200812       29.5620804136       15.7154838873
H         19.6055974109       34.8926813802       15.5869656064
H         15.9817521441       32.5749570092       15.1350456254
H         21.6146906195       28.3788333731       17.9022039064
H         23.2442345400       28.7948758109       17.3437291816
H         22.4791417134       29.7492307468       18.6309744975
H         23.6445402632       30.8980488273       15.9733887541
H         22.2981991626       31.9552231060       15.5208651895
H         22.8644930831       31.9170264285       17.2012210228
H         18.8893624472       36.3629089549       13.7159925778
H         15.2788796326       34.0499599290       13.2672309224
H         17.2262014670       36.8950489952       12.0298273267
H         15.7645066770       35.9587980982       11.8482013752
    77
VM2 Rank=10     G=193.735           E=106.918           -TS=86.817              
C         22.6892259878       24.0610584632        6.3112434842
C         23.1190546519       23.5516246063        7.5502483746
F         22.8991863071       23.3699338839        5.1685381474
C         22.0354260525       25.3014603072        6.2548021425
C         22.8927206910       24.2807793547        8.7285754713
F         23.7540851144       22.3603838536        7.6230285572
C         21.8102973563       26.0312909232        7.4347888473
C         22.2317578660       25.5241819144        8.6807291167
N         22.0014130368       26.2643151513        9.8743209619
C         21.5677354849       25.7567704519       11.0850537198
C         22.2395097176       27.7017691647        9.9385187827
O         21.5120619291       26.7902419159       11.9720766697
O         21.2800087850       24.6002903274       11.3412062536
C         21.9412497277       28.0556437938       11.4057694732
C         20.8827576332       29.1672109492       11.5411371612
O         21.0355647698       30.2787097253       11.0641490483
N         19.7131303609       28.8028739504       12.1718283862
C         18.4239653154       29.4702126671       11.9321561973
C         17.3562779627       28.3972007378       11.6059005311
C         18.0142962482       30.3824053436       13.1216627434
C         17.7793357097       27.4734741917       10.4691060200
C         19.0883077555       31.4658986916       13.4093016482
O         16.7674986113       31.0229215607       12.8413633020
C         18.0954643351       26.1262539060       10.7250727073
C         17.8734232668       27.9663971520        9.1547048153
N         18.7108039007       32.4914708900       14.4247781014
C         18.4940401804       25.2798228707        9.6772162962
C         18.2751296519       27.1215440153        8.1066391122
S         18.1110936212       31.8750271523       15.9104103910
C         19.6655147005       33.6322510548       14.5124478975
C         18.5826658456       25.7767523224        8.3675520429
O         16.6985341038       31.5796903971       15.6363230561
C         18.1465562493       33.2597301738       17.0768294713
O         19.0651832404       30.8472412057       16.3438329271
C         19.9315514558       34.3878369221       13.1823660786
C         19.2071157011       33.3921308800       17.9954120373
C         17.1218304548       34.2268355669       17.0588326059
C         20.8742126837       35.5834881591       13.4363009318
C         18.6182676554       34.8856914655       12.5358504252
C         19.2393955945       34.4797792940       18.8845653566
C         17.1592398128       35.3125261534       17.9500674695
C         18.2169128096       35.4407398981       18.8633933712
N         18.2521976616       36.5101385920       19.7378998659
H         21.7032625901       25.6942031240        5.2979271502
H         23.2346249906       23.8743984822        9.6760252914
H         21.2950560284       26.9862382309        7.3761682229
H         23.2804050327       27.9345238817        9.6807018338
H         21.5585968286       28.2347547988        9.2621373699
H         22.8544595383       28.3999586756       11.9064684832
H         19.6953635246       27.8543124445       12.5262293613
H         18.5233589109       30.1142367011       11.0467651257
H         17.1403207650       27.8144629219       12.5102255380
H         16.4147496940       28.8917679257       11.3350442283
H         17.9091723475       29.7424736451       14.0084402983
H         20.0106166864       30.9650902147       13.7317524436
H         19.3034698193       31.9419167935       12.4468984337
H         16.4806674843       31.4337097065       13.6909945951
H         18.0352207503       25.7331036262       11.7363682441
H         17.6359572763       29.0062223119        8.9463325912
H         18.7399986901       24.2407145652        9.8821738203
H         18.3455159048       27.5083509492        7.0931849234
H         19.2864106906       34.3869775471       15.2111052857
H         20.6231669364       33.2749322156       14.9156301906
H         18.8927242166       25.1215961121        7.5573252786
H         20.4439599746       33.7200668387       12.4766336802
H         20.0067863872       32.6555351966       18.0182129118
H         16.3004806024       34.1386494155       16.3514630468
H         21.1025159658       36.1072700131       12.4991271412
H         20.4218054988       36.3072212623       14.1267583007
H         21.8249030639       35.2479528914       13.8703627174
H         18.0748223056       35.5570479164       13.2128813453
H         18.8224377968       35.4323587340       11.6065223093
H         17.9543291919       34.0478460046       12.2869714086
H         20.0603213149       34.5767643586       19.5898420636
H         16.3665455918       36.0554522220       17.9300549395
H         17.5177023056       37.2092658022       19.7287894781
H         19.0131417766       36.6105592325       20.4006426224
    77
VM2 Rank=11     G=193.798           E=106.473           -TS=87.325              
C         20.8458612718       23.6579914110        6.4547570493
C         21.0629481646       23.0265999398        7.6931019603
F         20.6000056747       22.9317064524        5.3413866565
C         20.8859325102       25.0580159670        6.3680756769
C         21.3166430811       23.7947738551        8.8406739657
F         21.0326201760       21.6788583920        7.7945445831
C         21.1409442812       25.8262066938        7.5172717424
C         21.3523304231       25.2012813083        8.7631171041
N         21.6106691532       25.9803276168        9.9261898572
C         21.0831686420       25.7733267645       11.1870211565
C         22.5249296340       27.1159572338        9.8976851649
O         21.6232072241       26.7053765607       12.0211554843
O         20.2807833629       24.9180089633       11.5196977698
C         22.5255402189       27.6235702829       11.3521630530
C         22.0680223044       29.0905932316       11.4850054747
O         22.3753745816       29.9547138084       10.6805782655
N         21.2355436431       29.3556518973       12.5507809462
C         20.3395984384       30.5179377775       12.6252392769
C         18.8881212407       30.0897525999       12.2761353912
C         20.4706479617       31.2001186593       14.0161338177
C         18.7849440970       29.3229704088       10.9624830678
C         19.6527294112       32.5165740650       14.1004699681
O         20.0719998594       30.2910748352       15.0467489926
C         18.4488299894       27.9563496299       10.9617864677
C         19.0322014764       29.9727491944        9.7394211415
N         19.9386248420       33.3586294602       15.2968237481
C         18.3535500876       27.2490696743        9.7518768495
C         18.9417012112       29.2654431775        8.5289490371
S         19.1523011374       32.9938140903       16.7722358878
C         21.3302906998       33.8574483904       15.4432901412
C         18.5975181452       27.9043270316        8.5347894154
O         19.8753613610       31.8576306229       17.3588978003
C         17.4724412805       32.5284916351       16.2854133178
O         19.0383481398       34.2872125359       17.4574007388
C         21.8941957568       34.6052550829       14.2063853018
C         16.5595499454       33.5171770204       15.8681304992
C         17.0737858019       31.1768897755       16.2908055433
C         23.3494310590       35.0444370831       14.4724655486
C         21.0328466576       35.8368094039       13.8449075036
C         15.2638471187       33.1563460828       15.4613685235
C         15.7775652254       30.8212345572       15.8814651695
C         14.8713414641       31.8090498255       15.4665144670
N         13.5977032456       31.4562470016       15.0626564738
H         20.7189430781       25.5451050109        5.4114779839
H         21.4864831612       23.2904206010        9.7875115855
H         21.1635358111       26.9094579705        7.4346624038
H         23.5289485503       26.7940425633        9.5939739740
H         22.1570310272       27.8878314725        9.2095818527
H         23.5299293243       27.5464889895       11.7859691876
H         21.0455005054       28.5811719273       13.1753818280
H         20.6608083696       31.2513943680       11.8726387143
H         18.4848106426       29.4795499214       13.0943805094
H         18.2448371544       30.9753556955       12.2173746457
H         21.5332697243       31.4459746253       14.1425785114
H         19.8620503312       33.1003055546       13.1961853573
H         18.5856705998       32.2744714986       14.0459646680
H         20.2844896032       30.7110170829       15.9128243519
H         18.2638143922       27.4394460856       11.8997887782
H         19.3002524141       31.0256814290        9.7278490509
H         18.0942171444       26.1931597687        9.7589312480
H         19.1351451128       29.7732502214        7.5874861833
H         21.3733854629       34.5504554344       16.2951024340
H         21.9960162207       33.0201595009       15.6922631314
H         18.5214660719       27.3577286462        7.5982523238
H         21.9131796735       33.9230300470       13.3457200090
H         16.8575510674       34.5630112437       15.8542971632
H         17.7686168872       30.4016422798       16.6045946212
H         23.4057677110       35.7394742305       15.3203031092
H         23.9852240731       34.1789739863       14.6995546073
H         23.7732225340       35.5474597082       13.5937360366
H         20.0037515191       35.5459979049       13.6001119829
H         20.9916086824       36.5474852625       14.6803166993
H         21.4454917593       36.3608958055       12.9734651301
H         14.5653019132       33.9237506435       15.1392317337
H         15.4780220698       29.7768042984       15.8847245486
H         13.3070873840       30.4848457386       15.0610845028
H         12.9375054273       32.1636628050       14.7596333514
    77
VM2 Rank=12     G=193.890           E=107.959           -TS=85.930              
C         22.3730793602       24.6741571471        5.9069357384
C         22.0696602261       26.0006474717        6.2644036885
F         22.4292284312       24.3033035281        4.6081878718
C         22.6206871258       23.7203168750        6.9062536534
C         22.0146416571       26.3703978357        7.6174606323
F         21.8229030230       26.9318893045        5.3161411689
C         22.5617622483       24.0906586793        8.2611050358
C         22.2542437276       25.4164664776        8.6261567680
N         22.1885054444       25.7892638824        9.9972227207
C         21.5614556283       25.0860426652       11.0085888154
C         22.8273962313       27.0045671225       10.4895550432
O         21.7416242992       25.7798271799       12.1682488341
O         20.9516162644       24.0353150108       10.9109377549
C         22.4884299317       27.0116713280       11.9901960378
C         21.6828571407       28.2618025516       12.3933535563
O         22.1757863225       29.3758126269       12.4353268953
N         20.3388680391       28.0587477285       12.6154128465
C         19.3316735197       29.1192440278       12.4696649399
C         18.0283715846       28.5085759142       11.8935895379
C         19.1296434396       29.8711725669       13.8152549617
C         18.2699925928       27.7456263414       10.5966201733
C         18.1160552123       31.0403163271       13.6966902151
O         18.7091162734       28.9452034443       14.8185748656
C         18.2661919893       26.3383676367       10.5859848192
C         18.5162598088       28.4443957932        9.4006357235
N         18.2228879678       32.0698245979       14.7663294075
C         18.5001928268       25.6378110691        9.3911416771
C         18.7500840654       27.7444892168        8.2051496014
S         19.5496663315       33.1416647523       14.6633828961
C         17.8279412531       31.6536976689       16.1375163552
C         18.7395051179       26.3405295063        8.1999066921
O         20.7211848256       32.4659588570       15.2329790378
C         19.0195053226       34.5533233535       15.6604072418
O         19.5396473386       33.6086619861       13.2712393086
C         16.3733653887       31.1314309082       16.2584990118
C         17.9477689104       35.3592624777       15.2291990659
C         19.6553170450       34.8412825355       16.8841289892
C         16.0751583038       30.7312725639       17.7187642928
C         15.3494381248       32.1878148724       15.7833316221
C         17.5194946891       36.4434542486       16.0137387226
C         19.2235661897       35.9272201778       17.6646413106
C         18.1563127725       36.7291470188       17.2313251618
N         17.7329140055       37.7953647227       18.0018173079
H         22.8561404177       22.6964626324        6.6296550496
H         21.7671965439       27.3957146524        7.8740832587
H         22.7556667392       23.3431644508        9.0266007445
H         23.9125239857       26.9569088889       10.3334811946
H         22.4176600094       27.8917037350        9.9896684330
H         23.4054009984       26.9937365325       12.5919542537
H         20.0273100322       27.0980353692       12.5431639687
H         19.7096935741       29.8478402898       11.7378783377
H         17.5698479632       27.8474954204       12.6402485330
H         17.2965704555       29.3034312098       11.7065002495
H         20.1078946021       30.2858082515       14.0922511691
H         18.2670035723       31.5263140111       12.7240044381
H         17.1023303550       30.6250189777       13.6689808469
H         19.3404460632       28.1983948059       14.7598070387
H         18.0838280034       25.7849766818       11.5033640263
H         18.5267422143       29.5310259036        9.3980190771
H         18.5006666386       24.5504999212        9.3903819386
H         18.9396264722       28.2894514005        7.2837479760
H         18.5201053074       30.8821377130       16.5006256171
H         17.9230726435       32.5024050832       16.8263921875
H         18.9218339310       25.7980718415        7.2756228563
H         16.2630067857       30.2278715586       15.6434073832
H         17.4461299557       35.1406269262       14.2893681933
H         20.4803620178       34.2232863731       17.2305876829
H         16.1615390330       31.5932285998       18.3929135287
H         15.0595068399       30.3263378546       17.8137228548
H         16.7753925967       29.9585592532       18.0617088455
H         15.4368501219       33.1129049053       16.3676409346
H         15.5011916775       32.4401353851       14.7264307627
H         14.3234107947       31.8136118003       15.8901453738
H         16.6914462368       37.0607871072       15.6762992424
H         19.7175212941       36.1448902378       18.6076928682
H         18.1866147220       38.0078856610       18.8834725191
H         16.9616455172       38.3788477600       17.6968525806
    77
VM2 Rank=13     G=193.895           E=107.266           -TS=86.630              
C         22.3432573423       23.0668624452        6.4915173362
C         22.5069364384       24.4641606248        6.4938577075
F         22.5223371966       22.3511053079        5.3587744398
C         21.9912973153       22.4029692526        7.6767558184
C         22.3180924912       25.1937239782        7.6782648888
F         22.8440843703       25.1214607410        5.3617773166
C         21.7995959142       23.1347057868        8.8616932343
C         21.9562775439       24.5354041782        8.8704329715
N         21.7613109520       25.2748404830       10.0707753879
C         20.7411208459       25.0989910540       10.9867133466
C         22.6831253143       26.3292233063       10.4767463390
O         20.9473514070       25.9740729158       12.0103906787
O         19.8142441449       24.3102746733       10.9168390888
C         22.1053991776       26.8261576941       11.8155189938
C         21.7309149250       28.3224297341       11.7974343415
O         22.4097468984       29.1671601873       11.2372648690
N         20.5404942775       28.6409103783       12.4143823210
C         19.7832013305       29.8740756844       12.1576802406
C         18.5870411337       29.5673229083       11.2160109060
C         19.3769947828       30.5312164153       13.5076385093
C         18.9924337271       28.8194948039        9.9505425382
C         18.7380203455       31.9352029674       13.3324778851
O         18.4871672533       29.6817783655       14.2392169982
C         18.5988767011       27.4821178612        9.7575108417
C         19.7687849374       29.4584494698        8.9665245540
N         18.2801148776       32.5863417368       14.5947857176
C         18.9697266010       26.7940861152        8.5902666183
C         20.1438742061       28.7701954383        7.8006281055
S         19.4119047002       32.5993284305       15.8861192769
C         17.4880479491       33.8310020677       14.3837015172
C         19.7396596847       27.4393135306        7.6098400316
O         19.2806602674       31.2691929916       16.4954673552
C         18.7899286247       33.8017423941       17.0889948721
O         20.6727830972       33.0899072875       15.3165657186
C         16.2399235552       33.6854187878       13.4716840895
C         19.2975867656       35.1162390902       17.1118431575
C         17.7775926584       33.4350223001       17.9980732917
C         15.4775972086       35.0259710207       13.4056768342
C         15.2933379196       32.5700199697       13.9723185450
C         18.7969167422       36.0505638525       18.0343253193
C         17.2804764128       34.3734165951       18.9182540786
C         17.7886569879       35.6813313800       18.9378894139
N         17.2971049754       36.6027957946       19.8428245048
H         21.8674974313       21.3236511674        7.6752600779
H         22.4442222567       26.2716808542        7.6580895993
H         21.5300466034       22.6079255304        9.7739066315
H         23.6939702659       25.9245071652       10.6121601430
H         22.7008083833       27.1336053268        9.7302532821
H         22.8268993093       26.6724000011       12.6271412381
H         20.0498222481       27.8763672405       12.8625071627
H         20.4419818079       30.5839869417       11.6384402572
H         17.8347776497       28.9873153787       11.7656403053
H         18.0936276413       30.5015122313       10.9255109553
H         20.3079686510       30.6497118049       14.0787636203
H         19.4660719943       32.5862695450       12.8304090753
H         17.8888267005       31.8137016273       12.6552984489
H         18.4697066201       30.0415968949       15.1568442178
H         18.0065421109       26.9731202500       10.5133798423
H         20.0853188556       30.4882483289        9.1079853732
H         18.6623091788       25.7608658876        8.4480130890
H         20.7441199422       29.2696999479        7.0443946978
H         17.1102483890       34.2035351065       15.3427681973
H         18.1409783720       34.6128372198       13.9717559412
H         20.0239641779       26.9084657403        6.7047398472
H         16.5585827684       33.4477154610       12.4480854931
H         20.0762981629       35.4145374687       16.4138582168
H         17.3740582199       32.4251624076       17.9874226400
H         14.6120410431       34.9510796493       12.7348639150
H         15.1123283741       35.3251415797       14.3967889666
H         16.1248543558       35.8270636295       13.0260341301
H         15.7925463237       31.5925251619       13.9713331105
H         14.9515364605       32.7725588448       14.9953625838
H         14.4084682759       32.4894831079       13.3283181006
H         19.1918160159       37.0628158189       18.0462731284
H         16.4988825182       34.0844636790       19.6156217620
H         16.5682261506       36.3443764319       20.4988003302
H         17.6584616301       37.5500853447       19.8633159568
    77
VM2 Rank=14     G=193.916           E=107.644           -TS=86.272              
C         23.1903341326       24.0569377407        7.1691191858
C         22.1680462812       24.9760790025        6.8698861115
F         23.5472762054       23.1049213704        6.2782164790
C         23.8508984019       24.1247496298        8.4055267286
C         21.8086739034       25.9592466237        7.8052637406
F         21.5179165164       24.9240201585        5.6858742645
C         23.4881943975       25.1076170360        9.3428956020
C         22.4620757064       26.0285614651        9.0515436057
N         22.0948414848       27.0216067101       10.0016735488
C         21.9074912935       26.8294848035       11.3575863293
C         21.8969891284       28.4133303213        9.6135867235
O         21.6001341927       28.0375997530       11.9084416263
O         21.9973986205       25.7821405180       11.9745787851
C         21.5179583307       29.1091036366       10.9331125600
C         20.1183269364       29.7527362196       10.8806677615
O         19.7823900043       30.5225127390        9.9972364857
N         19.2511147086       29.3666438017       11.8790884811
C         17.7886209777       29.5189462124       11.8079179824
C         17.1367818601       28.1176703188       11.9138917431
C         17.2844155810       30.5099550215       12.8942586211
C         17.7011632900       27.1243623461       10.9039881266
C         17.8150965732       31.9507739734       12.6690397939
O         15.8572964298       30.5458765494       12.9318250869
C         17.4198946012       27.2715253818        9.5334476161
C         18.5203242356       26.0621780326       11.3300327099
N         18.2935741981       32.5830219133       13.9249666416
C         17.9454867514       26.3632370011        8.5993311136
C         19.0447415311       25.1521293971       10.3971879271
S         17.0971052458       33.2297685610       14.9635551834
C         19.5301735797       33.3917909295       13.7742197115
C         18.7541637971       25.3002094948        9.0319115619
O         16.6500714824       34.4977584231       14.3747365955
C         17.9847867095       33.4729980929       16.5196304861
O         16.1566457312       32.1289917774       15.2118495934
C         20.7934113300       32.5559489171       13.4335579636
C         18.4359966677       32.3591288775       17.2543042614
C         18.2542943829       34.7720581921       16.9935170132
C         22.0316153696       33.4733481092       13.3580863745
C         21.0343274610       31.4319906374       14.4673172438
C         19.1482093349       32.5442920172       18.4512398431
C         18.9661833751       34.9516835778       18.1917744991
C         19.4139729272       33.8395800590       18.9215973064
N         20.1155863320       34.0194846569       20.0985169818
H         24.6414257856       23.4159232489        8.6354864794
H         21.0115376890       26.6541337180        7.5597158107
H         24.0084194070       25.1512513853       10.2967372458
H         22.8241000575       28.8319738392        9.2021608107
H         21.0890630574       28.5003000135        8.8755965374
H         22.2397464517       29.8987348948       11.1756267127
H         19.6325679442       28.7165259585       12.5549565222
H         17.5183676401       29.9367672590       10.8279326864
H         17.2653793401       27.7360264369       12.9345509637
H         16.0538356523       28.2081859280       11.7613130135
H         17.6627386913       30.1451262867       13.8594789985
H         18.6219739456       31.9098765629       11.9315843062
H         17.0310969852       32.5680798728       12.2098409526
H         15.6285905894       31.0270802068       13.7640707267
H         16.7943032287       28.0922085731        9.1927062528
H         18.7543026358       25.9415793097       12.3844085737
H         17.7234583187       26.4816893881        7.5417780288
H         19.6785974698       24.3349834155       10.7330341343
H         19.3769828523       34.1573015649       13.0010338323
H         19.7462963504       33.9289706915       14.7060234336
H         19.1579270688       24.5946291299        8.3101152497
H         20.6702819963       32.0961580518       12.4455330114
H         18.2385434983       31.3525556092       16.8931229852
H         17.9156992853       35.6401911569       16.4329201607
H         22.2261113222       33.9575923414       14.3239196834
H         22.9262940436       32.9015829752       13.0801903678
H         21.8913196799       34.2598205949       12.6053856019
H         21.1514364984       31.8439550391       15.4780053448
H         20.1971376426       30.7234253882       14.4856112854
H         21.9411899284       30.8639236953       14.2243778485
H         19.4952144005       31.6810959276       19.0125448435
H         19.1717611389       35.9557657618       18.5526834483
H         20.3135496977       34.9519037305       20.4444325516
H         20.4445096833       33.2215126332       20.6307520136
    77
VM2 Rank=15     G=193.916           E=106.495           -TS=87.421              
C         21.5677387376       25.5911871879        5.5415221413
C         22.5227687352       25.0970682690        6.4487838819
F         21.4787426678       25.0899253213        4.2891926261
C         20.6956317756       26.6176132859        5.9353369295
C         22.6023108795       25.6273640766        7.7464016396
F         23.3738653038       24.1116119339        6.0852942779
C         20.7767198206       27.1486961490        7.2342206995
C         21.7261432080       26.6538835913        8.1513008580
N         21.8061119351       27.1929826841        9.4661575910
C         21.9764205411       26.4795531152       10.6382555568
C         21.7375645697       28.6297660584        9.7067772513
O         22.0415109853       27.3754098920       11.6634861002
O         22.0565584630       25.2695204852       10.7618179051
C         21.9537178208       28.7558449262       11.2247928100
C         20.8244891722       29.5388422301       11.9217695234
O         20.5193774702       30.6745970641       11.6008121298
N         20.1297945562       28.8469407525       12.8899159052
C         18.7476182397       29.1688234970       13.2802212503
C         17.8803382694       27.8936603564       13.1318457268
C         18.6841659727       29.7854343711       14.7061213181
C         18.0038448214       27.2521311028       11.7539950037
C         19.4628088956       31.1279113770       14.7833635783
O         17.3225249542       30.0034107671       15.0796627673
C         18.6381510560       26.0050471387       11.6026560390
C         17.4980718107       27.9109890058       10.6183419928
N         19.7107916089       31.6322324762       16.1636852592
C         18.7581888347       25.4198739715       10.3312582555
C         17.6210089264       27.3284081543        9.3459143899
S         18.4811738725       32.5219628029       16.9511340109
C         20.5150882533       30.7562695414       17.0547321014
C         18.2483212927       26.0805732859        9.2027613158
O         17.4855909963       31.5439398640       17.4099171967
C         17.8106476018       33.6005097633       15.6624551254
O         19.2010472969       33.3989640573       17.8828941461
C         21.8633430522       30.2694817337       16.4592386892
C         16.5544856903       33.3293939457       15.0844666297
C         18.5535494685       34.7104872799       15.2141807090
C         22.5805406545       29.3420577827       17.4625440933
C         22.7845297374       31.4546220306       16.0902422435
C         16.0495695314       34.1610166147       14.0705713745
C         18.0437195725       35.5394190356       14.2005329937
C         16.7921525332       35.2663140503       13.6275129739
N         16.2932604151       36.0822589712       12.6299129896
H         19.9582247207       26.9987304070        5.2344941284
H         23.3484393717       25.2369299948        8.4323630616
H         20.0893297380       27.9377550478        7.5269926476
H         22.5248347251       29.1548364510        9.1512493709
H         20.7526246298       29.0201968047        9.4191195359
H         22.8978010631       29.2745558052       11.4318498767
H         20.4638694727       27.9072796658       13.0662534487
H         18.3495822363       29.9192688910       12.5825108367
H         18.1584089573       27.1749816250       13.9129359798
H         16.8280916973       28.1451746587       13.3157306544
H         19.1440309959       29.0627492203       15.3925335933
H         20.4300356924       30.9982049705       14.2867484746
H         18.9338703321       31.8723892567       14.1763962616
H         17.3161466142       30.2850172856       16.0249001035
H         19.0411748735       25.4879795728       12.4693179874
H         17.0105366333       28.8765966980       10.7228196432
H         19.2518269520       24.4573902711       10.2208966633
H         17.2276999783       27.8423710282        8.4725325510
H         20.7406305101       31.3003050462       17.9824604774
H         19.9162534916       29.8830031660       17.3461614999
H         18.3423443702       25.6275846672        8.2190126437
H         21.6695417468       29.6786565059       15.5536142727
H         15.9720038580       32.4731447880       15.4159958895
H         19.5264686794       34.9266210251       15.6494712729
H         23.5212356131       28.9637874711       17.0421122394
H         22.8151460206       29.8716556999       18.3950249009
H         21.9549787450       28.4752976651       17.7118844768
H         23.0077350050       32.0691722166       16.9717681492
H         23.7356371720       31.0966853620       15.6760864503
H         22.3186188697       32.1029892863       15.3378372800
H         15.0811167388       33.9451625281       13.6277294289
H         18.6222336241       36.3933842199       13.8589049161
H         15.3906503757       35.8908276245       12.2093658468
H         16.8242730391       36.8818326727       12.3029001742
    77
VM2 Rank=16     G=193.992           E=107.598           -TS=86.395              
C         23.2937118099       23.9774039016        6.4998510628
C         22.0665046626       23.6795061673        7.1190192942
F         23.6932993445       23.3065772421        5.3963025183
C         24.1176370747       24.9809032058        7.0317069140
C         21.6663876446       24.3850016020        8.2646186066
F         21.2584590421       22.7163201639        6.6222562939
C         23.7146637461       25.6881110879        8.1780695855
C         22.4841998372       25.3982612992        8.8036212659
N         22.0716805963       26.1246694508        9.9585253679
C         21.4447417683       25.6075189166       11.0785873273
C         22.2493218139       27.5703518318       10.0578462468
O         21.2111633345       26.6398094179       11.9380032662
O         21.1421165620       24.4450377050       11.2861559086
C         21.7786705459       27.8952834914       11.4852614389
C         20.7915447472       29.0759250863       11.5483254271
O         21.0345425338       30.1621271325       11.0505798780
N         19.5828961906       28.8083715671       12.1523952647
C         18.3554254522       29.5710036873       11.8751259154
C         17.2326693038       28.5856497032       11.4694712908
C         17.9593506189       30.4829557663       13.0685041608
C         17.6567980341       27.6562185455       10.3380616506
C         19.0956347797       31.4789191588       13.4253438808
O         16.7745430893       31.2172670978       12.7519595145
C         17.8864833377       28.1706010733        9.0488115329
C         17.8500196665       26.2832583894       10.5783298437
N         18.7494528239       32.5085757826       14.4477950601
C         18.3022718237       27.3218960402        8.0096425732
C         18.2594501129       25.4325873109        9.5385559575
S         18.0440360396       31.9074140681       15.8927425322
C         19.7781839981       33.5757283592       14.6007944539
C         18.4855334328       25.9516832173        8.2534814202
O         16.6268428587       31.7215483564       15.5540605960
C         18.1296037867       33.2616211999       17.0919114880
O         18.9023199846       30.8041249665       16.3406454172
C         20.1524757288       34.3375283452       13.3006568214
C         19.1573742950       33.2977606554       18.0554946041
C         17.1785478259       34.3007691994       17.0552231496
C         21.1657807063       35.4571806916       13.6204347491
C         18.9059179868       34.9412513439       12.6135202458
C         19.2301969445       34.3617283490       18.9705266899
C         17.2562507512       35.3623676363       17.9724992740
C         18.2810789059       35.3946582193       18.9306016504
N         18.3562164581       36.4405235677       19.8306798612
H         25.0670753529       25.2087250986        6.5552907072
H         20.7173150329       24.1377465722        8.7280407673
H         24.3695557048       26.4566953012        8.5788787857
H         23.2981242685       27.8609074340        9.9249128476
H         21.6234496491       28.0748057329        9.3093882730
H         22.6421858225       28.1518482597       12.1112274573
H         19.4853040970       27.8687532712       12.5178032321
H         18.5393590070       30.2280426905       11.0132245806
H         16.9265053210       28.0033922440       12.3476582407
H         16.3456406219       29.1521124141       11.1584580748
H         17.7708593879       29.8332242071       13.9341071958
H         19.9645666017       30.9055084744       13.7741117014
H         19.3862300995       31.9570062168       12.4839724965
H         16.4813228575       31.6300317914       13.5984590817
H         17.7468798166       29.2305775802        8.8539046351
H         17.6847286261       25.8736142189       11.5711849660
H         18.4790527623       27.7256055493        7.0158911594
H         18.4030918959       24.3722699812        9.7311290458
H         19.4245929761       34.3412311228       15.3010975383
H         20.6903312763       33.1423800666       15.0338326825
H         18.8012016346       25.2940413651        7.4474013441
H         20.6455191444       33.6495115471       12.6006540770
H         19.9004849314       32.5047145154       18.0932967762
H         16.3834519682       34.2870164013       16.3133362192
H         20.7370690042       36.1971091140       14.3088441759
H         22.0713399538       35.0456495325       14.0845563837
H         21.4696318372       35.9824244924       12.7057979041
H         18.3832855556       35.6356415912       13.2836716630
H         19.1869898394       35.4909839080       11.7063391773
H         18.1955159321       34.1583451121       12.3183402073
H         20.0256116885       34.3843523525       19.7104893290
H         16.5204435325       36.1611765268       17.9378975691
H         19.0927272468       36.4707834168       20.5270881987
H         17.6736472603       37.1901897749       19.8095667136
    77
VM2 Rank=17     G=194.036           E=107.562           -TS=86.474              
C         20.9175303237       24.3887948068        6.4396314078
C         20.9753421026       25.7773296211        6.6587632974
F         20.6588894302       23.8928860137        5.2089409083
C         21.1294413532       23.5033596387        7.5077333062
C         21.2445044167       26.2770683992        7.9426165339
F         20.7684077754       26.6456004144        5.6435824759
C         21.3952258421       24.0047730419        8.7938841391
C         21.4502239606       25.3943460635        9.0212107114
N         21.7122100558       25.9013674732       10.3240853035
C         21.1405912807       25.4637629796       11.5040976705
C         22.6736270889       26.9755805533       10.5465023505
O         21.6684547851       26.2049917681       12.5192990581
O         20.3137169559       24.5791127091       11.6421794155
C         22.6120015444       27.2102501354       12.0656535529
C         22.1652637999       28.6444231132       12.4084041389
O         22.8906071864       29.6128643743       12.2593309028
N         20.8544620705       28.7806593219       12.8086910979
C         20.0942524502       30.0282863348       12.6530520349
C         18.6078772622       29.6899259076       12.3687511431
C         20.3013412840       30.9476290523       13.8888749772
C         18.4454565100       28.7436695162       11.1853725022
C         19.5998460502       32.3203782181       13.7348663800
O         19.8404925311       30.2828930142       15.0623272158
C         18.6161876971       29.2181189611        9.8719936869
C         18.1412495929       27.3857705338       11.3951958804
N         20.0270307199       33.3519162457       14.7219556872
C         18.4781727546       28.3461817971        8.7791066465
C         18.0041083189       26.5131027241       10.3030498141
S         19.3192077280       33.3742149229       16.2825215742
C         21.4565376081       33.7541933790       14.6937681494
C         18.1698123568       26.9934902259        8.9946427961
O         20.1053864417       32.4969916155       17.1583928453
C         17.6375511863       32.7381041740       16.0620029993
O         19.1681994040       34.8061669602       16.5715792015
C         22.0019430908       34.1662049825       13.3008160407
C         17.2818459059       31.4634853786       16.5451255082
C         16.6723188548       33.5172174855       15.3931057803
C         23.4996234579       34.5233559776       13.4042546101
C         21.2174703953       35.3615462401       12.7132991232
C         15.9797453127       30.9718395867       16.3519044417
C         15.3710132983       33.0220590532       15.2035993281
C         15.0232378055       31.7491021936       15.6809548781
N         13.7435920108       31.2629850923       15.4908804849
H         21.0858888376       22.4312482446        7.3377359963
H         21.2728925097       27.3514942707        8.0946663055
H         21.5578330338       23.3092047776        9.6136794622
H         22.3841027441       27.8803597451        9.9966926149
H         23.6785636545       26.6590078092       10.2398788118
H         23.5962741322       27.0460952000       12.5212235771
H         20.3326840403       27.9172602231       12.8939626478
H         20.4902420877       30.5579589420       11.7745976972
H         18.1497054860       29.2534128196       13.2657379927
H         18.0488975656       30.6108778663       12.1650554173
H         21.3821052988       31.1217474787       13.9735236271
H         19.8015065272       32.6899234770       12.7227442903
H         18.5158012138       32.1694892416       13.7765259715
H         20.2730489557       29.4044643332       15.0492023775
H         18.8563770826       30.2635887228        9.6984162004
H         18.0123883664       27.0038540601       12.4044713626
H         18.6110275272       28.7179951886        7.7661904678
H         17.7741847385       25.4638921525       10.4719006215
H         21.5986025796       34.6074422571       15.3716082813
H         22.0717290775       32.9363851125       15.0930137172
H         18.0651582861       26.3175425331        8.1497048759
H         21.9193296329       33.3147860522       12.6115310484
H         18.0180584386       30.8503463568       17.0596089800
H         16.9345190151       34.5031948414       15.0165525300
H         24.0792802444       33.6735766429       13.7874855149
H         23.9076915623       34.7876651294       12.4201968027
H         23.6593632228       35.3756098757       14.0774243116
H         21.2829233757       36.2371935312       13.3717796462
H         21.6147259028       35.6453506380       11.7304610449
H         20.1557828346       35.1174464765       12.5841713475
H         15.7151626179       29.9850907243       16.7216801320
H         14.6329323915       33.6270930230       14.6842105598
H         13.4850794178       30.3432569040       15.8304460639
H         13.0472580700       31.8176553326       15.0055786055
    77
VM2 Rank=18     G=194.051           E=107.782           -TS=86.269              
C         23.0086723219       24.3923115888        6.6864213473
C         23.8888244428       24.7262748533        7.7319945750
F         23.3493926828       23.4634068480        5.7652519386
C         21.7615026732       25.0288046783        6.5929454298
C         23.5201916263       25.6925369962        8.6816231636
F         25.0958453249       24.1262590968        7.8353612034
C         21.3937202558       25.9968117695        7.5434498731
C         22.2674429625       26.3318569197        8.5976761873
N         21.8933781539       27.3118871246        9.5593942355
C         22.0799918178       27.2331775354       10.9269044243
C         21.2713347452       28.5703639642        9.1642995280
O         21.6229964180       28.3941079249       11.4754017480
O         22.5649242419       26.3071891179       11.5539291064
C         21.0806326651       29.3175524245       10.4962094084
C         19.6066115626       29.6740847869       10.7706969610
O         18.9112896763       30.2617524615        9.9600780387
N         19.1081683374       29.2418652907       11.9800731799
C         17.6737764499       29.0781807550       12.2681758461
C         17.4014414686       27.5925039196       12.6124703726
C         17.2205066720       30.0570272964       13.3872439954
C         17.9464800534       26.6314099881       11.5613730503
C         17.3407344261       31.5421885979       12.9537536035
O         15.8711763891       29.7987259953       13.7770764949
C         19.0430669669       25.8001213632       11.8566200545
C         17.3690212002       26.5818370903       10.2794090233
N         17.9347964955       32.3968952178       14.0131644770
C         19.5508940576       24.9230686426       10.8839216761
C         17.8780354772       25.7072998610        9.3048041102
S         16.8903084432       32.8962080211       15.2732993864
C         18.8897298470       33.4193942987       13.5147922418
C         18.9667731575       24.8745045329        9.6085702912
O         16.0450039510       33.9697165113       14.7372107292
C         18.0285176361       33.4918995141       16.5453707398
O         16.3066373710       31.6601949484       15.8112911536
C         20.1995377226       32.8262402518       12.9291429865
C         18.0963100088       34.8638286034       16.8583766165
C         18.8753220995       32.5854976569       17.2127577115
C         21.1474014574       33.9627115088       12.4927133758
C         20.9157343975       31.9045623555       13.9427875562
C         19.0014123397       35.3209533066       17.8313588797
C         19.7791777324       33.0479216462       18.1840439897
C         19.8434644451       34.4150126256       18.4947947727
N         20.7338198265       34.8678521101       19.4497665173
H         21.0820766483       24.7703014560        5.7856265583
H         24.2133592490       25.9411156948        9.4800427291
H         20.4212832441       26.4751190862        7.4625701815
H         21.9309669745       29.1311689936        8.4901725319
H         20.3059317574       28.3873583801        8.6748551763
H         21.6563424972       30.2512862763       10.4994989952
H         19.7719838823       28.7562287358       12.5704705647
H         17.0966255307       29.3196369520       11.3645516578
H         17.8338212362       27.3653037654       13.5949981561
H         16.3202479508       27.4361223329       12.7164925219
H         17.8842906751       29.8889768935       14.2469067813
H         17.9457473410       31.5881087038       12.0434672080
H         16.3525865817       31.9269219962       12.6671787982
H         15.7349767004       30.3136968294       14.6094127070
H         19.5059955908       25.8346359397       12.8391952702
H         16.5264715357       27.2244069346       10.0382104812
H         20.3998822109       24.2853398218       11.1179662209
H         17.4270139828       25.6734730388        8.3163170796
H         18.3976421289       34.0432752683       12.7559052046
H         19.1822206634       34.0928326349       14.3299303363
H         19.3595075286       24.1950231631        8.8563588484
H         19.9647287264       32.2380777297       12.0336858024
H         17.4514515019       35.5743210825       16.3465879624
H         18.8349664743       31.5254876373       16.9732169944
H         20.6663874615       34.6099152429       11.7480460725
H         21.4392001992       34.5863502483       13.3477454917
H         22.0623463161       33.5579525832       12.0414474537
H         21.8494567421       31.5104131482       13.5221638906
H         21.1603503136       32.4470632306       14.8651614776
H         20.2876251584       31.0462408427       14.2112722676
H         19.0499745392       36.3801830330       18.0687848598
H         20.4310483099       32.3440408457       18.6941413984
H         21.3455653833       34.2200530324       19.9338605869
H         20.7864454157       35.8538635963       19.6805561166
    77
VM2 Rank=19     G=194.057           E=108.520           -TS=85.538              
C         22.1180183587       24.5960719833        5.9529896376
C         21.8383713088       25.9267328315        6.3143732389
F         22.1054199625       24.2142333818        4.6562797860
C         22.4132750596       23.6494270134        6.9462225969
C         21.8546900299       26.3078540586        7.6652849600
F         21.5458876605       26.8509886948        5.3722936917
C         22.4257331399       24.0311573866        8.2991344496
C         22.1426735804       25.3612397894        8.6681276429
N         22.1480426194       25.7452758040       10.0374665679
C         21.5622845346       25.0573730846       11.0834276129
C         22.8227899201       26.9572988079       10.4883689343
O         21.8014272331       25.7609043926       12.2264999207
O         20.9399856168       24.0111307377       11.0244736307
C         22.5357549961       26.9921596016       11.9993983881
C         21.7351025780       28.2454876579       12.4023807731
O         22.2291408711       29.3595787993       12.4337873640
N         20.3923550430       28.0462844952       12.6363116271
C         19.3877250796       29.1075219594       12.4846650696
C         18.0582424995       28.4880261986       11.9835969861
C         19.2422463964       29.9142293767       13.8048527500
C         18.2405892753       27.6930798741       10.6964103414
C         18.2649693104       31.1086882262       13.6669933955
O         18.8103278584       29.0482804763       14.8534647832
C         18.4169283151       28.3619977642        9.4713637461
C         18.2512020855       26.2860647770       10.7228072408
N         18.4928056061       32.2083516283       14.6426050734
C         18.5956559940       27.6326375004        8.2839880786
C         18.4307013273       25.5560918169        9.5361761110
S         17.9249060871       31.9706893104       16.2381645382
C         19.7745056842       32.9538316603       14.5227562081
C         18.5999403855       26.2289861843        8.3160424737
O         16.5699678775       31.4228077274       16.0902824387
C         17.6907481925       33.6654753729       16.8234303616
O         18.9665867056       31.2736243438       17.0025654710
C         20.0650142314       33.5364522899       13.1154116373
C         16.6849372928       34.4745404829       16.2593799061
C         18.5262063118       34.1964452456       17.8260198169
C         21.4233705518       34.2685747836       13.1172933929
C         18.9481917515       34.5040192724       12.6612470219
C         16.5157841508       35.7991246501       16.6967753490
C         18.3524916337       35.5216151336       18.2603327880
C         17.3482472514       36.3242054148       17.6972102953
N         17.1807556321       37.6274400098       18.1253439034
H         22.6300653759       22.6223035997        6.6665117295
H         21.6235907230       27.3359991864        7.9258666426
H         22.6555030102       23.2892623742        9.0601497734
H         22.4123618725       27.8442360829        9.9887682724
H         23.9010139163       26.8876872028       10.2967533400
H         23.4722034938       26.9925949877       12.5706605380
H         20.0776778892       27.0857107780       12.5791847782
H         19.7449420861       29.8019827797       11.7105338163
H         17.6319497048       27.8466427406       12.7656777787
H         17.3205776950       29.2809322610       11.8114066788
H         20.2396678068       30.3046526992       14.0443102624
H         18.3393071794       31.5061320351       12.6484646093
H         17.2386041259       30.7311859499       13.7648860066
H         19.4339061764       28.2927523025       14.8405976291
H         18.4156565240       29.4482136455        9.4397272049
H         18.1223077615       25.7556042371       11.6625335206
H         18.7315054411       28.1545133336        7.3400081968
H         18.4430689982       24.4692051701        9.5639132823
H         19.7769991454       33.7957983382       15.2270438376
H         20.6077339798       32.3033524951       14.8206286054
H         18.7402198111       25.6638279283        7.3980512458
H         20.1408659874       32.7150352414       12.3900411241
H         16.0393568337       34.0761225175       15.4801534047
H         19.3100184648       33.5842660900       18.2658691545
H         22.2346872962       33.5879416938       13.4063901474
H         21.6577925656       34.6605384378       12.1192240639
H         21.4195748413       35.1119061842       13.8200506257
H         18.8413593972       35.3404954210       13.3639963677
H         19.1697558916       34.9196224865       11.6700418713
H         17.9795465555       33.9929367591       12.5970217600
H         15.7386124555       36.4182290240       16.2570706086
H         18.9997671258       35.9258066246       19.0338807879
H         16.4585970237       38.2145466565       17.7227102551
H         17.7788048417       38.0150310784       18.8467614295
    77
VM2 Rank=20     G=194.072           E=108.129           -TS=85.943              
C         23.0642602265       23.6490340796        6.4890935167
C         23.8283960202       24.7844686483        6.8134539999
F         23.3838943672       22.8803183921        5.4239868996
C         21.9577379920       23.3044315494        7.2795101075
C         23.4840276437       25.5733948924        7.9229144216
F         24.9009128062       25.1298149842        6.0664253928
C         21.6147656895       24.0943317597        8.3903326739
C         22.3713648235       25.2371969596        8.7213182249
N         22.0160911393       26.0443651513        9.8417670807
C         21.5751867504       25.5977349602       11.0755793949
C         22.0579248835       27.5027877073        9.7807576937
O         21.3442065744       26.6920948112       11.8554268127
O         21.4115544016       24.4427798275       11.4296248727
C         21.7541685382       27.9319645128       11.2255254583
C         20.7037894101       29.0539003332       11.3241851070
O         20.7980812290       30.0975376387       10.7008304262
N         19.6112954785       28.7774336946       12.1161387167
C         18.3013072163       29.4222360599       11.9324015395
C         17.2338191250       28.3312343404       11.6740471135
C         17.9458355267       30.3529810392       13.1230302658
C         17.6394067857       27.3720576122       10.5603651840
C         19.0176156364       31.4584570692       13.3195599005
O         16.6716253792       30.9649274835       12.9068430861
C         17.7720248473       27.8364407840        9.2387284784
C         17.9158142825       26.0228893684       10.8489253149
N         18.6667826770       32.4918664815       14.3273073365
C         18.1760688966       26.9622233656        8.2162760313
C         18.3121481348       25.1460431227        9.8260728251
S         18.1390748610       31.9501720663       15.8676689575
C         19.4954906851       33.7160393930       14.2192432964
C         18.4433384981       25.6157067013        8.5092297062
O         16.7020177235       31.7007451122       15.6953379187
C         18.3504129202       33.3354976436       17.0180387611
O         19.0862623377       30.8964776122       16.2508418494
C         18.6381157065       34.9945668240       14.0508690232
C         17.2732492228       34.2004116397       17.2987889999
C         19.5871968928       33.5441532295       17.6615499492
C         17.8906445486       34.9925355684       12.6987444773
C         19.5221878163       36.2529493000       14.1703054295
C         17.4416555599       35.2751480789       18.1881177458
C         19.7504344980       34.6202185950       18.5501233227
C         18.6800904043       35.4887535193       18.8120509646
N         18.8437218438       36.5476780876       19.6846617230
H         21.3685650835       22.4261895969        7.0309335685
H         24.0940372559       26.4396780267        8.1574548696
H         20.7559351645       23.8121350292        8.9920924417
H         23.0426902453       27.8714154689        9.4705876682
H         21.2863309077       27.8677411417        9.0894282067
H         22.6722213329       28.2954007764       11.7034846496
H         19.6342856186       27.8750114337       12.5755981266
H         18.3441173754       30.0535299406       11.0336504915
H         17.0489705611       27.7793153269       12.6041714505
H         16.2813070997       28.8090225929       11.4116613372
H         17.9064853827       29.7334909652       14.0295033689
H         19.9659479485       30.9834100055       13.6035156266
H         19.1771242346       31.9369441384       12.3439708132
H         16.4378428299       31.4131464694       13.7535916313
H         17.5678692824       28.8780176437        9.0054921643
H         17.8259518051       25.6521627940       11.8664546397
H         18.2789366050       27.3276929977        7.1976484326
H         18.5195910523       24.1041239857       10.0565537389
H         20.1534261065       33.8135116319       15.0912332544
H         20.1622970671       33.6501714428       13.3485526088
H         18.7504148949       24.9382195615        7.7165176164
H         17.8876049797       35.0382284981       14.8484198604
H         16.3087325605       34.0455970354       16.8209514065
H         20.4230321166       32.8759604547       17.4677472001
H         17.2791168722       35.8969837019       12.5882044682
H         18.5941242047       34.9530635401       11.8573436946
H         17.2203362739       34.1266485863       12.6196990872
H         20.0205262400       36.2888992835       15.1479573595
H         20.2957157990       36.2703180318       13.3917017827
H         18.9196768060       37.1649408451       14.0708966057
H         16.6089725953       35.9425468985       18.3927150326
H         20.7091668222       34.7788808644       19.0362553898
H         19.7348563582       36.7076847270       20.1412281564
H         18.0747120112       37.1788341528       19.8807275039
    77
VM2 Rank=21     G=194.120           E=107.673           -TS=86.448              
C         20.9701944290       24.5883623378        6.2448373990
C         21.1656234657       23.6916407770        7.3112280756
F         20.7376433045       24.1344379335        4.9928930719
C         21.0166786078       25.9714418679        6.4775352371
C         21.4044497338       24.1784602652        8.6063244709
F         21.1275662725       22.3561457862        7.1048038374
C         21.2570195590       26.4579092214        7.7741530941
C         21.4471309517       25.5656523577        8.8486818895
N         21.6853943959       26.0604409539       10.1613730453
C         21.1165511955       25.5911460172       11.3306831429
C         22.6220152574       27.1512516196       10.4080776564
O         21.6273608495       26.3215545100       12.3622312513
O         20.3042230222       24.6901470639       11.4482545061
C         22.5739731289       27.3352297542       11.9347322385
C         22.1443512029       28.7600752480       12.3331601593
O         22.8729069236       29.7287157945       12.2020289816
N         20.8423063551       28.8903294922       12.7622076162
C         20.0829703224       30.1428139820       12.6467797546
C         18.5970382396       29.8140966041       12.3492401469
C         20.2905630951       31.0223390321       13.9108728308
C         18.4397658534       28.8967669792       11.1425850107
C         19.5870661033       32.3983455053       13.8013938436
O         19.8319311564       30.3196422514       15.0628427396
C         18.1249934136       27.5363565431       11.3177210462
C         18.6315748349       29.3994430949        9.8427295817
N         20.0072890782       33.3958641859       14.8257512983
C         17.9993211299       26.6889309644       10.2045306668
C         18.5055971745       28.5526574813        8.7289138849
S         19.2902018322       33.3648836979       16.3819958458
C         21.4363204167       33.8005637629       14.8193546251
C         18.1882042224       27.1969817246        8.9097816230
O         20.0745347194       32.4624406785       17.2335735726
C         17.6124357154       32.7296300962       16.1311682386
O         19.1320223271       34.7861224561       16.7165185726
C         21.9880166479       34.2628232967       13.4447768760
C         16.6473274873       33.5268961119       15.4838185229
C         17.2597099525       31.4379494496       16.5690580663
C         23.4845606474       34.6183078209       13.5684813734
C         21.2044910832       35.4771961421       12.8963237593
C         15.3492348389       33.0329621841       15.2705636544
C         15.9608335455       30.9476431521       16.3521949960
C         15.0045115976       31.7431299916       15.7026898815
N         13.7280959103       31.2582718110       15.4891339154
H         20.8641241095       26.6634921114        5.6541719725
H         21.5558197149       23.4724904239        9.4177534165
H         21.2789284151       27.5314093924        7.9410250132
H         23.6309849733       26.8735972539       10.0778858652
H         22.2991985853       28.0650572562        9.8927231258
H         23.5606775447       27.1454327301       12.3748307773
H         20.3185037386       28.0263215751       12.8278743340
H         20.4796316284       30.7003315031       11.7860359815
H         18.1351179816       29.3562568657       13.2335884946
H         18.0401817184       30.7405921798       12.1657532376
H         21.3713134262       31.1948061146       13.9996063289
H         19.7929364616       32.8031403693       12.8036964898
H         18.5031574053       32.2441360193       13.8323513865
H         20.2659257888       29.4427994267       15.0211446067
H         17.9803427309       27.1327326408       12.3163538044
H         18.8803051827       30.4470288064        9.6960239464
H         17.7615594873       25.6374942368       10.3465284282
H         18.6549684877       28.9464476911        7.7267875425
H         21.5737641408       34.6292213865       15.5279599704
H         22.0505536529       32.9697014685       15.1922577299
H         18.0939784424       26.5400921290        8.0487163124
H         21.9101795512       33.4364557892       12.7251232247
H         16.9071957553       34.5261324768       15.1422261127
H         17.9958402360       30.8108528231       17.0665539263
H         23.8971409535       34.9180807733       12.5965428981
H         23.6394565382       35.4463256317       14.2723343515
H         24.0637276256       33.7563371463       13.9242278948
H         21.6062763899       35.7965973504       11.9263341050
H         20.1439091096       35.2361911758       12.7530438149
H         21.2650294185       36.3288300970       13.5860306926
H         14.6112876498       33.6521093339       14.7678861800
H         15.6986194246       29.9478420987       16.6869405634
H         13.4718225612       30.3265032380       15.7959953708
H         13.0319194274       31.8261087657       15.0190758596
    77
VM2 Rank=22     G=194.131           E=107.624           -TS=86.508              
C         22.9829712440       23.8451884767        6.4062766048
C         23.7223097649       25.0011216684        6.7153679574
F         23.2829417981       23.1017223594        5.3177831807
C         21.9222917904       23.4534035145        7.2365619622
C         23.3988523477       25.7633609081        7.8495074447
F         24.7507901568       25.3919533299        5.9298202842
C         21.6002399581       24.2166597968        8.3720003736
C         22.3321409683       25.3796112698        8.6881686610
N         21.9975404189       26.1595248827        9.8339750635
C         21.6224597029       25.6819980139       11.0779324058
C         21.9895354544       27.6192442525        9.7926558060
O         21.3869804466       26.7575353263       11.8822199217
O         21.5119959088       24.5176333157       11.4215609304
C         21.7271806207       28.0191318379       11.2537975539
C         20.6413433498       29.1003705850       11.4070378331
O         20.6877098093       30.1653175055       10.8151502003
N         19.5744785426       28.7619905584       12.2097863416
C         18.2403781588       29.3673980423       12.0722069282
C         17.1963034270       28.2431434432       11.8671748199
C         17.9033330713       30.3003405106       13.2670160211
C         17.5825858288       27.2914068581       10.7405523434
C         18.9537944173       31.4338703887       13.4157438590
O         16.6093500959       30.8800075387       13.0862307058
C         17.9371211122       25.9594774513       11.0238327619
C         17.6197215884       27.7477375521        9.4100903421
N         18.6302412881       32.4796871376       14.4291617147
C         18.3162570141       25.0912073400        9.9872058131
C         18.0057743914       26.8822703907        8.3733505211
S         18.1993018329       31.8938074098       15.9841520124
C         19.5383596308       33.6604134029       14.3882430582
C         18.3512865573       25.5525891652        8.6613742173
O         16.7804498704       31.5358237890       15.8560343678
C         18.2887762093       33.3187509545       17.0980545157
O         19.2314239139       30.9186617004       16.3560871234
C         19.6425732589       34.3786975918       13.0156624478
C         19.4262993315       33.5239846477       17.9043043513
C         17.2275399111       34.2443621336       17.1500971360
C         20.5515737800       35.6200918305       13.1394751876
C         18.2528889718       34.7992912868       12.4842246186
C         19.4984681952       34.6424465377       18.7519140677
C         17.3050885795       35.3611399376       17.9993486836
C         18.4394181546       35.5618940575       18.8007679857
N         18.5139291273       36.6617312999       19.6340918718
H         21.3524078507       22.5593319480        6.9997276012
H         23.9893078195       26.6463965002        8.0712870904
H         20.7770943252       23.8979761217        9.0046059970
H         22.9494936553       28.0239933101        9.4512606531
H         21.1810231883       27.9679107648        9.1359881699
H         22.6492922746       28.4105573311       11.7008564777
H         19.6371571944       27.8475877963       12.6409776565
H         18.2304012880       29.9890111962       11.1656702652
H         17.0696234306       27.6909545741       12.8068499157
H         16.2188662772       28.6899548969       11.6448982976
H         17.9093560009       29.6873725462       14.1787076511
H         19.9223219451       30.9806203722       13.6648682261
H         19.0582130009       31.8827361932       12.4223473435
H         16.3858812216       31.3091882119       13.9457589260
H         17.9215553943       25.5957294593       12.0477142703
H         17.3548198110       28.7764365737        9.1807532934
H         18.5850068401       24.0624859960       10.2137547429
H         18.0343488031       27.2413736394        7.3476854698
H         19.1951185901       34.4234743971       15.0963130024
H         20.5448176341       33.3566465305       14.7077590593
H         18.6444710395       24.8816511927        7.8579066700
H         20.1140580906       33.7079131118       12.2847888631
H         20.2545480965       32.8200556081       17.8718428505
H         16.3463625979       34.0999061933       16.5292741521
H         20.1356934505       36.3487476669       13.8475022997
H         21.5532232732       35.3392884536       13.4896933631
H         20.6660450990       36.1192575235       12.1686519044
H         17.7474488270       35.4712632194       13.1894988225
H         18.3430783855       35.3208123440       11.5229400686
H         17.6058453063       33.9267301071       12.3270049485
H         20.3786623456       34.7956183949       19.3704104444
H         16.4837926350       36.0717720002       18.0337034443
H         19.3293494310       36.8134227004       20.2175548218
H         17.7525010395       37.3301423271       19.6765185368
    77
VM2 Rank=23     G=194.199           E=107.346           -TS=86.853              
C         22.8352276014       24.6026095759        5.7771055533
C         22.4000133206       24.0227591319        6.9822555551
F         23.0866290430       23.8371960342        4.6915500217
C         23.0141685636       25.9918730292        5.6965135400
C         22.1437461930       24.8314765506        8.1005447221
F         22.2216417059       22.6863608290        7.0803456197
C         22.7552774929       26.8008945395        6.8168144218
C         22.3149891545       26.2285562116        8.0284803972
N         22.0422350717       27.0520239098        9.1597507584
C         22.3531990307       26.7722195053       10.4790395778
C         21.3398398297       28.3253590373        9.0297870388
O         21.9147721922       27.8153609207       11.2396847035
O         22.9148729346       25.7807822895       10.9121096816
C         21.3989460860       28.9153826583       10.4484225086
C         20.0441710427       29.4513985475       10.9468870815
O         19.3638085015       30.2244030787       10.2942904703
N         19.6193194706       28.9544009860       12.1594247737
C         18.2048037520       28.9154479050       12.5661317995
C         17.7960453805       27.4400414311       12.8027103516
C         17.9424376619       29.8312425026       13.7940133311
C         18.1759084719       26.5308401836       11.6386382056
C         18.2123112303       31.3245618891       13.4574176635
O         16.5913338011       29.6824214794       14.2352897278
C         19.1356895674       25.5167009108       11.8127088551
C         17.5915976569       26.7177597526       10.3722067428
N         18.4085541691       32.2081763644       14.6387312454
C         19.5002879725       24.6929807448       10.7353639848
C         17.9618016405       25.9000606617        9.2917528069
S         16.9975161430       32.8118945583       15.3897236602
C         19.5529025844       31.8807040156       15.5324648795
C         18.9140286118       24.8849153971        9.4739093311
O         16.2457814137       33.4543763154       14.3048626427
C         17.6051610795       34.1565417161       16.4346597903
O         16.4325050036       31.7098504342       16.1797962845
C         20.9166309096       31.7107653746       14.8123120054
C         18.0906652698       35.3422389621       15.8492648085
C         17.6211481447       34.0182613289       17.8366165357
C         22.0090817409       31.3271695246       15.8322466961
C         21.3272993348       32.9995659733       14.0642673885
C         18.5837699000       36.3790629022       16.6593777188
C         18.1148860605       35.0584597211       18.6422360821
C         18.5963743818       36.2391488150       18.0557657802
N         19.0826208831       37.2597543014       18.8505252573
H         23.3537068920       26.4394141493        4.7666077083
H         21.8106050469       24.3633636511        9.0207149603
H         22.9071171383       27.8735749775        6.7364546241
H         20.3017781393       28.1468095987        8.7182724301
H         21.8348863838       28.9937296377        8.3155578863
H         22.1134945923       29.7473468739       10.4738961365
H         20.2570992381       28.3029635770       12.6006869274
H         17.5877021508       29.2967752731       11.7404832330
H         18.2593427628       27.0830021993       13.7310224765
H         16.7122183420       27.3838008788       12.9652836447
H         18.6273915032       29.5076358232       14.5879353243
H         19.1003398577       31.3909684206       12.8197560667
H         17.3847201716       31.6968263181       12.8389885798
H         16.4913618029       30.2138629239       15.0609751579
H         19.6013507354       25.3658187166       12.7828912571
H         16.8544678134       27.5023524888       10.2240838674
H         20.2382833104       23.9079966903       10.8798599182
H         17.5082289263       26.0510948244        8.3154357390
H         19.6834013343       32.6741888434       16.2789361216
H         19.3280224368       30.9640541985       16.0939121451
H         19.1950895895       24.2476320540        8.6392380674
H         20.8470473597       30.8887390915       14.0873169234
H         18.0889283688       35.4559078183       14.7676606179
H         17.2541381521       33.1057722402       18.3006246097
H         21.7509546579       30.3954672202       16.3519202330
H         22.9740037858       31.1730559233       15.3323299938
H         22.1408163520       32.1128005385       16.5875984494
H         21.4122082310       33.8471497409       14.7564988225
H         22.2961890440       32.8703166413       13.5655014530
H         20.5918183180       33.2657779603       13.2949606011
H         18.9576751346       37.2909473423       16.2018632176
H         18.1249009951       34.9464791945       19.7230192462
H         19.4334054008       38.1156229185       18.4348642815
H         19.0962301906       37.1664366733       19.8602030667
    77
VM2 Rank=24     G=194.238           E=108.319           -TS=85.919              
C         22.6374940162       24.6532892598        5.7339357395
C         23.7543215470       25.1531316187        6.4289292013
F         22.7456366906       24.2532157276        4.4471569799
C         21.3941693267       24.5667025950        6.3791779529
C         23.6266152174       25.5653355145        7.7652876751
F         24.9597124212       25.2428285508        5.8234848723
C         21.2677060660       24.9789566390        7.7169778078
C         22.3817439583       25.4793230127        8.4191412963
N         22.2478146150       25.9059511034        9.7690592282
C         21.5845911656       25.2359352754       10.7795037558
C         22.7953277700       27.1790120701       10.2228764661
O         21.6545933657       26.0072777715       11.9010430031
O         21.0383382584       24.1485097877       10.7091980763
C         22.3096875130       27.2843847917       11.6801850940
C         21.3612329034       28.4797924139       11.9054406524
O         21.6238239016       29.6121848060       11.5355326935
N         20.1639750908       28.1818939101       12.5151130300
C         19.0106425002       29.0897708412       12.5469795832
C         17.7021670832       28.2746251312       12.3923554856
C         19.0492276690       29.9794574527       13.8213161074
C         17.6840039659       27.4584394805       11.1062774525
C         18.0019697105       31.1231404289       13.7586884111
O         18.8486090035       29.1858329871       14.9950038425
C         17.3934292826       28.0814931956        9.8789460086
C         17.9761620819       26.0819907887       11.1304973540
N         18.2625536423       32.2597831074       14.6836933186
C         17.3905265159       27.3360694318        8.6881396878
C         17.9726917933       25.3355759567        9.9406638072
S         17.7105716669       32.0796567034       16.2912012018
C         19.5483078645       32.9881642709       14.5030303631
C         17.6781683896       25.9621558521        8.7190254622
O         16.2870910897       31.7463762627       16.1588518232
C         17.7663750716       33.7594455698       16.9577895167
O         18.6586381036       31.1844638653       16.9675952228
C         19.8348280024       33.4614726056       13.0538858789
C         16.8558717229       34.7320017998       16.5002050466
C         18.7346067262       34.1132671411       17.9181068377
C         21.2129564053       34.1523429852       12.9870132576
C         18.7393310859       34.4274883100       12.5477420605
C         16.9127317528       36.0435487776       17.0012662620
C         18.7868095117       35.4262343791       18.4162944475
C         17.8771110513       36.3923831276       17.9593500107
N         17.9318344801       37.6830947002       18.4500380256
H         20.5319068466       24.1813754314        5.8423029141
H         24.4996666428       25.9444238794        8.2876042923
H         20.3005893727       24.9097767135        8.2067176074
H         22.4119669984       28.0025652625        9.6058251009
H         23.8914874793       27.1648515500       10.1852114570
H         23.1586966293       27.4002948624       12.3648314886
H         20.0315308739       27.2201957747       12.8007893698
H         19.0870552398       29.7574345631       11.6769121458
H         17.5754410215       27.6146991171       13.2602549147
H         16.8395303217       28.9511981470       12.4006105953
H         20.0512964966       30.4262452730       13.8509298028
H         17.9663854989       31.5016758073       12.7302769280
H         17.0073108555       30.7020471017       13.9557774158
H         18.9817782910       29.7746218841       15.7750973272
H         17.1724748024       29.1450528233        9.8478725763
H         18.2103290335       25.5899422260       12.0707387200
H         17.1652866526       27.8230433661        7.7426322546
H         18.2021307677       24.2729933222        9.9664805878
H         19.5635101975       33.8822552193       15.1389152598
H         20.3788927523       32.3552850339       14.8434423887
H         17.6746984267       25.3848636945        7.7978396790
H         19.8768372007       32.5903966165       12.3854910228
H         16.1089949227       34.4705720569       15.7541445172
H         19.4466182533       33.3730892842       18.2756329056
H         22.0095050300       33.4695937840       13.3100317095
H         21.4422702134       34.4685521605       11.9612497697
H         21.2441102622       35.0411534574       13.6305577418
H         18.6723606184       35.3173013705       13.1869608590
H         18.9541878959       34.7604789389       11.5243644487
H         17.7542110605       33.9448463970       12.5391448733
H         16.2081719817       36.7895217804       16.6437994576
H         19.5356922582       35.6936828204       19.1568223398
H         17.2791112770       38.3875472521       18.1244002682
H         18.6261513554       37.9437812192       19.1416417884
    77
VM2 Rank=25     G=194.241           E=107.744           -TS=86.497              
C         21.8289132479       24.3930504435        6.1172998693
C         20.6251253310       24.7350804227        6.7603743893
F         21.8295517373       23.9519358948        4.8394390488
C         23.0466111786       24.5095465408        6.8057894204
C         20.6419895778       25.1914863864        8.0876015551
F         19.4425301883       24.6318935330        6.1134980677
C         23.0620354659       24.9680614872        8.1348771907
C         21.8595270273       25.3107977418        8.7850118502
N         21.8755188681       25.7864157286       10.1253546418
C         21.0179650336       25.4082704122       11.1411077699
C         22.8230585995       26.8060991998       10.5599994080
O         21.3413541958       26.1366404835       12.2467908420
O         20.1331506636       24.5716196279       11.0865588772
C         22.3904229937       27.1113501049       12.0057571308
C         21.8986474256       28.5625118332       12.1839842042
O         22.5327784672       29.5286060661       11.7933691538
N         20.6649368449       28.7038150574       12.7771832265
C         19.8896342028       29.9505957144       12.7767681156
C         18.3851173312       29.6262221834       12.5920260169
C         20.2007258710       30.7857205388       14.0507599155
C         18.1194935790       28.8367350782       11.3166555989
C         19.6137325125       32.2190700073       13.9586593055
O         19.7128099572       30.1168200471       15.2172645740
C         17.9052360712       27.4468750955       11.3695901236
C         18.1042231912       29.4911734361       10.0714781944
N         20.1264281683       33.1721257533       14.9836529715
C         17.6723776193       26.7201950908       10.1903838444
C         17.8730792029       28.7650536669        8.8911959593
S         19.4086922490       33.1750958895       16.5367618274
C         21.5896222551       33.4317858363       14.9783892200
C         17.6547655790       27.3793700760        8.9505824252
O         19.9650618901       32.0208546499       17.2552302713
C         17.6400718016       32.9661975903       16.2153308816
O         19.5787356027       34.5517665117       17.0176050398
C         22.1825560327       33.8411878043       13.6040886293
C         16.8860247076       34.0371639062       15.6962934636
C         17.0106110221       31.7280551086       16.4530568646
C         21.5241540012       35.1303587307       13.0619660963
C         23.7074484426       34.0439356849       13.7259297765
C         15.5186119509       33.8699502958       15.4193099343
C         15.6433453187       31.5656503262       16.1728849165
C         14.8957499468       32.6349529165       15.6562181669
N         13.5515746475       32.4719070978       15.3799212215
H         23.9755825057       24.2445838282        6.3086856146
H         19.7058783060       25.4525425294        8.5695134971
H         24.0114589225       25.0499030036        8.6575171534
H         23.8476548977       26.4148526718       10.5422669783
H         22.7521682600       27.6940558861        9.9177673459
H         23.2234281318       26.9550061082       12.7019190318
H         20.2124057265       27.8523964927       13.0842513631
H         20.2080899525       30.5433262785       11.9074134096
H         18.0194840097       29.0683392042       13.4637526037
H         17.8031743730       30.5547340228       12.5646871507
H         21.2943106471       30.8655937606       14.1083821902
H         19.8440552194       32.6132828246       12.9617650718
H         18.5205577098       32.1578638764       13.9982628221
H         20.0492165169       30.6074729123       16.0030894456
H         17.9224637545       26.9277460164       12.3241589507
H         18.2742867499       30.5631686693       10.0185472413
H         17.5100726626       25.6460898949       10.2385304252
H         17.8627580189       29.2761583476        7.9317710184
H         21.8111105597       34.2412647859       15.6878513842
H         22.1204157299       32.5439343077       15.3475654141
H         17.4749937606       26.8172509280        8.0373639817
H         22.0208822020       33.0301106355       12.8807822000
H         17.3621266588       34.9957508422       15.5033954612
H         17.5803984333       30.8902448842       16.8476657223
H         21.6707555752       35.9687758417       13.7549355629
H         21.9549323664       35.4118570744       12.0926689303
H         20.4446237407       34.9976356031       12.9190237340
H         24.1979235901       33.1268112620       14.0769683258
H         24.1461990788       34.3045729392       12.7541571427
H         23.9461147005       34.8494845406       14.4324418737
H         14.9432419000       34.6996565098       15.0178218725
H         15.1650849125       30.6072574910       16.3554749410
H         13.0944271218       31.5822907673       15.5464311206
H         13.0046158538       33.2390573885       15.0051202524
    77
VM2 Rank=26     G=194.256           E=108.192           -TS=86.064              
C         23.0552654465       24.7113582871        5.9183568931
C         21.7455335663       24.7010965377        6.4323589446
F         23.2969486664       24.3671759354        4.6335843776
C         24.1274633857       25.0828885786        6.7446825734
C         21.5118405640       25.0612663703        7.7686908029
F         20.6995448568       24.3485699253        5.6517996251
C         23.8916691489       25.4445346398        8.0828070073
C         22.5823302950       25.4345835419        8.6039003582
N         22.3414572284       25.8118174507        9.9538054203
C         21.5132287012       25.1651798646       10.8515276399
C         22.9453564959       27.0078013363       10.5294214078
O         21.5244101620       25.8801981034       12.0118412726
O         20.8850745669       24.1369327269       10.6673058345
C         22.2990906248       27.1053160897       11.9234395516
C         21.4260078906       28.3668856934       12.0837776739
O         21.8254389483       29.4867948877       11.8111351921
N         20.1372042395       28.1483115879       12.5142880811
C         19.0684256966       29.1527604195       12.4488949683
C         17.7253357907       28.4625422408       12.1019711129
C         19.0229879596       29.9896790243       13.7584302835
C         17.7963675953       27.6958050810       10.7875994417
C         18.0908810757       31.2231909607       13.6231149193
O         18.6131205758       29.1757938209       14.8617242145
C         17.7208961780       28.3847881175        9.5634043406
C         17.9557911628       26.2975697586       10.7849686470
N         18.3281939600       32.2981327082       14.6249678182
C         17.7996683027       27.6835066559        8.3485962686
C         18.0331963800       25.5952818559        9.5710262622
S         17.5666474761       32.1100950495       16.1434796705
C         19.6829352206       32.9152884279       14.6359096086
C         17.9535429734       26.2879381269        8.3520952058
O         16.1480964246       31.9087277749       15.8240287594
C         17.6782615980       33.7535024413       16.8890536078
O         18.3449834419       31.1110636043       16.8876785985
C         20.1869796546       33.4130407720       13.2559455792
C         16.9162666040       34.8183894746       16.3697828680
C         18.5447355388       33.9858726795       17.9753752630
C         21.6157608232       33.9803532550       13.3891429899
C         19.2482910417       34.4903821858       12.6663066227
C         17.0188512861       36.1010205042       16.9343918392
C         18.6431898186       35.2704314436       18.5366386103
C         17.8813645137       36.3288446993       18.0178134664
N         17.9813641204       37.5912873613       18.5709363779
H         25.1384898129       25.0899619748        6.3470913330
H         20.4964898116       25.0500291999        8.1503681212
H         24.7311831675       25.7265058561        8.7128872447
H         22.7181345448       27.8876034864        9.9127416440
H         24.0318713510       26.8869223555       10.6194097857
H         23.0659696982       27.1299706726       12.7071949546
H         19.8906733385       27.1910380403       12.7307580317
H         19.3074010331       29.8412686911       11.6258095373
H         17.4377134250       27.7871279634       12.9179951247
H         16.9280678274       29.2122955781       12.0373028395
H         20.0473986944       30.3447861193       13.9290398630
H         18.2155152705       31.6402838328       12.6167893036
H         17.0477439668       30.8851081737       13.6784691301
H         18.6967382705       29.7225987654       15.6783906729
H         17.6037645434       29.4651221460        9.5537712495
H         18.0235165262       25.7539015146       11.7234994293
H         17.7411501199       28.2213756109        7.4056624296
H         18.1592951007       24.5152563696        9.5764755973
H         19.6934361426       33.7810088808       15.3100066186
H         20.4084598480       32.1991812923       15.0446863253
H         18.0141410081       25.7448176594        7.4120745587
H         20.2389046132       32.5663015717       12.5576377139
H         16.2494844477       34.6507720417       15.5271183962
H         19.1423228193       33.1733996514       18.3821008054
H         22.3055505032       33.2181190331       13.7740727409
H         21.9971387334       34.3116759933       12.4147009094
H         21.6408053130       34.8390432194       14.0726100256
H         19.1769198209       35.3590343636       13.3335416363
H         19.6165009052       34.8395332855       11.6932385181
H         18.2349547043       34.0980181982       12.5157176061
H         16.4290692348       36.9185882016       16.5289262711
H         19.3131115645       35.4440471159       19.3743715883
H         17.4353366118       38.3617878914       18.2014445579
H         18.6028420926       37.7647314846       19.3532602121
    77
VM2 Rank=27     G=194.260           E=107.600           -TS=86.660              
C         21.8218587701       22.9790907077        6.4575420018
C         22.8154848941       23.9743258401        6.4469322157
F         21.7140538584       22.0971060570        5.4387102681
C         20.9308314120       22.8955782518        7.5376434984
C         22.9146736315       24.8838847819        7.5121009409
F         23.6854685211       24.0685502212        5.4164650025
C         21.0317737789       23.8058108402        8.6038405123
C         22.0221131529       24.8101833059        8.6016779500
N         22.1140267964       25.7449756320        9.6756257709
C         21.8991950708       25.4882428480       11.0189732483
C         22.4182992402       27.1533981646        9.4394391973
O         22.0565367583       26.6591283951       11.6984734429
O         21.6183656574       24.4193816134       11.5335470373
C         22.4840450237       27.7560428904       10.8529885548
C         21.6260007849       29.0251035383       11.0116844632
O         21.6881759408       29.9565321888       10.2266603650
N         20.7378027265       29.0203412440       12.0654654053
C         19.5489412424       29.8815403012       12.1383662784
C         18.2838620435       29.0804288660       11.7268021631
C         19.4436219045       30.5303644262       13.5471948960
C         18.4461546165       28.3218188404       10.4134800925
C         18.2736026184       31.5469391912       13.6350861319
O         19.3001681531       29.5162910543       14.5473006481
C         18.6764542989       29.0162025727        9.2112420513
C         18.3766802839       26.9164313994       10.3945548727
N         18.3412586629       32.4845927610       14.7892527423
C         18.8467734957       28.3138593847        8.0064366217
C         18.5306877384       26.2145620162        9.1880443691
S         17.7253381948       31.9190296105       16.2799328781
C         19.5310244429       33.3756390901       14.8584700511
C         18.7735624173       26.9118539379        7.9943297768
O         16.3723890717       31.4437994236       15.9659925509
C         17.5056090126       33.4262920622       17.2539784884
O         18.7465540735       31.0318011602       16.8522061027
C         19.7965332724       34.2062582510       13.5760918817
C         16.5056414419       34.3544351215       16.9035067175
C         18.3473228758       33.6948900129       18.3513324654
C         21.0714984087       35.0574347454       13.7526930659
C         18.5979611080       35.1219052436       13.2376573147
C         16.3486813184       35.5371046373       17.6458541114
C         18.1857031305       34.8789152184       19.0907760306
C         17.1873932664       35.8008648212       18.7397658803
N         17.0318768890       36.9650693305       19.4678819427
H         20.1639185238       22.1261856080        7.5471329242
H         23.6940451996       25.6382701402        7.4824752976
H         20.3320654325       23.7256776211        9.4310105794
H         21.6163225582       27.6146496774        8.8475484760
H         23.3796004485       27.2790897565        8.9275787201
H         23.5194356581       28.0239247377       11.0965975981
H         20.7707247224       28.2137189860       12.6776039714
H         19.6727847383       30.7004332931       11.4162331019
H         18.0278716916       28.3779364317       12.5300671732
H         17.4293483339       29.7617594259       11.6393472828
H         20.3868029977       31.0679731929       13.7086863582
H         18.2515345665       32.1262805273       12.7044183077
H         17.3268403523       30.9916239594       13.6631884946
H         19.3236179661       29.9620095752       15.4269320136
H         18.7379676972       30.1010437677        9.2129016075
H         18.1989657943       26.3663826015       11.3148044097
H         19.0332732742       28.8565475295        7.0831947060
H         18.4581682182       25.1309256006        9.1783847704
H         19.4149134459       34.0910172318       15.6822868195
H         20.4234041696       32.7801718699       15.0933321650
H         18.9000543236       26.3672933394        7.0619351812
H         19.9729449242       33.5272574168       12.7308319998
H         15.8552960657       34.1593967860       16.0539289961
H         19.1265820371       32.9889156087       18.6288341479
H         21.9414358054       34.4222030959       13.9636658977
H         21.2897397480       35.6286470357       12.8411661081
H         20.9619748331       35.7701202879       14.5804975877
H         18.3900476963       35.8193367569       14.0594149905
H         18.7994026284       35.7121054327       12.3346428463
H         17.6881474046       34.5367919717       13.0546139242
H         15.5760813058       36.2496238668       17.3700605884
H         18.8377109776       35.0811101031       19.9361976482
H         16.3138998262       37.6370533039       19.2203271126
H         17.6342820139       37.1638783833       20.2590396723
    77
VM2 Rank=28     G=194.266           E=108.025           -TS=86.241              
C         21.4647168500       23.2898719901        6.9190930830
C         21.0659355829       24.6267774339        6.7371856851
F         21.2297253144       22.3619476062        5.9645484362
C         22.1137131635       22.9091858116        8.1038593277
C         21.3164111253       25.5787656259        7.7379305401
F         20.4342771683       25.0107665279        5.6054280547
C         22.3608667300       23.8624576400        9.1070608315
C         21.9604321936       25.2021652691        8.9329953028
N         22.2043490343       26.1647356932        9.9511936607
C         21.9799497047       26.0000730143       11.3050701010
C         22.7586322691       27.4783531452        9.6433796844
O         22.3502928620       27.1542485998       11.9291386370
O         21.5327694098       25.0151371970       11.8665428533
C         22.8188666783       28.1772506497       11.0124524263
C         21.9502814066       29.4491268126       11.0470184381
O         22.2786502317       30.4865959382       10.4979859854
N         20.7288874064       29.3204793037       11.6693922167
C         19.5514450157       30.1446665303       11.3510942468
C         18.2659679893       29.3026647172       11.5404088642
C         19.5059629051       31.4654890842       12.1710492453
C         18.2825176753       28.0254949506       10.7096232177
C         19.7558480085       31.2469770825       13.6897881611
O         20.4787158215       32.3703070251       11.6490849067
C         18.5300415929       26.7818778381       11.3201971801
C         18.0648260976       28.0816169951        9.3208841667
N         19.1467593517       32.2816742732       14.5666978715
C         18.5536944514       25.6066913370       10.5511158669
C         18.0875414082       26.9065863090        8.5510771106
S         17.4594118907       32.1664736512       14.8106395010
C         19.7018426386       33.6551221230       14.4519437448
C         18.3291766914       25.6682040646        9.1669442416
O         16.7938947852       32.7579437526       13.6439560422
C         17.1914851775       33.1288981755       16.3170665302
O         17.2356129825       30.7640355209       15.1833175384
C         21.2115824998       33.7624856046       14.7866470802
C         16.4928322039       34.3512294887       16.2680019916
C         17.7048407666       32.6722470582       17.5466780953
C         21.6856207037       35.2226573876       14.6304877514
C         21.5120587700       33.2616149622       16.2179937190
C         16.3080510582       35.1051639439       17.4394579441
C         17.5180064205       33.4303064878       18.7149240363
C         16.8196992637       34.6466075836       18.6633237212
N         16.6378066998       35.3910257949       19.8133219613
H         22.4223304352       21.8769471183        8.2433412923
H         20.9895646277       26.6026202974        7.5852354867
H         22.8643064912       23.5560907574       10.0208573926
H         23.7621105608       27.3779988710        9.2108276405
H         22.1072625102       28.0260143469        8.9501628693
H         23.8494234048       28.4660719253       11.2530060397
H         20.5652594018       28.4239493940       12.1097712651
H         19.6027576941       30.4197876546       10.2874733562
H         18.1250744439       29.0561901126       12.5999315523
H         17.3947745663       29.9073835412       11.2571028468
H         18.5102595748       31.9043009530       12.0309505053
H         19.3631278813       30.2656365702       13.9802907908
H         20.8370430852       31.1872912099       13.8606247592
H         21.2228231573       31.8110282956       11.3182257115
H         18.7057164165       26.7231787547       12.3910695668
H         17.8779102535       29.0370234697        8.8379276066
H         18.7502089525       24.6495092255       11.0280270678
H         17.9186206522       26.9555984128        7.4782488514
H         19.5277834048       34.0385503209       13.4373222163
H         19.1717168299       34.3314664834       15.1341667659
H         18.3485364422       24.7587170484        8.5717570443
H         21.7832537738       33.1546723700       14.0722617112
H         16.0964387111       34.7172350132       15.3237772691
H         18.2516996362       31.7333401892       17.5931309739
H         21.5072160210       35.5830739879       13.6090600371
H         21.1568262584       35.8887714944       15.3244435923
H         22.7612878730       35.3082174386       14.8308803529
H         20.9471284419       33.8354927964       16.9639031636
H         21.2446660099       32.2035705351       16.3317603198
H         22.5799798007       33.3597314560       16.4505204024
H         15.7684051516       36.0472999419       17.3960611171
H         17.9174592315       33.0733923532       19.6602676189
H         17.0038316597       35.0668036510       20.7016938532
H         16.1340115323       36.2706284935       19.7849512996
    77
VM2 Rank=29     G=194.314           E=107.627           -TS=86.687              
C         22.9044936107       23.8396472703        6.5681457652
C         22.2919248223       25.1031170245        6.4800136130
F         23.1649066278       23.1178974755        5.4551660397
C         23.2518578561       23.3177334621        7.8237493903
C         22.0280535205       25.8408504827        7.6448209927
F         21.9470327663       25.6207286641        5.2798425079
C         22.9844131444       24.0558365367        8.9899091506
C         22.3665831677       25.3199202687        8.9094392466
N         22.0947922676       26.0658093323       10.0901399641
C         21.5620708879       25.5743635790       11.2673066033
C         22.3908345505       27.4911397595       10.1767382967
O         21.4920956170       26.6074623061       12.1536945596
O         21.2100174641       24.4304898854       11.4985204907
C         21.9937954661       27.8592207396       11.6170198653
C         20.9540021691       28.9955141987       11.6691842099
O         21.1563069174       30.0913360342       11.1746875317
N         19.7458025015       28.6718560807       12.2471824247
C         18.4885214192       29.3734230687       11.9440107775
C         17.4168124511       28.3318215714       11.5383745326
C         18.0341843077       30.2771177934       13.1235643513
C         17.8792995123       27.4204768973       10.4069380884
C         19.1256479198       31.3185620888       13.5012054491
O         16.8084446362       30.9370373047       12.7964838350
C         18.1547109935       26.0623574772       10.6522016703
C         18.0474125356       27.9347229866        9.1081806659
N         18.6896916894       32.3750683673       14.4522834569
C         18.5850839612       25.2261376376        9.6086809720
C         18.4806603563       27.0999910293        8.0645220041
S         17.9626791713       31.8779924687       15.9134328714
C         18.2130791134       33.6392479928       13.8386104116
C         18.7456896575       25.7440617768        8.3140575221
O         16.5475854822       31.6407763108       15.5978696207
C         18.2128178482       33.2910683959       17.0127071189
O         18.8308442158       30.8017875884       16.4063489150
C         19.3583497604       34.5009425638       13.2492006694
C         19.4865261783       33.5482432242       17.5565367586
C         17.1419558661       34.1543946531       17.3170540130
C         18.7794585120       35.7606491309       12.5715269155
C         20.3779239462       34.9103328701       14.3362912878
C         19.6861421470       34.6598962033       18.3923933466
C         17.3467678377       35.2645028767       18.1539254530
C         18.6178384453       35.5193321906       18.6916370968
N         18.8168886795       36.6131324316       19.5124015445
H         23.7266526587       22.3429216763        7.8912274874
H         21.5468019388       26.8099549636        7.5571361990
H         23.2601915005       23.6416300139        9.9566977948
H         23.4586076355       27.6755676498       10.0037042144
H         21.7917457340       28.0544210386        9.4494442407
H         22.8745564779       28.1851793201       12.1837460062
H         19.6864839806       27.7321711764       12.6201064782
H         18.6533784645       30.0291288668       11.0772376003
H         17.1389450477       27.7369495063       12.4175207806
H         16.5025716291       28.8530648971       11.2271662044
H         17.8683298099       29.6262107319       13.9931985400
H         19.9624056160       30.7698589405       13.9528634247
H         19.5146948342       31.7664609884       12.5792072322
H         16.4652535952       31.3092542868       13.6426101941
H         18.0373151081       25.6525662346       11.6518109751
H         17.8420098629       28.9830361765        8.9084276371
H         18.7984761432       24.1782725540        9.8054485037
H         18.6076582973       27.5030567246        7.0629295531
H         17.4823573124       33.4188179549       13.0492448592
H         17.6898868994       34.2518689623       14.5835734245
H         19.0782769197       25.0965523457        7.5066229417
H         19.8871672486       33.9221323632       12.4798309425
H         20.3208595878       32.8902706534       17.3251454042
H         16.1541730042       33.9674914187       16.9023103715
H         18.2461181823       36.3908416612       13.2950257357
H         19.5776432977       36.3639152947       12.1202624526
H         18.0762414536       35.4881762355       11.7739768541
H         19.8929603620       35.4777490611       15.1413094170
H         20.8561065952       34.0288457123       14.7814469084
H         21.1723292672       35.5366156572       13.9110184986
H         20.6717695138       34.8547390077       18.8061027903
H         16.5176526029       35.9281838764       18.3836593752
H         18.0508351154       37.2400473447       19.7323060475
H         19.7324541560       36.8054215642       19.9035141050
    77
VM2 Rank=30     G=194.318           E=105.226           -TS=89.092              
C         22.6910795802       24.0878676938        8.0990660794
C         22.5148655398       25.4632212981        7.8602052268
F         22.9967419326       23.2439432808        7.0882402114
C         22.5475600161       23.5801109763        9.3996940408
C         22.1968200392       26.3269444921        8.9201129709
F         22.6422171652       25.9690667550        6.6131357228
C         22.2255921135       24.4452251488       10.4599516007
C         22.0451817767       25.8228319496       10.2266225753
N         21.7125658383       26.6957594538       11.2981169072
C         20.7365627028       26.4832730290       12.2529633575
C         22.4165321927       27.9562653486       11.5037310853
O         20.7393132724       27.5569104046       13.0920972136
O         19.9932916779       25.5221245426       12.3483209843
C         21.6909191661       28.5830177560       12.7064822742
C         21.0074357655       29.9120150706       12.3335824664
O         21.6301824048       30.9331784544       12.0995868400
N         19.6383625809       29.8605025618       12.1967349762
C         18.8467526097       30.8117760582       11.3995623016
C         17.6565704582       30.0659127934       10.7501657869
C         18.3960629558       32.0463179341       12.2327716254
C         18.1138021743       28.9028780782        9.8780179543
C         17.6262933233       31.6548531989       13.5250568629
O         19.5418348743       32.8330137479       12.5460860901
C         18.0006853245       27.5782320221       10.3401605873
C         18.6702682469       29.1458120125        8.6089837424
N         17.2762502342       32.7887823778       14.4244972816
C         18.4340724575       26.5083034937        9.5398147947
C         19.1032499440       28.0762413404        7.8074214913
S         18.3929133603       33.3318612451       15.6090743113
C         16.4172800197       33.8515910509       13.8460909751
C         18.9817108283       26.7567370141        8.2714736209
O         19.0312878809       34.5523917508       15.1002396179
C         19.6453409210       32.0304549707       15.7825647024
O         17.6093795818       33.3368623007       16.8508269434
C         15.0862383523       33.3530898049       13.2240624885
C         20.9512599556       32.2191494027       15.2875312957
C         19.3236028358       30.8210675916       16.4314668993
C         14.3003524526       34.5422616585       12.6328289107
C         14.2145590602       32.6129296085       14.2639861129
C         21.9159242554       31.2074769660       15.4286694648
C         20.2893306702       29.8085427235       16.5623346165
C         21.5865634872       30.0005826147       16.0634553561
N         22.5371899713       29.0066200241       16.2002116332
H         22.6841041046       22.5181227524        9.5834323050
H         22.0506031075       27.3830402631        8.7151068855
H         22.1157055573       24.0416374619       11.4636870857
H         23.4717955800       27.7690034136       11.7392923951
H         22.3411558143       28.5992251623       10.6173393660
H         22.3965085364       28.7831544403       13.5208831690
H         19.2166066880       28.9699347010       12.4274850987
H         19.4802707990       31.1842456404       10.5813017087
H         16.9720181430       29.6999127074       11.5247537100
H         17.0765200358       30.7708890034       10.1409601808
H         17.7254091278       32.6500191386       11.6071574581
H         16.7017228596       31.1502990777       13.2249791288
H         18.1961556776       30.8950665695       14.0675870473
H         20.3150664232       32.2196884337       12.5087200128
H         17.5793048279       27.3746876202       11.3209933683
H         18.7681728819       30.1647963690        8.2442106201
H         18.3482361877       25.4876858449        9.9048716090
H         19.5324754846       28.2698042765        6.8275558612
H         16.1660437048       34.5745612998       14.6346183505
H         16.9883416331       34.4038648794       13.0870318516
H         19.3171503330       25.9288038182        7.6519367543
H         15.3069163469       32.6653290650       12.3968253101
H         21.2173678873       33.1480641426       14.7886818029
H         18.3221079182       30.6651452886       16.8254912748
H         14.0363771728       35.2698630747       13.4112511238
H         14.8923131099       35.0621449603       11.8685364805
H         13.3708965834       34.2006483173       12.1593702994
H         13.2739976363       32.2705672015       13.8140602744
H         14.7321432696       31.7312862416       14.6621284310
H         13.9681979867       33.2681375152       15.1093355608
H         22.9183240877       31.3607330554       15.0386388556
H         20.0309135068       28.8759503137       17.0562158997
H         22.3213466829       28.1654087343       16.7226861421
H         23.5040997031       29.1870442435       15.9567708083
