    73
VM2 Rank=1      G=154.118           E=81.890            -TS=72.228              
C         22.1990090307       25.1988870722        5.8993456149
C         22.9761746152       24.3361729395        6.6890038059
C         21.6378076073       26.3494364081        6.4720018041
C         23.1854092696       24.6267379686        8.0480256425
F         20.8888364083       27.1785212440        5.7162104443
C         21.8476517277       26.6428340219        7.8275355691
C         22.6189721972       25.7788669196        8.6296968029
N         22.8326473146       26.0724474866       10.0059703637
C         23.1616489063       27.4196967891       10.4566540519
C         22.7902966791       25.1722698051       11.0541676186
C         23.3347132697       27.2652918289       11.9791336418
O         23.0972095760       25.8503633053       12.1957267677
O         22.5320316475       23.9822746727       10.9963227161
C         22.3667674465       28.1520614952       12.7880369478
N         21.7441428796       27.5341674879       13.8507299431
O         22.1179936304       29.3061240091       12.4815407327
C         20.4693416532       27.9893574879       14.4220949473
C         19.3370900913       27.0048742571       14.0329733873
C         20.6118241055       28.2225285205       15.9543747893
C         19.2469901381       26.7684829957       12.5286724491
O         20.8741347553       26.9858673545       16.6243063695
C         19.3643495951       28.8829823206       16.5992803083
C         19.4819423795       25.4874204175       11.9955277025
C         18.9401175091       27.8304649281       11.6575615144
N         18.8484185137       30.0948914918       15.9025267191
C         19.4006910021       25.2684696526       10.6102549618
C         18.8619266928       27.6138642902       10.2719822085
C         19.8581242320       31.1777706543       15.7546541234
S         17.2853354517       30.6000102310       16.4073754329
C         19.0868355288       26.3309111105        9.7484060317
C         19.5063840380       32.1680041982       14.6786285740
C         16.5054618981       31.3664078600       14.9773163253
O         16.5334245987       29.3654159977       16.6613704581
O         17.4718626361       31.5513771497       17.5095881146
S         19.4885923786       31.8078219664       12.9585538681
C         19.2078623778       33.4809375053       14.9366565814
C         16.3285858339       30.6338862977       13.7898995294
C         16.0661796223       32.7052438968       15.0402272769
C         19.0096620100       33.4653555971       12.6052137906
C         18.9171073389       34.2167084314       13.7516310976
C         15.7420293851       31.2344588458       12.6650279495
F         16.7288024177       29.3507624357       13.7002939562
C         15.4806931765       33.3069851298       13.9151189222
C         15.3218924228       32.5719288328       12.7251412773
F         15.0794947683       34.5948593062       13.9902220022
F         14.7635312436       33.1387973834       11.6330168647
H         22.0317147436       24.9794399203        4.8487328643
H         23.4157419042       23.4440041149        6.2493969882
H         23.7921318508       23.9524250076        8.6472775773
H         21.3973395140       27.5359678402        8.2487308327
H         22.3457900225       28.1148091606       10.2201284018
H         24.0922774127       27.7650757291        9.9891129901
H         24.3568178095       27.5264399951       12.2791419079
H         22.0260043142       26.5797304450       14.0376639744
H         20.2219298406       28.9579857372       13.9690288547
H         19.4928251796       26.0519682060       14.5540665388
H         18.3759627273       27.3897250857       14.3928401663
H         21.4732917290       28.8861031872       16.1047897562
H         21.1549581001       27.2018529651       17.5375796595
H         18.5825115181       28.1132113832       16.6308386486
H         19.5991677701       29.1350210738       17.6418316162
H         19.7302008585       24.6590568604       12.6537156632
H         18.7651003628       28.8261918288       12.0543067686
H         19.5848188783       24.2761964929       10.2056425611
H         18.6232949624       28.4390610868        9.6058912543
H         19.9903914763       31.7012520405       16.7115821665
H         20.8374858602       30.7715600978       15.4802830022
H         19.0209938667       26.1605917298        8.6767249270
H         19.1805892385       33.9163222418       15.9299254941
H         16.1910492516       33.2835290405       15.9518726861
H         18.8400449927       33.7719486898       11.5810537954
H         18.6459832282       35.2671775076       13.7600988545
H         15.6172364715       30.6659760991       11.7487117813
    73
VM2 Rank=2      G=154.209           E=81.883            -TS=72.325              
C         22.0657974291       25.4691875007        5.7344852982
C         21.5082749616       26.6082619148        6.3371228624
C         22.8399357765       24.5854882522        6.5003521544
C         21.7265286551       26.8572257137        7.7027813204
F         23.3801229378       23.4930915643        5.9217601929
C         23.0582969032       24.8316012753        7.8641710549
C         22.4979630965       25.9685559780        8.4791026736
N         22.7190433679       26.2236680279        9.8622084541
C         23.0417692672       27.5595540489       10.3498491472
C         22.6926561210       25.2930095088       10.8841187028
C         23.2471223089       27.3586426284       11.8628045309
O         23.0063552123       25.9391769646       12.0422383986
O         22.4412209959       24.1035728127       10.7936889164
C         22.3046386978       28.2270632450       12.7199964689
N         21.7027927100       27.5820958457       13.7786091162
O         22.0556712454       29.3907323261       12.4524463747
C         20.4383261513       28.0223525560       14.3838839130
C         19.2980402255       27.0501979502       13.9866433295
C         20.6061838647       28.2128789677       15.9194562765
C         19.1891986410       26.8468098048       12.4787128047
O         20.8801253497       26.9583554945       16.5504082443
C         19.3688013314       28.8536104996       16.6025056060
C         18.8866505258       27.9304376853       11.6330473092
C         19.4041381033       25.5746667168       11.9165717888
N         18.8417461794       30.0840012156       15.9478048670
C         18.7949327904       27.7443620707       10.2438608005
C         19.3086667911       25.3861910888       10.5277757401
C         19.8470504311       31.1737589852       15.8224976672
S         17.2826309236       30.5681352601       16.4842244311
C         19.0012143229       26.4704541374        9.6912570217
C         19.4836769308       32.1938425441       14.7787158339
C         16.4883572348       31.3857512838       15.0908859400
O         16.5342928040       29.3238051843       16.6980428047
O         17.4777813259       31.4784621784       17.6191050223
S         19.4533043340       31.8840848019       13.0490209689
C         19.1839588036       33.4978722499       15.0773442769
C         16.3031167176       30.6983483494       13.8780162802
C         16.0455969015       32.7197507510       15.2085766454
C         18.9667145084       33.5497275997       12.7481381822
C         18.8814705362       34.2670302667       13.9167132791
C         15.7046537246       31.3393048373       12.7820688245
F         16.7069307864       29.4211085864       13.7358143381
C         15.4482325300       33.3618712970       14.1124058540
C         15.2809887995       32.6720800060       12.8967681801
F         15.0438387606       34.6446028942       14.2400179650
F         14.7111899844       33.2782171300       11.8319801385
H         21.9015342509       25.2710064201        4.6791872308
H         20.9075788353       27.2968290485        5.7476864408
H         21.2829296383       27.7396015724        8.1556033366
H         23.6652965118       24.1363317340        8.4363295250
H         22.2121086529       28.2507106562       10.1529135019
H         23.9579778170       27.9324964702        9.8750628195
H         24.2777840371       27.6039843664       12.1464501328
H         21.9836492563       26.6212596321       13.9311039918
H         20.1848571662       29.0035335344       13.9622219365
H         19.4570211115       26.0855472407       14.4846145510
H         18.3425824274       27.4298772011       14.3666055450
H         21.4696700738       28.8728436120       16.0739667461
H         21.1764899429       27.1492409069       17.4643626437
H         18.5881256632       28.0823512622       16.6246402207
H         19.6196521256       29.0765025843       17.6479583806
H         18.7265710127       28.9195051268       12.0522630190
H         19.6485404751       24.7297272462       12.5548104299
H         18.5606542961       28.5863214057        9.5975372155
H         19.4779253537       24.4007645566       10.1005938109
H         19.9863345087       31.6696290931       16.7930418482
H         20.8250223262       30.7783478756       15.5281458657
H         18.9260934484       26.3236700293        8.6167492500
H         19.1637239898       33.9040688685       16.0830664755
H         16.1767591686       33.2633321462       16.1404651798
H         18.7879050932       33.8855629182       11.7347706539
H         18.6075857728       35.3160051259       13.9580543871
H         15.5735150926       30.8057271281       11.8458694109
    73
VM2 Rank=3      G=154.235           E=81.291            -TS=72.944              
C         21.4701623475       26.4655673628        6.1831576980
C         22.3556640649       25.4744499932        6.6365004064
C         21.0147678760       27.4504455250        7.0715458616
C         22.7782890698       25.4710345428        7.9768556381
F         20.1606334312       28.4011045234        6.6399685637
C         21.4381737285       27.4510825629        8.4086820876
C         22.3193273750       26.4555485201        8.8748078684
N         22.7419212577       26.4480693408       10.2337762045
C         23.1502994335       27.6729025804       10.9129464064
C         22.8407381306       25.3414852539       11.0568450982
C         23.5152437884       27.1999405734       12.3304755569
O         23.2897112794       25.7676838760       12.2717666748
O         22.5825668528       24.1839227510       10.7760946761
C         22.6618576287       27.8968557548       13.4068113293
N         21.6760925980       27.1255548061       13.9821066860
O         22.7792271751       29.0808058338       13.6735282547
C         20.4303171003       27.7078140434       14.4971209856
C         19.2517441630       26.7420510217       14.2213034447
C         20.5900153531       28.1072097024       15.9928267219
C         19.1521847911       26.3677465994       12.7466996762
O         20.7959019120       26.9436490249       16.7922189535
C         19.3887667107       28.9050234323       16.5614519358
C         19.4709731388       25.0654982512       12.3192675009
C         18.7663125074       27.3299194747       11.7952051424
N         18.9359538746       30.0571195919       15.7313570937
C         19.3979784516       24.7283413185       10.9574702983
C         18.6910645005       26.9934484924       10.4337818488
C         20.0081537521       31.0416757602       15.4197709268
S         17.4274898789       30.7311653692       16.2028811832
C         19.0076692822       25.6917561571       10.0142324331
C         19.6999510153       31.8756442945       14.2067717168
C         16.6545225750       31.3442470239       14.6973951593
O         16.6080104815       29.5980143643       16.6485076200
O         17.7131911503       31.8110756431       17.1552549452
S         19.6137981159       31.2536247763       12.5651400441
C         19.5014013716       33.2310468658       14.2588454187
C         16.3737343980       30.4635265130       13.6376842505
C         16.3277737979       32.7105048996       14.5712719441
C         19.2428743021       32.8660422823       11.9619523956
C         19.2326626849       33.7919127814       12.9768768738
C         15.7957928065       30.9408535820       12.4510144299
F         16.6630481725       29.1511419370       13.7317018055
C         15.7507284577       33.1888903224       13.3842794994
C         15.4881689775       32.3038074850       12.3215866181
F         15.4584604922       34.5034949539       13.2765911668
F         14.9366797479       32.7503002358       11.1716689567
H         21.1373256482       26.4725038338        5.1492020955
H         22.7132899186       24.7095580118        5.9513455154
H         23.4650626947       24.6990401823        8.3148389119
H         21.0640240020       28.2182616944        9.0787134199
H         22.3258263653       28.3970316123       10.9412905154
H         24.0194997289       28.1178179334       10.4122646298
H         24.5693741143       27.4123193025       12.5471267102
H         21.6563627230       26.1571519666       13.6865998073
H         20.2363023099       28.6253214338       13.9256309832
H         19.3611569559       25.8389637653       14.8347938691
H         18.3117881223       27.2087050173       14.5390394527
H         21.4855070198       28.7371515354       16.0733445849
H         21.5192120086       26.4491110858       16.3514188748
H         18.5649932823       28.1905029762       16.6858849961
H         19.6528701096       29.2581736820       17.5670046776
H         19.7791091104       24.3131689922       13.0403587826
H         18.5263692406       28.3406555641       12.1104199875
H         19.6520763686       23.7222964799       10.6328201184
H         18.3910076951       27.7414643512        9.7042280293
H         20.1845501524       31.6939632449       16.2860827711
H         20.9595246851       30.5434872984       15.2051637057
H         18.9561019100       25.4315374259        8.9599248674
H         19.5303543291       33.8170632530       15.1713067141
H         16.5340024052       33.4032952998       15.3828256887
H         19.0688529906       33.0206582465       10.9048343882
H         19.0361642988       34.8478217717       12.8235547951
H         15.5901517307       30.2570560832       11.6333844887
    73
VM2 Rank=4      G=154.272           E=81.344            -TS=72.928              
C         21.3828611255       26.6794492027        6.0435890906
C         20.9134656197       27.6492451093        6.9438975794
C         22.2649908844       25.6848231792        6.4900692202
C         21.3274755529       27.6187221475        8.2863290471
F         22.7200675821       24.7548346349        5.6252437078
C         22.6786470340       25.6517315395        7.8302166800
C         22.2082567247       26.6168068054        8.7423403323
N         22.6220475509       26.5860834105       10.1041811528
C         23.0036445880       27.8023501266       10.8137778460
C         22.7421318824       25.4625759469       10.9013138759
C         23.4126037063       27.2987125563       12.2085636982
O         23.1872488415       25.8677710331       12.1247436164
O         22.5025145693       24.3076726303       10.5942065909
C         22.5974152599       27.9704727819       13.3293683515
N         21.6392853268       27.1815527463       13.9265646858
O         22.7171732542       29.1501365232       13.6135021301
C         20.4035329005       27.7448841856       14.4847310124
C         19.2216784730       26.7843087621       14.2047532403
C         20.5940678010       28.1031118808       15.9869030273
C         19.1019490666       26.4448692360       12.7231900017
O         20.8205265013       26.9185819285       16.7490500444
C         19.4021085538       28.8798728477       16.6021041211
C         18.7142349154       27.4322371367       11.7986677665
C         19.4084384987       25.1512938147       12.2617200179
N         18.9294337724       30.0531406334       15.8138249488
C         18.6268436320       27.1297140681       10.4300951724
C         19.3223610652       24.8478692125       10.8927735051
C         19.9914693242       31.0525660780       15.5150393725
S         17.4251062047       30.7032197501       16.3297671343
C         18.9320370743       25.8368296830        9.9763234596
C         19.6606957729       31.9208754882       14.3324821842
C         16.6282358672       31.3685031543       14.8592887528
O         16.6157402368       29.5506619331       16.7429128386
O         17.7196841815       31.7482978724       17.3176154521
S         19.5565886994       31.3487322411       12.6738468579
C         19.4541038853       33.2726657539       14.4286712089
C         16.3395603621       30.5276569051       13.7697036139
C         16.2899638949       32.7360839057       14.7910417332
C         19.1662274247       32.9760768284       12.1254494184
C         19.1638418038       33.8704541013       13.1682724669
C         15.7421397917       31.0464563053       12.6103982173
F         16.6402170264       29.2150027781       13.8081132067
C         15.6934503437       33.2559328181       13.6314247114
C         15.4229037594       32.4109833386       12.5385016504
F         15.3902776002       34.5714376370       13.5791200794
F         14.8527520640       32.8977393487       11.4143071789
H         21.0671689059       26.6973228667        5.0044089313
H         20.2291203999       28.4223945032        6.6029801828
H         20.9486550116       28.3710834711        8.9722440320
H         23.3651125158       24.8745992949        8.1526827005
H         22.1539986961       28.4941414550       10.8814892181
H         23.8458238159       28.2943249141       10.3109359145
H         24.4737797442       27.5058087023       12.3936802487
H         21.6164857542       26.2190307485       13.6123660681
H         20.1950347979       28.6778316564       13.9441335450
H         19.3415474286       25.8672302645       14.7950848287
H         18.2861280752       27.2422202410       14.5473465842
H         21.4891584477       28.7338751013       16.0654710350
H         21.5367045840       26.4397313254       16.2801566731
H         18.5834227203       28.1588458425       16.7224578164
H         19.6850138590       29.2054153207       17.6118532654
H         18.4835384377       28.4365804020       12.1403054527
H         19.7180935545       24.3799312686       12.9617495275
H         18.3258301567       27.8972078311        9.7217021633
H         19.5672189735       23.8484400353       10.5416539892
H         20.1781808826       31.6795869267       16.3976961357
H         20.9417541458       30.5660136864       15.2708358848
H         18.8715604448       25.6031785018        8.9162623311
H         19.4918706017       33.8307991316       15.3581322723
H         16.5020431151       33.3982330821       15.6263185967
H         18.9765603574       33.1616461986       11.0760366039
H         18.9581949668       34.9291318517       13.0500368204
H         15.5305396446       30.3935543455       11.7693775622
    73
VM2 Rank=5      G=154.288           E=82.060            -TS=72.228              
C         22.2572565641       27.3530893530        5.9950506693
C         23.5053208568       27.5900615287        6.5944275297
C         21.2036107661       26.8344587673        6.7621711083
C         23.6937509768       27.3077728519        7.9584551270
F         20.0033766464       26.6080093801        6.1894924266
C         21.3900571349       26.5517746517        8.1232461183
C         22.6378755740       26.7851937085        8.7311705593
N         22.8238035202       26.5098403393       10.1130489396
C         23.4220504069       27.4905420072       11.0100919566
C         22.4434572592       25.3591522513       10.7762396892
C         23.3374485531       26.8171550166       12.3918990395
O         22.7465852820       25.5241110013       12.0954732452
O         21.9371372692       24.3630154770       10.2898249708
C         22.5063073032       27.6345417447       13.4004848944
N         21.4915784619       26.9515655186       14.0342177721
O         22.6808293625       28.8272644988       13.5869533456
C         20.3126580281       27.6320474487       14.5864605033
C         19.0729087522       26.7118780030       14.4646859017
C         20.5924581245       28.1230711501       16.0371866525
C         18.8600533654       26.2166365032       13.0388452113
O         20.8016411471       27.0078320739       16.9020210143
C         19.4686319568       29.0143650961       16.6245713439
C         19.0349303447       24.8559380948       12.7258967868
C         18.5095439712       27.1194455528       12.0177956174
N         19.0156445405       30.1292872672       15.7455038349
C         18.8507131058       24.4018593807       11.4095514378
C         18.3262360553       26.6669227492       10.7008804094
C         20.1075001719       31.0473654480       15.3202446100
S         17.5600358408       30.8907236093       16.2481285501
C         18.4929940210       25.3063785342       10.3973456990
C         19.7724777987       31.8174922951       14.0727131212
C         16.7439710118       31.4693920580       14.7517291343
O         16.7136044425       29.8155231115       16.7788163073
O         17.9336346826       31.9988095123       17.1354442848
S         19.5902036368       31.1012934923       12.4780588957
C         19.6249332647       33.1802014769       14.0491329613
C         16.3863328205       30.5570765354       13.7430586367
C         16.4589451335       32.8403298925       14.5823495322
C         19.2480293760       32.6871772060       11.7929573171
C         19.3170940879       33.6723943222       12.7479213253
C         15.7724704628       31.0064090327       12.5635118013
F         16.6359940461       29.2401859017       13.8787728187
C         15.8460935524       33.2906086277       13.4023279412
C         15.5060434601       32.3731560854       12.3902728198
F         15.5944623043       34.6094372845       13.2520819255
F         14.9193145567       32.7922141586       11.2474862135
H         22.1049653984       27.5695851518        4.9415385323
H         24.3251974441       27.9913930065        6.0034721408
H         24.6650477130       27.4913675376        8.4100291883
H         20.5632626553       26.1534661852        8.7014552301
H         22.8533608403       28.4296153464       10.9807786243
H         24.4676514302       27.6806783565       10.7386012912
H         24.3398931082       26.6854545998       12.8170905403
H         21.4018057997       25.9743842328       13.7815197837
H         20.1238337026       28.5168657552       13.9638751927
H         19.1760206209       25.8600629573       15.1484758525
H         18.1788399028       27.2544849884       14.7941208787
H         21.5179733217       28.7128059203       16.0153102385
H         21.4621509075       26.4444567025       16.4454920664
H         18.6240394341       28.3506234102       16.8495280657
H         19.8135317059       29.4199732388       17.5848497817
H         19.3145639017       24.1480654294       13.5015134455
H         18.3805396874       28.1735190949       12.2441626033
H         18.9908696998       23.3501264488       11.1729251567
H         18.0540534158       27.3696985742        9.9174164261
H         20.3525382915       31.7437825530       16.1339132329
H         21.0266140353       30.4970410306       15.0927582305
H         18.3507252627       24.9536904433        9.3788819922
H         19.7168297663       33.8188132608       14.9212350448
H         16.7245710821       33.5575726248       15.3544305887
H         19.0310320758       32.7841093972       10.7369283558
H         19.1510460679       34.7238175834       12.5381403884
H         15.5075856122       30.2979106461       11.7849066507
    73
VM2 Rank=6      G=154.364           E=82.114            -TS=72.250              
C         21.7795624644       27.1086721635        5.8888389874
C         20.7891656197       26.5891760140        6.7383734922
C         23.0472398196       27.4173972072        6.4041720449
C         21.0722196715       26.3811641700        8.0989637233
F         23.9995354503       27.9157180629        5.5889202241
C         23.3316003850       27.2108959696        7.7626316142
C         22.3440381013       26.6887278143        8.6199943098
N         22.6220667893       26.4873234561        9.9992375213
C         23.2324824003       27.5319567301       10.8120759765
C         22.3319122209       25.3550673158       10.7358230368
C         23.2772127353       26.9152669805       12.2218791736
O         22.7094368022       25.5933520492       12.0243746666
O         21.8384683265       24.3181530175       10.3276547317
C         22.5017718193       27.7489243271       13.2608761689
N         21.5690018661       27.0611462906       14.0054496104
O         22.6448263959       28.9543643858       13.3803865784
C         20.4070189492       27.7244734009       14.6117302603
C         19.1990624421       26.7553313475       14.6236495190
C         20.7706369592       28.2963326433       16.0132915837
C         18.9096381812       26.1791850408       13.2423858191
O         21.0837645332       27.2334829132       16.9120184095
C         19.6577107327       29.1757565680       16.6381069097
C         18.4609279377       27.0154131650       12.2032247565
C         19.1134659254       24.8105754350       12.9867653574
N         19.1014929673       30.2288963978       15.7422470021
C         18.2102596112       26.4891899310       10.9254074772
C         18.8617693977       24.2827624047       11.7097152140
C         20.1242791893       31.1642244761       15.1991701926
S         17.6540645554       30.9599696230       16.3092557022
C         18.4073567910       25.1210817306       10.6794719841
C         19.6756246976       31.8574076963       13.9422295401
C         16.7172733735       31.4376118282       14.8483065331
O         16.8879710069       29.8808514778       16.9438660457
O         18.0424058619       32.1214247031       17.1185510337
S         19.4165792878       31.0554253237       12.3998769273
C         19.4719862828       33.2107966243       13.8636351133
C         16.3296126665       30.4666181294       13.9077950287
C         16.3671134520       32.7877251640       14.6385549482
C         18.9654931836       32.5909129079       11.6648495923
C         19.0582787798       33.6249411457       12.5645978464
C         15.6207050549       30.8374404134       12.7545406200
F         16.6403529031       29.1676151537       14.0838256928
C         15.6591628725       33.1594990800       13.4846959218
C         15.2889634136       32.1838595225       12.5398752064
F         15.3456702024       34.4597142265       13.2940076654
F         14.6108179209       32.5271755723       11.4227002370
H         21.5681563525       27.2721042588        4.8359687292
H         19.8046891009       26.3487792667        6.3441392677
H         20.2995784480       25.9813349863        8.7491930425
H         24.3203547762       27.4524412112        8.1399529972
H         22.6165664085       28.4408827741       10.7868668283
H         24.2459284311       27.7598874199       10.4598272982
H         24.3138026354       26.8311044083       12.5703609075
H         21.4976501880       26.0708289193       13.8028471309
H         20.1388559377       28.5703043629       13.9645855995
H         19.3824974395       25.9445081536       15.3396770145
H         18.3089571200       27.2819079137       14.9880175854
H         21.6688519672       28.9162315903       15.8959839573
H         21.7316227463       26.6718710714       16.4355785693
H         18.8573052381       28.4947483176       16.9544339879
H         20.0535332362       29.6404500525       17.5507893566
H         18.3084355428       28.0750164320       12.3848285775
H         19.4685793505       24.1538146550       13.7763412865
H         17.8626938415       27.1409660028       10.1278528047
H         19.0248990322       23.2254159269       11.5168929694
H         20.3950165789       31.9094294281       15.9597408464
H         21.0475635983       30.6375715249       14.9354565977
H         18.2133870805       24.7111162178        9.6915513240
H         19.5961039337       33.8955980404       14.6957822591
H         16.6550154174       33.5495609181       15.3581528759
H         18.6747618833       32.6263203221       10.6227831969
H         18.8362657554       34.6575631756       12.3166593603
H         15.3328119641       30.0840720104       12.0279668738
    73
VM2 Rank=7      G=154.424           E=82.220            -TS=72.204              
C         22.3644025242       26.8271938620        5.8970014586
C         23.5085661328       27.3590722142        6.5135073371
C         21.4097954726       26.1499217582        6.6693967237
C         23.6915733800       27.2132045608        7.8995040586
F         20.3090746249       25.6383924344        6.0806573172
C         21.5917528871       26.0023372228        8.0521806159
C         22.7345547262       26.5336644668        8.6805201155
N         22.9127701135       26.3981649275       10.0865947870
C         23.3676504834       27.5147651376       10.9083090218
C         22.6518572368       25.2707208666       10.8436782127
C         23.3785086398       26.9382544853       12.3346564498
O         22.9101648878       25.5774344786       12.1466410651
O         22.2639432033       24.1860197178       10.4451669255
C         22.5020946377       27.7461487478       13.3111022131
N         21.4887988762       27.0439140392       13.9248174413
O         22.6465654230       28.9435342217       13.4921343605
C         20.2986910450       27.6955727832       14.4867643667
C         19.0639517555       26.7850787324       14.2803241323
C         20.5493167406       28.1004038003       15.9687677173
C         18.8617790791       26.4254311986       12.8130199973
O         20.7476467904       26.9355715709       16.7684466665
C         19.4133969518       28.9509391237       16.5925799071
C         18.4272261580       27.4027192398       11.8988310904
C         19.1322192791       25.1230743052       12.3534071347
N         18.9642561633       30.1177596606       15.7814665220
C         18.2498629676       27.0800552329       10.5436199092
C         18.9563874763       24.7990800918       10.9977732956
C         20.0603167499       31.0469866578       15.3927348279
S         17.5253084547       30.8690947599       16.3455901907
C         18.5085997506       25.7758675073       10.0938339071
C         19.7055264047       31.9037252235       14.2087665956
C         16.6723660457       31.4856707738       14.8854797935
O         16.6922480912       29.7844611233       16.8783768791
O         17.9273223917       31.9539235006       17.2491931707
S         19.4628638914       31.2974273204       12.5771132451
C         19.5801798099       33.2669991516       14.2796940709
C         16.2724670826       30.5962728767       13.8723194052
C         16.4018077721       32.8630851500       14.7483290133
C         19.1319571133       32.9307806223       12.0077538744
C         19.2453141645       33.8493008884       13.0231003100
C         15.6312127260       31.0747351323       12.7190862148
F         16.5046728003       29.2735455669       13.9795003353
C         15.7615352980       33.3425748286       13.5946963353
C         15.3794792809       32.4479038028       12.5772460238
F         15.5242391066       34.6671584225       13.4747656927
F         14.7657754099       32.8950578111       11.4595512722
H         22.2165863087       26.9372845824        4.8264972115
H         24.2526823262       27.8835281772        5.9187504940
H         24.5845823144       27.6263296710        8.3602827508
H         20.8415421976       25.4740131097        8.6300362039
H         22.6700475317       28.3585189850       10.8208096409
H         24.3758688055       27.8337735913       10.6175869486
H         24.4001017432       26.9308058100       12.7339440421
H         21.4288759641       26.0626132286       13.6808286111
H         20.1230884312       28.6153029115       13.9125692464
H         19.1683661669       25.8747304590       14.8839141046
H         18.1661410219       27.2917342368       14.6535380079
H         21.4726997621       28.6936458732       15.9975190558
H         21.4253927945       26.4067693155       16.2964436263
H         18.5681656351       28.2725014160       16.7657454844
H         19.7451507962       29.2973324585       17.5802992318
H         18.2281510958       28.4144847709       12.2383278949
H         19.4791136473       24.3602388874       13.0452414704
H         17.9105764002       27.8395615402        9.8437959848
H         19.1683058841       23.7914367116       10.6486234307
H         20.3345431944       31.6839776888       16.2448757915
H         20.9655024551       30.5012254581       15.1058121589
H         18.3669142154       25.5241419313        9.0456506105
H         19.7070700662       33.8445742049       15.1891842484
H         16.7000816174       33.5628809000       15.5244949936
H         18.8873370467       33.1010237603       10.9671454505
H         19.0921159699       34.9148087076       12.8878900119
H         15.3331442823       30.3837245004       11.9367517161
    73
VM2 Rank=8      G=154.476           E=82.551            -TS=71.926              
C         21.9048162270       25.6083747158        5.7781407294
C         21.3178589000       24.7680034715        6.7369169829
C         22.7524224356       26.6460523699        6.1907599990
C         21.5800980027       24.9712744550        8.1022929511
F         23.3215645070       27.4523534413        5.2710653731
C         23.0145517673       26.8511493870        7.5538254925
C         22.4275483623       26.0157278337        8.5263880750
N         22.6837797759       26.2284509798        9.9137140175
C         22.7646922260       27.5714204081       10.4832519155
C         22.8567586045       25.2535775959       10.8816280609
C         23.1986182702       27.3207926914       11.9363470967
O         23.0724669468       25.8830362681       12.0718285684
O         22.8252494758       24.0443429378       10.7308461243
C         22.3724344824       28.1147087608       12.9644682272
N         21.6188562925       27.3583291137       13.8339146883
O         22.3239365926       29.3332941178       12.9705271319
C         20.3947850529       27.8704414445       14.4642023683
C         19.2419061763       26.8557544334       14.2665807435
C         20.6635975270       28.2719254067       15.9417949917
C         19.0904435858       26.4430074290       12.8061431728
O         20.9923377014       27.1181388535       16.7141454689
C         19.4733227252       29.0024371571       16.6124812947
C         19.3679423414       25.1221242494       12.4079247958
C         18.7103117906       27.3895249966       11.8363941638
N         18.9306238508       30.1647380818       15.8535237992
C         19.2538034273       24.7494381546       11.0585105387
C         18.5997090521       27.0193769838       10.4863773129
C         19.9465872808       31.2145518451       15.5646682092
S         17.4097958392       30.7304262924       16.4185904438
C         18.8666975306       25.6975837878       10.0977579131
C         19.5286338817       32.1780055333       14.4877702554
C         16.5559016662       31.4296475920       14.9967485659
O         16.6512381392       29.5267133334       16.7789955772
O         17.6733890573       31.7360872458       17.4546722684
S         19.2781665889       33.9005569499       14.7263518431
C         19.3642394394       31.8072859628       13.1778512131
C         16.3348804307       30.6464496946       13.8498394254
C         16.1023584624       32.7647278249       15.0253100389
C         18.8722300258       34.0885783284       13.0223918301
C         18.9771848032       32.8972173655       12.3464926952
C         15.6893362850       31.1929282418       12.7297329564
F         16.7497239031       29.3657977348       13.7946226604
C         15.4581800810       33.3125986186       13.9047587155
C         15.2544802634       32.5268632497       12.7546175156
F         15.0435192602       34.5977308704       13.9455271488
F         14.6390209628       33.0414537909       11.6673066402
H         21.7072728043       25.4570138551        4.7207890099
H         20.6611964408       23.9600073956        6.4233379497
H         21.1169145987       24.3108932309        8.8294164189
H         23.6812858744       27.6572850607        7.8409842136
H         21.7783237890       28.0528738706       10.4420703486
H         23.5055395687       28.1917105303        9.9654139333
H         24.2496937976       27.6082685374       12.0628351795
H         21.7116730057       26.3560277748       13.7210470344
H         20.1030719069       28.7838340824       13.9295907089
H         19.4168394829       25.9721726097       14.8930265908
H         18.3006781142       27.2946717782       14.6192535644
H         21.5305827399       28.9450489491       15.9495392557
H         21.7255387477       26.6786125871       16.2340560896
H         18.6867827819       28.2517761168       16.7613368934
H         19.7861901826       29.3307803087       17.6124989669
H         19.6731849278       24.3823958520       13.1431543045
H         18.5047087455       28.4149706837       12.1275772024
H         19.4657963286       23.7261312850       10.7589516534
H         18.3043800924       27.7554950734        9.7430205774
H         20.1727762077       31.7762046647       16.4813936856
H         20.8889129204       30.7713125597       15.2243213851
H         18.7741154916       25.4098852186        9.0535881428
H         19.5017456899       30.7967800284       12.8092908382
H         16.2607972507       33.3812925512       15.9062169780
H         18.5973614433       35.0619822600       12.6367896244
H         18.7872838198       32.7912567214       11.2836494636
H         15.5300335947       30.5856130065       11.8442297368
    73
VM2 Rank=9      G=154.501           E=82.534            -TS=71.966              
C         21.1993980777       25.8313135781        5.9727274877
C         20.5281502993       26.7585835652        6.7857251160
C         22.3290824066       25.1629470511        6.4665249953
C         20.9890595700       27.0116832862        8.0887907089
F         22.9777084438       24.2750186838        5.6850102821
C         22.7901993020       25.4131830402        7.7676690980
C         22.1195439831       26.3370454799        8.5931794253
N         22.5814914726       26.5932742263        9.9153129794
C         22.6456090589       27.9481725955       10.4524671363
C         23.0327573669       25.6545014519       10.8249282909
C         23.2722065559       27.7589224757       11.8441722720
O         23.4051920685       26.3187175216       11.9559632486
O         23.0945837785       24.4466999010       10.6733622787
C         22.4098223695       28.3725599600       12.9622081108
N         21.6237472819       27.4839245608       13.6614748911
O         22.3526077493       29.5729428586       13.1653835769
C         20.3609630866       27.8739589865       14.3045891041
C         19.3439238791       26.7056884097       14.2043513585
C         20.6281090548       28.3537743248       15.7613920855
C         19.2845794273       26.0912665853       12.8095784472
O         21.1873270076       27.2925764273       16.5339930017
C         19.3680223158       28.8885975717       16.4830093694
C         18.6138037129       26.7552251397       11.7669550309
C         19.9239120989       24.8650554330       12.5466796741
N         18.7778705646       30.0809676210       15.8221171476
C         18.5798376534       26.2008871533       10.4768593092
C         19.8914945657       24.3100498432       11.2566927561
C         19.5771295186       31.3130299072       16.0556252693
S         17.0777095262       30.2268098307       15.9884405371
C         19.2205909474       24.9783805006       10.2207159980
C         19.4289847555       32.3465023067       14.9728449366
C         16.5136045806       31.3298581860       14.6827808785
O         16.5484593997       28.9035896916       15.6378410227
O         16.8184848513       30.7856230268       17.3206008433
S         18.8644837592       33.9908294513       15.2275858254
C         19.7985651907       32.1228425141       13.6716323833
C         16.7626755845       31.0171054646       13.3342475153
C         15.8112530429       32.5098554970       15.0048510003
C         19.0687285901       34.3394832935       13.5131675124
C         19.5806608105       33.2577515248       12.8387644479
C         16.3331986333       31.8796118801       12.3136381420
F         17.4397357649       29.9026486711       12.9944731179
C         15.3829345891       33.3736507703       13.9842754931
C         15.6464248471       33.0594736181       12.6376044949
F         14.7214776198       34.5049515088       14.3126073372
F         15.2438948377       33.8834646251       11.6451860624
H         20.8487895183       25.6311654822        4.9643139908
H         19.6517492341       27.2795493296        6.4077840555
H         20.4541258529       27.7262577416        8.7079036363
H         23.6694016964       24.8869827028        8.1271905355
H         21.6386203877       28.3778102666       10.5333000213
H         23.2750017400       28.5871044184        9.8201294360
H         24.2605329745       28.2334467318       11.8820295021
H         21.7395137955       26.5107225054       13.4069482178
H         19.9443650994       28.7216542201       13.7416666417
H         19.5970583738       25.9296282419       14.9375217811
H         18.3457870456       27.0672352847       14.4817591349
H         21.3670729651       29.1629724632       15.7050573125
H         21.9284031299       26.9428073822       15.9950062806
H         18.6432068927       28.0666382436       16.5271010707
H         19.6228469887       29.1286176627       17.5239092865
H         18.1187426675       27.7021180763       11.9558465599
H         20.4500352917       24.3417741837       13.3407354908
H         18.0591373761       26.7195368715        9.6759524777
H         20.3930656186       23.3659072992       11.0585278941
H         19.3021040753       31.7578887095       17.0218125897
H         20.6458862709       31.0776668848       16.1191021511
H         19.2004003637       24.5517119969        9.2209260564
H         20.2000515058       31.1839431913       13.3061296154
H         15.6068708451       32.7639080238       16.0416090508
H         18.8112256455       35.3169660693       13.1259340127
H         19.7996272855       33.2609515642       11.7762928479
H         16.5388626875       31.6378902276       11.2756441897
    73
VM2 Rank=10     G=154.556           E=81.966            -TS=72.590              
C         22.2391220880       25.1390851350        5.8636040141
C         23.0620896147       24.3335433782        6.6670742902
C         21.6116479170       26.2637256558        6.4186107724
C         23.2506891302       24.6548941015        8.0221779498
F         20.8191509010       27.0381990882        5.6493892082
C         21.8005119130       26.5877708327        7.7702580808
C         22.6175643535       25.7807376975        8.5864853613
N         22.8112835227       26.1065071204        9.9586846074
C         23.0519158518       27.4785779246       10.3900126288
C         22.8299830951       25.2202492630       11.0195655557
C         23.2608959211       27.3541066668       11.9106071769
O         23.0967835754       25.9326095351       12.1503262297
O         22.6485743730       24.0153959736       10.9794253882
C         22.2694690078       28.2054344668       12.7287701473
N         21.7075769677       27.5767898614       13.8188680622
O         21.9504474707       29.3384942993       12.4075629094
C         20.4263453221       27.9802325776       14.4136531957
C         19.3237980918       26.9506129565       14.0534147042
C         20.5907114831       28.2315779064       15.9406415194
C         19.2564361309       26.6395520634       12.5607226866
O         20.8839617357       27.0079822081       16.6213515108
C         19.3412834605       28.8794295779       16.5925546340
C         19.4987655490       25.3326210063       12.0979767531
C         18.9652869503       27.6548409670       11.6302745207
N         18.8300171675       30.1007709465       15.9088682516
C         19.4393520498       25.0419233964       10.7249048835
C         18.9090404396       27.3664952119       10.2567041939
C         19.8325961059       31.1978976515       15.8235777845
S         17.2444147227       30.5695018155       16.3765545565
C         19.1406744098       26.0580553278        9.8040699677
C         19.4906141473       32.2494017421       14.8035037568
C         16.5074992854       31.3936644334       14.9562224299
O         16.4951870604       29.3175943747       16.5362598471
O         17.3754447329       31.4669867501       17.5305061590
S         19.1605221494       33.9346176392       15.1752158898
C         19.4677113755       32.0026221361       13.4546351624
C         16.4238316847       30.7300221568       13.7191956222
C         16.0087800627       32.7073930033       15.0758947335
C         18.9169785195       34.2759143715       13.4642112711
C         19.1275943922       33.1579960198       12.6941375311
C         15.8704697482       31.3754720639       12.6024373429
F         16.8850267920       29.4724612783       13.5749272269
C         15.4568395485       33.3543486714       13.9589315530
C         15.3906806315       32.6888704796       12.7201858002
F         14.9972533480       34.6180468126       14.0894084612
F         14.8651772005       33.2999734546       11.6356356684
H         22.0876798332       24.8956257039        4.8158788977
H         23.5532871447       23.4619180248        6.2411201137
H         23.8938468167       24.0250940205        8.6317448742
H         21.2991655939       27.4599313662        8.1773653098
H         22.1837256676       28.1101423096       10.1616417151
H         23.9469214892       27.8849935306        9.9024089231
H         24.2756612650       27.6666321926       12.1853742977
H         22.0395108439       26.6398837592       14.0125184712
H         20.1304949244       28.9346088852       13.9610594901
H         19.4964435745       26.0257436105       14.6177064264
H         18.3492651328       27.3276703412       14.3859525640
H         21.4437948509       28.9096692553       16.0708154699
H         21.1750902123       27.2399121932       17.5274793777
H         18.5614873714       28.1073661412       16.6105539578
H         19.5714215110       29.1173632083       17.6394627847
H         19.7356251041       24.5392698355       12.8018435068
H         18.7873989320       28.6704154721       11.9707144983
H         19.6291841070       24.0300137700       10.3753895478
H         18.6822521064       28.1560218483        9.5448265541
H         19.9469695461       31.6748835086       16.8066710801
H         20.8184067603       30.8116125391       15.5432616784
H         19.0919434926       25.8320365500        8.7418406619
H         19.6742709934       31.0361462395       13.0076251802
H         16.0614077374       33.2318267826       16.0263943619
H         18.6486941133       35.2749982655       13.1454447862
H         19.0464864199       33.1500735797       11.6123373863
H         15.8173687905       30.8606879332       11.6482338357
    73
VM2 Rank=11     G=154.608           E=82.469            -TS=72.139              
C         21.3419060410       25.6989229557        6.1274039848
C         22.4796639867       25.0391568149        6.6194863732
C         20.6687113443       26.6235521619        6.9388794771
C         22.9362055816       25.3045359962        7.9219123037
F         19.5731304671       27.2556825437        6.4701639984
C         21.1248131415       26.8926566960        8.2376648327
C         22.2599647566       26.2288866310        8.7432421005
N         22.7190690697       26.4935505030       10.0641215164
C         22.7933567731       27.8528982146       10.5880880442
C         23.1509230242       25.5583697161       10.9864696801
C         23.3757186234       27.6678085376       11.9994472723
O         23.5134751037       26.2285186930       12.1172586989
O         23.2045022722       24.3489520829       10.8453181362
C         22.4693101745       28.2750027286       13.0856267399
N         21.6367127561       27.3872417515       13.7306605844
O         22.4201500178       29.4725939276       13.3061133535
C         20.3509437474       27.7861616697       14.3206916834
C         19.3379347971       26.6160992503       14.1986985956
C         20.5626193683       28.2820137094       15.7817469372
C         19.3066101943       25.9990136319       12.8044307081
O         21.0808682842       27.2267146108       16.5901438608
C         19.2791297676       28.8379701101       16.4433924701
C         19.9856728281       24.7932474928       12.5464743383
C         18.6126086767       26.6353720079       11.7598042560
N         18.7441693229       30.0383862877       15.7513420844
C         19.9704704574       24.2316631536       11.2590348563
C         18.5960067789       26.0744821071       10.4720684218
C         19.5376960708       31.2607617884       16.0459805122
S         17.0379554671       30.1980262836       15.7973482197
C         19.2762034825       24.8723200218       10.2210202209
C         19.4701986442       32.3041389806       14.9647178312
C         16.5765395081       31.3113124216       14.4602724286
O         16.5247905882       28.8808455052       15.4029507845
O         16.6892613414       30.7527808218       17.1106420052
S         18.9029349589       33.9510555727       15.1954111919
C         19.9230692640       32.0875274722       13.6889383271
C         16.9195433551       31.0037792955       13.1311805622
C         15.8605849343       32.4944668926       14.7377438577
C         19.2239758556       34.3117899851       13.5014886855
C         19.7704591626       33.2309754317       12.8532245830
C         16.5694030242       31.8742525101       12.0872894621
F         17.6132184251       29.8872842014       12.8341200624
C         15.5117877842       33.3662485172       13.6939631135
C         15.8686732013       33.0570128492       12.3678343394
F         14.8357760260       34.5003148566       13.9804455829
F         15.5432815501       33.8886526072       11.3537429213
H         20.9820568316       25.4965756384        5.1226836127
H         23.0065676752       24.3228154201        5.9936819957
H         23.8192744766       24.7883349652        8.2901390599
H         20.5812435096       27.6054412602        8.8492792457
H         21.7940613728       28.3050016717       10.6336955262
H         23.4546675983       28.4707352841        9.9674770277
H         24.3581901920       28.1504481061       12.0716443744
H         21.7516517771       26.4160185396       13.4692055673
H         19.9572988726       28.6274475768       13.7321003565
H         19.5756046244       25.8407323947       14.9377617346
H         18.3334940864       26.9759108864       14.4539384181
H         21.3093099970       29.0853756363       15.7463366705
H         21.8403908737       26.8640965405       16.0864875091
H         18.5385939573       28.0292085150       16.4563312072
H         19.4890087016       29.0771388290       17.4944805735
H         20.5274419095       24.2899061215       13.3429026854
H         18.0835401987       27.5643685406       11.9461577844
H         20.5018838738       23.3031227771       11.0648668605
H         18.0576719414       26.5718662833        9.6691237279
H         19.2044567474       31.7008877276       16.9958719453
H         20.5977096192       31.0129854676       16.1768982822
H         19.2680739972       24.4398125929        9.2235929378
H         20.3391617386       31.1476533326       13.3427757213
H         15.5841856396       32.7446848380       15.7586150158
H         19.0008544596       35.2945778212       13.1064269792
H         20.0592428935       33.2406396540       11.8076090871
H         16.8473648035       31.6364947755       11.0653390568
    73
VM2 Rank=12     G=154.609           E=81.912            -TS=72.697              
C         21.5005696699       26.3710802093        5.9525756508
C         20.9884427877       27.3687232426        6.7974745254
C         22.3973979513       25.4209117246        6.4621416793
C         21.3746497219       27.4103541531        8.1478849383
F         22.8935335547       24.4643103363        5.6505632396
C         22.7833576765       25.4598852397        7.8103719934
C         22.2701160086       26.4533509070        8.6672524119
N         22.6563241982       26.4959116213       10.0368505269
C         22.9942409992       27.7526429980       10.6963690457
C         22.7876393140       25.4135273824       10.8872277302
C         23.3952646799       27.3230848713       12.1180610696
O         23.2023287083       25.8849841029       12.0974673653
O         22.5790042595       24.2404950492       10.6301752159
C         22.5527939235       28.0264621692       13.1990395945
N         21.6334094618       27.2335611522       13.8491625619
O         22.6220217085       29.2250646228       13.4124017870
C         20.3938286122       27.7761393821       14.4197430423
C         19.2237759106       26.7972267318       14.1511406378
C         20.5969179773       28.1373330364       15.9189121218
C         19.1221712499       26.4169325663       12.6778513450
O         20.8633281879       26.9580003016       16.6763150702
C         19.3932333847       28.8798229465       16.5512275774
C         18.7346670553       27.3744582331       11.7223160867
C         19.4479284008       25.1147278707       12.2552046980
N         18.9064611384       30.0685649765       15.7952890193
C         18.6662914756       27.0335544579       10.3615891366
C         19.3807331159       24.7729639372       10.8943028597
C         19.9588320060       31.0939166087       15.5518512850
S         17.3885299902       30.6701069022       16.3309304431
C         18.9900801289       25.7320878307        9.9468870844
C         19.5967382179       32.0850562260       14.4797350383
C         16.5902952873       31.4103735315       14.8976637213
O         16.5884539112       29.4842563394       16.6593728994
O         17.6554368205       31.6557336985       17.3852677953
S         19.4076137125       33.8129108813       14.7355096273
C         19.4375973180       31.7359384183       13.1631900647
C         16.3664833267       30.6445579347       13.7396269579
C         16.1841152763       32.7605817798       14.9280205025
C         19.0382421921       34.0364503386       13.0275176039
C         19.1068908935       32.8496485962       12.3390729416
C         15.7647175281       31.2224112401       12.6109092794
F         16.7376825611       29.3506295100       13.6819662209
C         15.5837014820       33.3397434845       13.7989408445
C         15.3767729436       32.5707091347       12.6381324408
F         15.2141071508       34.6384798947       13.8419497510
F         14.8032781214       33.1153334282       11.5425445680
H         21.2065728457       26.3332672286        4.9075773006
H         20.2926608617       28.1077179590        6.4074710173
H         20.9634478940       28.1836196801        8.7904706540
H         23.4819573468       24.7162835688        8.1821045501
H         22.1249413776       28.4224313046       10.7209125154
H         23.8302308600       28.2451730776       10.1838282305
H         24.4494765784       27.5611825147       12.3056344605
H         21.6444622439       26.2553605785       13.5869023672
H         20.1629721223       28.7064116015       13.8839855462
H         19.3464031509       25.8964339959       14.7654849402
H         18.2803237388       27.2548456563       14.4727583368
H         21.4770409598       28.7900126525       15.9860895599
H         21.5893472748       26.5006475365       16.2013654584
H         18.5853583719       28.1437793698       16.6511267815
H         19.6696754363       29.1815851367       17.5701832093
H         18.4894267720       28.3851810020       12.0334044002
H         19.7583314721       24.3663343924       12.9794276771
H         18.3647949854       27.7778078761        9.6290034064
H         19.6401381906       23.7670130268       10.5735239147
H         20.1745630726       31.6348118454       16.4834538101
H         20.8982837434       30.6306456009       15.2305635323
H         18.9435244638       25.4686468717        8.8931097025
H         19.5387292681       30.7248808638       12.7850433407
H         16.3455847140       33.3642785412       15.8172493854
H         18.8077532048       35.0242387806       12.6494870620
H         18.9290866205       32.7633737588       11.2723575824
H         15.6030555417       30.6281711747       11.7170023483
    73
VM2 Rank=13     G=154.639           E=83.788            -TS=70.851              
C         24.5711042364       23.9413109644        6.7020443706
C         23.4626202762       24.7959712796        6.5906425098
C         25.2311873414       23.8148419365        7.9329822087
C         23.0191584061       25.5190693679        7.7109360558
F         26.2987616350       22.9971550160        8.0404937298
C         24.7894497552       24.5349622806        9.0530512514
C         23.6749060263       25.3905452117        8.9521869873
N         23.2229027472       26.1236013535       10.0854514310
C         22.8464177642       27.5290667601        9.9846614972
C         23.1044928844       25.6473982091       11.3779796125
C         22.5083833403       27.9208712888       11.4334830297
O         22.6712809177       26.6758667998       12.1609635026
O         23.3366352777       24.5182680191       11.7742535463
C         21.0943489364       28.5175904262       11.5689218774
N         20.2211048873       27.8090775646       12.3655677411
O         20.7428625604       29.5129026555       10.9592899047
C         18.7596316564       27.8542901400       12.1986682845
C         18.2181831786       26.4070144724       12.0984285680
C         18.0739592524       28.6767186802       13.3245144380
C         18.9281653993       25.5874464203       11.0264824318
O         16.6600741886       28.7091345239       13.1183588183
C         18.6161695833       30.1295915693       13.3803516443
C         18.7585580666       25.9033469794        9.6658790586
C         19.7727220765       24.5209989688       11.3870076753
N         17.8776536232       31.0648328300       14.2772804485
C         19.4233689292       25.1603121384        8.6761881135
C         20.4348546609       23.7749997446       10.3978516064
C         18.2963391706       32.4756951653       14.0745684836
S         17.6878710692       30.5599782372       15.9037531575
C         20.2600273023       24.0939422494        9.0422265147
C         18.0611607934       32.9509741042       12.6651288118
C         16.9224747950       31.9458568611       16.7658993463
O         16.6752869135       29.4983424324       15.8572004581
O         19.0348370261       30.3174223515       16.4325930988
S         19.3266960672       33.4088314459       11.5358730907
C         16.8106313903       33.0510131312       12.1121681428
C         15.6427880686       32.3943633248       16.3876847218
C         17.6029114345       32.5928184712       17.8188609816
C         18.1172491105       33.7421746890       10.2988575089
C         16.8457701157       33.5035024005       10.7616948329
C         15.0439697754       33.4753724241       17.0536061196
F         14.9778257385       31.8188723547       15.3649744312
C         17.0023573048       33.6722481377       18.4863741749
C         15.7212975398       34.1132965088       18.1040879029
F         17.6692030839       34.2782859123       19.4930664829
F         15.1323456935       35.1528241977       18.7354613963
H         24.9194798794       23.3797594955        5.8399517779
H         22.9471114585       24.8973477693        5.6386179730
H         22.1551840783       26.1701570678        7.6109878474
H         25.3181772841       24.4248831848        9.9951612876
H         21.9704062206       27.6466992011        9.3335620802
H         23.6813634393       28.1276421755        9.5990516945
H         23.2231629996       28.6668934539       11.8018899165
H         20.6199324148       26.9972009228       12.8210554417
H         18.5320833804       28.3554301779       11.2469202350
H         18.3098050171       25.9174180906       13.0761242094
H         17.1438245512       26.4354150707       11.8760807812
H         18.2951501187       28.1811625726       14.2797967155
H         16.2794202472       29.0718469049       13.9526488547
H         19.6701885708       30.0946884737       13.6863216187
H         18.6004915824       30.5070166575       12.3502294460
H         18.1117942334       26.7271461294        9.3758430810
H         19.9196829702       24.2695342427       12.4339612384
H         19.2882529610       25.4094353532        7.6267167947
H         21.0887516281       22.9544081084       10.6831031390
H         17.7411117993       33.1556000417       14.7298258158
H         19.3606767769       32.5886447944       14.3221918492
H         20.7751389906       23.5179649521        8.2773983358
H         15.8933310717       32.8057854536       12.6369784545
H         18.5924680888       32.2613224191       18.1225982709
H         18.4262935165       34.0868615656        9.3203629043
H         15.9526090181       33.6409073368       10.1613975708
H         14.0590854512       33.8199748343       16.7539945364
    73
VM2 Rank=14     G=154.648           E=81.922            -TS=72.726              
C         21.6043387377       26.1506021466        6.1033093454
C         22.5054368654       25.2065920553        6.6217615639
C         21.1026862672       27.1626947659        6.9343485564
C         22.8974072208       25.2772900089        7.9695502302
F         20.2338848708       28.0684662065        6.4400649765
C         21.4952729540       27.2371883889        8.2788230228
C         22.3919579225       26.2893489516        8.8101178651
N         22.7846612502       26.3573570109       10.1763858046
C         23.1450873900       27.6235076259       10.8051301878
C         22.8968939130       25.2933795018       11.0521392121
C         23.5057574237       27.2257532980       12.2467292143
O         23.3136601133       25.7873267602       12.2527272732
O         22.6724905989       24.1177283409       10.8219246836
C         22.6278945639       27.9512623429       13.2841788410
N         21.6750747389       27.1766369150       13.9079616168
O         22.7012996492       29.1518265163       13.4845619733
C         20.4255008232       27.7404546681       14.4345707772
C         19.2579269526       26.7568714196       14.1724328183
C         20.5978788303       28.1446525080       15.9268929997
C         19.1783165420       26.3373786010       12.7085354442
O         20.8465339924       26.9872685496       16.7232033199
C         19.3833322767       28.9068667047       16.5134184960
C         18.7905921490       27.2648271950       11.7238656600
C         19.5207407846       25.0275642438       12.3243600861
N         18.9118259173       30.0728575768       15.7136223659
C         18.7368871249       26.8861796537       10.3724123919
C         19.4691140376       24.6483091473       10.9727495345
C         19.9708725358       31.0870267090       15.4527892036
S         17.3891040816       30.6961861597       16.2095004811
C         19.0765339642       25.5770240334        9.9963104846
C         19.6268659063       32.0441433861       14.3443674918
C         16.6119250920       31.3899379237       14.7418384790
O         16.5813145409       29.5243971727       16.5681487414
O         17.6459948169       31.7161448514       17.2332336310
S         19.4446778497       33.7804704277       14.5408851408
C         19.4800746197       31.6525724112       13.0383498646
C         16.3972397557       30.5850500158       13.6088635919
C         16.2135446841       32.7426265021       14.7198058267
C         19.0960827914       33.9495335115       12.8222923871
C         19.1652597190       32.7402473458       12.1742193704
C         15.8123274977       31.1260969295       12.4533620868
F         16.7611813326       29.2878049666       13.6013694063
C         15.6299445911       33.2849602596       13.5639378720
C         15.4321357493       32.4766521974       12.4284957604
F         15.2676355303       34.5864382879       13.5568058644
F         14.8748310317       32.9854958055       11.3076460554
H         21.2951839419       26.1003015800        5.0632147593
H         22.8989852863       24.4209624073        5.9812072600
H         23.5969546033       24.5413825529        8.3580718649
H         21.0862488915       28.0243642772        8.9036750410
H         22.2971554729       28.3203591989       10.7912517232
H         24.0060668360       28.0742863269       10.2955517444
H         24.5529663869       27.4712799362       12.4618980983
H         21.6847407128       26.1944633092       13.6612751856
H         20.2100496607       28.6547393110       13.8658936740
H         19.3680426064       25.8725024764       14.8124915919
H         18.3103949582       27.2246139692       14.4662534976
H         21.4775619120       28.7979830751       15.9937839438
H         21.5790668442       26.5139600455       16.2746012272
H         18.5726117858       28.1749405504       16.6204104815
H         19.6412185621       29.2389044544       17.5278148726
H         18.5326106487       28.2810434692       12.0052007280
H         19.8311962323       24.3020109775       13.0714454774
H         18.4347559992       27.6071113498        9.6169185687
H         19.7411589326       23.6366362135       10.6818238250
H         20.1749364628       31.6569457243       16.3695985304
H         20.9134905896       30.6114106757       15.1601004412
H         19.0408822420       25.2841773921        8.9499160755
H         19.5789816787       30.6290167167       12.6949264059
H         16.3681702003       33.3763989675       15.5891002546
H         18.8757224837       34.9255540913       12.4092764786
H         18.9987468398       32.6197301762       11.1089945719
H         15.6576497929       30.5016211647       11.5790396321
    73
VM2 Rank=15     G=154.669           E=82.252            -TS=72.417              
C         21.9072523422       26.2604836948        5.8096670229
C         21.1244042372       25.4953109175        6.6885142542
C         22.9600228790       27.0372126833        6.3141909237
C         21.3977712000       25.5125310602        8.0666976425
F         23.7157724557       27.7706602940        5.4711214966
C         23.2339253494       27.0561404935        7.6902192702
C         22.4526922907       26.2930916759        8.5815665439
N         22.7198252517       26.3190162604        9.9813969623
C         23.0528232593       27.5609858538       10.6731170344
C         22.6705332454       25.2435097753       10.8506717473
C         23.3040531084       27.1150537034       12.1232549958
O         22.9640372294       25.7050036084       12.0995402036
O         22.4144409279       24.0828945438       10.5797992376
C         22.4875026127       27.9216248611       13.1502362652
N         21.5848926739       27.1964569249       13.8952074153
O         22.5760834074       29.1330095279       13.2591821284
C         20.3969057658       27.8047501579       14.5075453475
C         19.1994724543       26.8310445411       14.3903230729
C         20.7078489695       28.2666914851       15.9604280188
C         18.9517658838       26.4135097642       12.9454453915
O         21.0055039106       27.1380001556       16.7808025632
C         19.5660714981       29.0812154178       16.6204101235
C         18.4493566718       27.3438602021       12.0171588097
C         19.2554263740       25.1076204530       12.5177067375
N         19.0192893362       30.1998798917       15.8013596397
C         18.2400773034       26.9714793000       10.6794988026
C         19.0466266570       24.7335791210       11.1798282424
C         20.0469288005       31.1706729348       15.3350172383
S         17.5718270266       30.8936994092       16.4148481377
C         18.5338542315       25.6641876285       10.2616526900
C         19.5942756803       31.9745313867       14.1473539029
C         16.6243514299       31.4363355257       14.9839047326
O         16.8170721846       29.7819233513       17.0052352695
O         17.9599136588       32.0162201785       17.2775515875
S         19.3123454254       31.3114979688       12.5443352621
C         19.4003904833       33.3309727826       14.1892307143
C         16.2279584741       30.5078136477       14.0050152471
C         16.2752261841       32.7948122316       14.8357013766
C         18.8697482594       32.9089788214       11.9496059754
C         18.9793535250       33.8599920088       12.9350030130
C         15.5118713943       30.9296916938       12.8739452192
F         16.5351591413       29.2014607358       14.1236365244
C         15.5600500038       33.2177358163       13.7041554284
C         15.1814807949       32.2847940798       12.7203326365
F         15.2476569979       34.5255232914       13.5725684881
F         14.4961590094       32.6775401394       11.6240166634
H         21.7022673562       26.2519269731        4.7429706185
H         20.3077676698       24.8895075649        6.3031667582
H         20.7843959135       24.9139651091        8.7332743344
H         24.0589565930       27.6610251612        8.0518671021
H         22.2101668662       28.2627491301       10.6117833154
H         23.9546231185       28.0238943119       10.2549719371
H         24.3650654098       27.2355325421       12.3742456247
H         21.5679187557       26.2015448979       13.7057819613
H         20.1435073472       28.6981334378       13.9209574263
H         19.3759047253       25.9477476238       15.0169007831
H         18.2960470000       27.3076144106       14.7888422277
H         21.6014673543       28.9032811382       15.9201052217
H         21.6867124588       26.6306203452       16.2906140457
H         18.7652688234       28.3689425789       16.8571650392
H         19.9312488865       29.4730032936       17.5789424606
H         18.2240335300       28.3582848088       12.3315515639
H         19.6548914621       24.3812511412       13.2203748409
H         17.8494127659       27.6950268868        9.9684691387
H         19.2834448534       23.7231400423       10.8556620025
H         20.3285181350       31.8447085413       16.1556845051
H         20.9639088592       30.6619788203       15.0188241887
H         18.3667833649       25.3744012233        9.2273535280
H         19.5370413282       33.9394360634       15.0769040341
H         16.5698088381       33.5241221432       15.5856617842
H         18.5703046859       33.0373279199       10.9173538217
H         18.7640069237       34.9119656358       12.7799589993
H         15.2168412997       30.2090639977       12.1176154320
    73
VM2 Rank=16     G=154.681           E=82.640            -TS=72.041              
C         22.3046146561       27.1171155768        5.9139496640
C         23.5386799085       27.4129650407        6.5161104472
C         21.2582569730       26.5966660453        6.6897536772
C         23.7204414654       27.1874596574        7.8915614918
F         20.0714262781       26.3136602830        6.1143050092
C         21.4380488408       26.3706415244        8.0622808187
C         22.6718918783       26.6632805987        8.6731558929
N         22.8510373696       26.4449212123       10.0661226258
C         23.4123606420       27.4747946428       10.9315165962
C         22.4972521065       25.3088424390       10.7681142143
C         23.3374397515       26.8488601884       12.3360019590
O         22.7843716800       25.5301937183       12.0826220115
O         22.0227947112       24.2818378981       10.3148196774
C         22.4781560054       27.6767959749       13.3120899459
N         21.4881117937       26.9842956368       13.9735493555
O         22.6118856469       28.8810012443       13.4536106745
C         20.3023583496       27.6459479020       14.5341736437
C         19.0754643109       26.7065212459       14.4233646802
C         20.5888483081       28.1420874333       15.9812865328
C         18.8837087741       26.1686184663       13.0097705440
O         20.8325546977       27.0313104659       16.8428887228
C         19.4513293720       29.0051492675       16.5821469068
C         19.0872214621       24.8032908163       12.7364609463
C         18.5267925401       27.0359306137       11.9605635629
N         18.9923115467       30.1377477207       15.7290391707
C         18.9249292824       24.3093377774       11.4316733449
C         18.3652164562       26.5434109304       10.6550972249
C         20.0811685223       31.0836392624       15.3580357545
S         17.5209354179       30.8585612985       16.2466187410
C         18.5603788364       25.1783821853       10.3912956020
C         19.7300394982       31.9848579888       14.2059154774
C         16.7129232363       31.5029469053       14.7730450221
O         16.6776990996       29.7475266117       16.7035464674
O         17.8650016612       31.9220798914       17.1978564392
S         19.6263998764       33.7361887961       14.2997642160
C         19.5147590304       31.5207929613       12.9336023978
C         16.4212973469       30.6473885664       13.6956859670
C         16.3665789020       32.8676115061       14.6911076475
C         19.2144611111       33.8145266235       12.5886927950
C         19.2087062135       32.5660450670       12.0156189221
C         15.8109225156       31.1485955837       12.5353913733
F         16.7351360156       29.3380311698       13.7457196833
C         15.7576833748       33.3700057359       13.5302499710
C         15.4824812674       32.5102076398       12.4501067137
F         15.4459607020       34.6829021169       13.4646751017
F         14.8999625655       32.9800257695       11.3250423671
H         22.1575332689       27.2895126427        4.8515935779
H         24.3529190578       27.8158826675        5.9184735110
H         24.6811220249       27.4161841096        8.3452289146
H         20.6169532636       25.9698910624        8.6469101726
H         22.8157680906       28.3943557905       10.8647249691
H         24.4538204878       27.6870899058       10.6605407889
H         24.3405955379       26.7597244836       12.7704761038
H         21.4260614945       25.9968353661       13.7546769604
H         20.0933937274       28.5278891609       13.9142607280
H         19.1820519164       25.8743638350       15.1304247028
H         18.1710673764       27.2464499318       14.7291070490
H         21.5009716428       28.7518355465       15.9491913385
H         21.5020945378       26.4840782458       16.3800704844
H         18.6137389672       28.3260236802       16.7858830750
H         19.7854358789       29.3904244149       17.5546069540
H         19.3726121627       24.1226770509       13.5340851917
H         18.3760949538       28.0932151069       12.1558419705
H         19.0871148942       23.2542720467       11.2259216390
H         18.0875868142       27.2186357909        9.8496189627
H         20.3512832570       31.6996480943       16.2266840252
H         20.9877971741       30.5471449615       15.0571169974
H         18.4344617714       24.7947725320        9.3818949715
H         19.5586603639       30.4748236815       12.6515443156
H         16.5808663478       33.5406172995       15.5171784202
H         19.0166795275       34.7719590727       12.1239747833
H         18.9941919737       32.3878049953       10.9672087552
H         15.5968457143       30.4846340487       11.7037376513
    73
VM2 Rank=17     G=154.689           E=83.355            -TS=71.334              
C         23.0810090461       23.7701898200        6.3881635531
C         22.7804728407       22.8918095693        7.4417553422
C         23.1469797992       25.1499682395        6.6302791438
C         22.5443438111       23.3980460423        8.7313756468
F         23.4328302612       25.9960710345        5.6193528224
C         22.9144893845       25.6571434126        7.9172626539
C         22.6046339691       24.7842427270        8.9786452212
N         22.3644519575       25.2948921616       10.2850934577
C         23.2188649875       26.3189462511       10.8747502215
C         21.3579289462       24.9019090428       11.1468039287
C         22.5926955211       26.5648827982       12.2606970689
O         21.5063481372       25.6041792459       12.3050351923
O         20.4850418681       24.0776028369       10.9356219576
C         22.0930935456       28.0117608916       12.4515950666
N         20.8798171288       28.1385871377       13.0930385873
O         22.6972011210       28.9817937669       12.0248703447
C         20.0250962279       29.3303782433       13.0059485999
C         18.8480866864       29.0680321159       12.0288933658
C         19.5728252484       29.7656119750       14.4271449446
C         19.3044487894       28.5664199260       10.6636384982
O         18.7806005427       28.7382413492       15.0307371920
C         18.7888292060       31.1041022967       14.4034822347
C         19.0245360596       27.2473941860       10.2604994655
C         20.0171105410       29.4156476550        9.7973931018
N         18.6690477695       31.7817901849       15.7253177422
C         19.4451249088       26.7850281229        9.0024487195
C         20.4416676949       28.9531938415        8.5405940022
C         19.9428719014       32.2367285800       16.3335936645
S         17.5141664994       31.2030703780       16.8448976679
C         20.1511554861       27.6390976443        8.1407798986
C         20.8104695665       33.0085329804       15.3744408129
C         16.0575848232       30.8157231978       15.8562144454
O         18.0785725866       29.9828591324       17.4371753595
O         17.1734542322       32.3656348067       17.6725015915
S         22.2905624094       32.3989650712       14.6487964462
C         20.4985053404       34.2691726787       14.9356873694
C         15.3854247739       31.8335038086       15.1537537235
C         15.5945687165       29.4860932817       15.7642102510
C         22.4759641194       33.8974447363       13.7415430507
C         21.4517994308       34.7745998180       14.0051886109
C         14.2605017904       31.5315900399       14.3700740759
F         15.8184419753       33.1101279372       15.1930990426
C         14.4692130655       29.1845321165       14.9810425852
C         13.8006360106       30.2086361230       14.2843068847
F         14.0410478184       27.9053026223       14.9056828398
F         12.7174834543       29.9335201727       13.5245736047
H         23.2627344247       23.3859320225        5.3885329239
H         22.7302090006       21.8208906872        7.2599414554
H         22.3154353844       22.7072801924        9.5391081606
H         22.9656362083       26.7292387789        8.0780612273
H         23.2069327665       27.2313077194       10.2649972375
H         24.2476235586       25.9495816948       10.9704633054
H         23.3176186002       26.3544966742       13.0563808577
H         20.4552981805       27.2813316983       13.4258989695
H         20.6227351126       30.1549461122       12.5924751225
H         18.1585410998       28.3433026380       12.4803721656
H         18.2694322601       29.9887140216       11.8906658647
H         20.4908735891       29.9075481788       15.0121955640
H         18.7426494139       28.9300124659       15.9970790659
H         19.2955822129       31.7802471473       13.7030677580
H         17.7986631384       30.9247310705       13.9695850028
H         18.4825640902       26.5773806755       10.9228393366
H         20.2461403866       30.4337020411       10.1004607817
H         19.2260865294       25.7644612185        8.6977078078
H         20.9923845185       29.6142665164        7.8761969854
H         19.7290627991       32.8843753738       17.1948441975
H         20.5070480809       31.3767815519       16.7180395901
H         20.4743262712       27.2825243683        7.1658886043
H         19.6199794177       34.8217521073       15.2513353162
H         16.1052421117       28.6856740951       16.2931184159
H         23.3220691608       34.0263027668       13.0787065056
H         21.3694875400       35.7556889407       13.5493816961
H         13.7492478050       32.3202389949       13.8267899207
    73
VM2 Rank=18     G=154.726           E=84.139            -TS=70.586              
C         24.7423024512       22.9260410492        7.0491920323
C         23.7872238726       22.1347038103        7.7075683705
C         24.9886240151       24.2329771427        7.4940915128
C         23.0810494585       22.6555489015        8.8053786498
F         25.9040982918       24.9959358192        6.8621261987
C         24.2869180764       24.7538778398        8.5913164633
C         23.3210851315       23.9702815610        9.2530273204
N         22.6049678939       24.4958952962       10.3651057219
C         23.2742267262       25.2533479777       11.4161626147
C         21.2519458138       24.3557690048       10.6101937424
C         22.1390816879       25.5994871307       12.3983623758
O         20.9799557226       24.9672756732       11.7970966094
O         20.4290534510       23.7918298418        9.9095659329
C         21.9398743327       27.1174168841       12.5863240964
N         20.6289617010       27.5394904260       12.6391821985
O         22.8697420176       27.9054264878       12.6364034562
C         20.1974259284       28.9211666802       12.3839163048
C         19.6167094064       29.0320077383       10.9473848569
C         19.2170845792       29.3785260672       13.5016301070
C         20.5423190273       28.4638315869        9.8771355864
O         18.0187069673       28.5966486842       13.4769812885
C         18.8665919745       30.8880401492       13.4226207623
C         20.1913685429       27.2909894774        9.1827758462
C         21.7591719356       29.1037358045        9.5784092588
N         17.8439038585       31.3609234246       14.4007381466
C         21.0431140051       26.7684377497        8.1954133729
C         22.6139620033       28.5796373759        8.5943547249
C         17.3864484456       32.7439444767       14.1072973155
S         18.1311816815       30.9852997794       16.0486498477
C         22.2534486744       27.4145565945        7.8988629400
C         16.7684637928       32.8696802002       12.7396029629
C         16.8593083980       31.8502734129       16.9894346640
O         17.8297413966       29.5537826332       16.1692639219
O         19.4550016446       31.5256423805       16.3781865190
S         17.4002410863       33.8692215979       11.4404734489
C         15.6434876818       32.1813822004       12.3647213648
C         15.5011427614       31.5282916298       16.8057101792
C         17.2164031268       32.8574046212       17.9106205110
C         16.1004394397       33.3316151571       10.3795769233
C         15.2644930042       32.4472408287       11.0173782983
C         14.5072816174       32.2006012631       17.5343095195
F         15.1224584707       30.5939950795       15.9096703306
C         16.2221118326       33.5275398699       18.6411728698
C         14.8663693577       33.1981337729       18.4536345181
F         16.5839819366       34.4882228992       19.5195482146
F         13.8985267794       33.8369220188       19.1474280992
H         25.2905017028       22.5304502081        6.1989402845
H         23.5941123241       21.1197958021        7.3682706739
H         22.3467217329       22.0312736196        9.3083713066
H         24.4921346514       25.7697612597        8.9132759233
H         23.7331832884       26.1612120652       11.0043033439
H         24.0403504088       24.6377604147       11.9040703976
H         22.3368054263       25.1641361469       13.3854223689
H         19.9224023549       26.8146237922       12.6012324257
H         21.0783867535       29.5758139639       12.4387748434
H         18.6468699275       28.5197541678       10.9096739462
H         19.4112214566       30.0813975752       10.7082523189
H         19.7369650883       29.2040492405       14.4537833313
H         17.5763882794       28.7645607603       14.3417268501
H         19.7923021322       31.4637271871       13.5565630645
H         18.5109575225       31.0868206205       12.4064358987
H         19.2583915078       26.7813168375        9.4088528846
H         22.0446922912       30.0056250704       10.1130025356
H         20.7657368649       25.8617842058        7.6630135618
H         23.5530050077       29.0787003456        8.3688091023
H         16.6257824169       33.0745931279       14.8225249600
H         18.2302621801       33.4424268759       14.1903642908
H         22.9113554320       27.0122430079        7.1325279083
H         15.1031437414       31.5011661355       13.0146788409
H         18.2597755684       33.1204716815       18.0639663067
H         16.0440562922       33.7017141895        9.3638630171
H         14.4008851087       31.9904516516       10.5456507376
H         13.4613404812       31.9516750119       17.3841264466
    73
VM2 Rank=19     G=154.731           E=82.772            -TS=71.959              
C         21.5843526983       26.0602174328        5.9677444318
C         20.9841684441       27.0919129183        6.7073041076
C         22.5661223602       25.2562859460        6.5650397093
C         21.3680816619       27.3138689187        8.0406763621
F         23.1462766920       24.2671094371        5.8545072911
C         22.9501038756       25.4753633264        7.8965074348
C         22.3496182482       26.5045047275        8.6478895201
N         22.7344623710       26.7302658274        9.9994531333
C         22.9664375214       28.0758969897       10.5122995735
C         22.9552754978       25.7636460560       10.9629523137
C         23.4127603819       27.8406030916       11.9655068061
O         23.3300950241       26.3988970787       12.1096116787
O         22.8419259546       24.5563353210       10.8394370675
C         22.5327018564       28.5996920341       12.9765169577
N         21.7152590336       27.8150187233       13.7594444275
O         22.4965346249       29.8157941042       13.0252551208
C         20.4216293427       28.2787583250       14.2849643501
C         19.3857745944       27.1403249473       14.1053352310
C         20.5620191439       28.7814060890       15.7519114337
C         19.2544453946       26.6952481336       12.6543925846
O         21.0954314368       27.7381743781       16.5662725844
C         19.2332961119       29.2654840645       16.3907240444
C         19.7144361610       25.4281312668       12.2513140697
C         18.6785874588       27.5557035609       11.7019800763
N         18.4883221751       30.2979856781       15.6170664878
C         19.5954676647       25.0246620300       10.9110008876
C         18.5605039624       27.1539028762       10.3614171210
C         17.0358975568       30.2911673923       15.9241465115
S         19.1974674307       31.8556593884       15.5393267891
C         19.0178071432       25.8868281313        9.9658862770
C         16.3420477750       29.0869451392       15.3465055400
C         18.1647734524       32.7656640066       14.3768850647
O         19.1093055220       32.4351104127       16.8847361348
O         20.4902666857       31.6975486354       14.8716378326
S         15.7896196601       27.6977641672       16.2701840434
C         16.0722927413       28.9588534111       14.0081159619
C         18.0154115805       32.3076828976       13.0543214173
C         17.4905755974       33.9341885760       14.7889547382
C         15.2153784490       26.9289255427       14.7926458588
C         15.4350059764       27.7241912565       13.6942222762
C         17.2036371848       33.0081087136       12.1483852701
F         18.6239471167       31.1803814634       12.6333189569
C         16.6810448598       34.6360352356       13.8815355518
C         16.5379763861       34.1729193506       12.5598286719
F         16.0438744987       35.7536209784       14.2942956053
F         15.7595806914       34.8362120193       11.6765426922
H         21.2925459620       25.8833002106        4.9365169126
H         20.2218261971       27.7175139825        6.2492839220
H         20.8877404923       28.1097954699        8.6029386704
H         23.7149401079       24.8431992602        8.3376562005
H         22.0416498897       28.6665453167       10.4784806152
H         23.7523838860       28.5797979687        9.9356822206
H         24.4481594945       28.1750418876       12.1044995764
H         21.8305259607       26.8181407511       13.6236172359
H         20.0902741828       29.1336116986       13.6778161777
H         19.6593208493       26.2901492663       14.7429908424
H         18.4050108492       27.4709614301       14.4564368638
H         21.2779549178       29.6128786466       15.7499504042
H         21.8823807122       27.4099648960       16.0814336982
H         18.6079152060       28.3767357408       16.5350838101
H         19.4518039493       29.6507052397       17.3956787563
H         20.1658167147       24.7542370360       12.9745272582
H         18.3235237129       28.5375900998       12.0013280624
H         19.9569760169       24.0461578943       10.6043635453
H         18.1148807804       27.8236365633        9.6303835036
H         16.8791205805       30.3234842815       17.0110459549
H         16.5372592471       31.1755616725       15.5104540828
H         18.9294947973       25.5752694196        8.9280634555
H         16.3269913639       29.7029464657       13.2619808491
H         17.5929481124       34.2998775939       15.8073832887
H         14.7555368007       25.9499968049       14.8364271006
H         15.1570938961       27.4429001531       12.6839461452
H         17.0888610620       32.6476545008       11.1308419177
    73
VM2 Rank=20     G=154.737           E=82.699            -TS=72.038              
C         21.8379729209       26.8672624967        5.8091273179
C         20.8534975901       26.3473161172        6.6652397439
C         23.0890915796       27.2330704178        6.3275429912
C         21.1258546566       26.1959832647        8.0354734390
F         24.0357549717       27.7317813791        5.5059939363
C         23.3627440505       27.0831998901        7.6955975690
C         22.3810696304       26.5610033268        8.5596994693
N         22.6483005969       26.4161661228        9.9481792594
C         23.2166397788       27.5066143021       10.7309639676
C         22.3852270104       25.3010030980       10.7201851491
C         23.2690731851       26.9382152030       12.1606646079
O         22.7425323810       25.5940404965       12.0031475580
O         21.9271794013       24.2363610438       10.3432361254
C         22.4620153371       27.7803450129       13.1685093965
N         21.5567796003       27.0851186151       13.9393564310
O         22.5598019545       28.9938338803       13.2455728872
C         20.3897669200       27.7292128611       14.5567939352
C         19.1951617237       26.7429682808       14.5763168202
C         20.7598547963       28.3018296697       15.9557475647
C         18.9298107896       26.1290796717       13.2062258163
O         21.1058488621       27.2415900231       16.8455365439
C         19.6359021426       29.1522964102       16.5985500647
C         19.1626280421       24.7589074912       12.9857158865
C         18.4774607120       26.9314721224       12.1422573153
N         19.0769099720       30.2279372276       15.7314986733
C         18.9358728144       24.1959041401       11.7191005369
C         18.2515491871       26.3699281592       10.8747849973
C         20.1009502874       31.1947522993       15.2472017389
S         17.6158789128       30.9173235678       16.3166059862
C         18.4773729790       25.0003964822       10.6640783903
C         19.6396388154       32.0294527147       14.0838881286
C         16.6884134138       31.4676046961       14.8755725951
O         16.8479463200       29.7975180489       16.8738689953
O         17.9800433439       32.0328366089       17.1982587327
S         19.4723017447       33.7781793559       14.1098805577
C         19.3611729394       31.5008758799       12.8495734530
C         16.3615586940       30.5565589644       13.8553165790
C         16.2830733827       32.8136544421       14.7623100564
C         18.9471759135       33.7639583463       12.4283269113
C         18.9544254259       32.4915964302       11.9104506403
C         15.6571039633       30.9846695579       12.7193094070
F         16.7303557968       29.2631855836       13.9365764494
C         15.5800313329       33.2429763688       13.6255783576
C         15.2695141328       32.3281922792       12.6016432998
F         15.2123431895       34.5393282137       13.5283970373
F         14.5963988051       32.7274994359       11.5001446813
H         21.6347665300       26.9870248214        4.7487940513
H         19.8818611294       26.0627031048        6.2685920678
H         20.3578443262       25.7951937525        8.6905841007
H         24.3389480674       27.3682373603        8.0752371827
H         22.5712710920       28.3931093046       10.6709350132
H         24.2251204477       27.7566869692       10.3794896252
H         24.3052532066       26.8961833367       12.5178971765
H         21.5162369961       26.0870549726       13.7687053676
H         20.1027745885       28.5737481478       13.9163390689
H         19.3815162350       25.9511969320       15.3126143446
H         18.2934606214       27.2653234386       14.9184291202
H         21.6438341117       28.9402690935       15.8302895371
H         21.7614795175       26.6970762978       16.3601213545
H         18.8405342798       28.4549950928       16.8908151805
H         20.0223875389       29.5931227471       17.5270096528
H         19.5214740281       24.1281918208       13.7946170645
H         18.3031367477       27.9919661231       12.2962330644
H         19.1212740836       23.1375754277       11.5536804029
H         17.9006798219       26.9953966867       10.0578362555
H         20.4036395363       31.8589402778       16.0683065158
H         21.0059442835       30.6781871730       14.9088391690
H         18.3020193053       24.5631263752        9.6844225810
H         19.4288077544       30.4456358042       12.6098702406
H         16.5237068820       33.5288212519       15.5445386084
H         18.6813575308       34.6914555804       11.9375657654
H         18.6796954170       32.2584571536       10.8871631543
H         15.4159756308       30.2783050698       11.9311334435
    73
VM2 Rank=21     G=154.739           E=82.078            -TS=72.661              
C         21.5198027632       26.3228617822        6.1707280852
C         22.4016524106       25.3465978122        6.6620441999
C         21.0623282906       27.3389467740        7.0222590166
C         22.8190746644       25.3895700342        8.0033444420
F         20.2107650570       28.2745867235        6.5543286643
C         21.4804054470       27.3857830559        8.3602825135
C         22.3587348966       26.4062493961        8.8636599409
N         22.7765355697       26.4455741916       10.2230116868
C         23.2172237992       27.6861254018       10.8513855107
C         22.8457519992       25.3719772899       11.0911305169
C         23.5008761440       27.2752108012       12.3067743205
O         23.3001193079       25.8377564490       12.2892164587
O         22.5661598042       24.2094303323       10.8547711808
C         22.5635644265       27.9948770074       13.2961539346
N         21.6547854170       27.1959559205       13.9526381246
O         22.5644601596       29.2062290066       13.4368624245
C         20.3915811180       27.7046058773       14.5005751968
C         19.2471284309       26.7081351528       14.1935706337
C         20.5452074176       28.0595039738       16.0095337131
C         19.1378291219       26.3981684482       12.7044249805
O         20.7061501916       26.8737711431       16.7933557334
C         19.3527088486       28.8736636164       16.5780672085
C         19.4636127820       25.1185861892       12.2179285111
C         18.7326067416       27.3962710894       11.7988052466
N         18.9352089361       30.0547241372       15.7709019616
C         19.3769256282       24.8384378798       10.8440397439
C         18.6448249109       27.1173010476       10.4250751087
C         20.0334636546       31.0134834887       15.4713732229
S         17.4426641699       30.7650126225       16.2412995359
C         18.9656012788       25.8368275677        9.9473471997
C         19.7314341844       31.8885011557       14.2857705582
C         16.6636114058       31.3331352402       14.7218739894
O         16.6151366359       29.6614729948       16.7429992262
O         17.7552225225       31.8726586745       17.1525852080
S         19.6076406567       31.3149202039       12.6289007125
C         19.5582626365       33.2451649799       14.3793069795
C         16.3629671086       30.4172059374       13.6981488264
C         16.3559352555       32.6982787522       14.5465534407
C         19.2653474313       32.9516094300       12.0762427568
C         19.2859335390       33.8479387439       13.1172392664
C         15.7831557729       30.8578051747       12.4982715590
F         16.6336356361       29.1050533421       13.8405579358
C         15.7770014580       33.1399530499       13.3463461683
C         15.4939593651       32.2192985846       12.3196835736
F         15.5027146527       34.4536730378       13.1910507079
F         14.9402883516       32.6301064860       11.1575800746
H         21.1909146098       26.2939754466        5.1358889644
H         22.7602966078       24.5573629951        6.0056345210
H         23.5024957443       24.6286525707        8.3719799943
H         21.1037726385       28.1751803644        9.0026900840
H         22.4335182769       28.4530679973       10.8030053424
H         24.1290300186       28.0555912535       10.3654391166
H         24.5335127208       27.5174540193       12.5860766259
H         21.7409948431       26.1997460423       13.7975118111
H         20.1559814246       28.6322296376       13.9632355333
H         19.4048939251       25.7832024336       14.7625170228
H         18.2955148171       27.1212379589       14.5480532603
H         21.4545884106       28.6664229048       16.1107504107
H         21.0141430218       27.1495963799       17.6812620916
H         18.5102346171       28.1759316869       16.6704794057
H         19.6054973190       29.2002385777       17.5953760413
H         19.7887082671       24.3399211166       12.9026865520
H         18.4879714416       28.3906052526       12.1592514485
H         19.6362477463       23.8494317973       10.4743375896
H         18.3305788932       27.8930181545        9.7313457139
H         20.2403687585       31.6372641817       16.3517800754
H         20.9658861438       30.4921808091       15.2300098704
H         18.9022377417       25.6204131167        8.8838342197
H         19.6085893655       33.8036050390       15.3080124448
H         16.5787861421       33.4180310763       15.3297664767
H         19.0819618686       33.1400185308       11.0262241398
H         19.1087105492       34.9114483026       12.9965372714
H         15.5615624764       30.1467194305       11.7085363487
    73
VM2 Rank=22     G=154.778           E=83.218            -TS=71.559              
C         21.8108198005       27.2918463604        6.0924952725
C         23.0629152139       27.7190072295        6.5646809065
C         20.9217618689       26.6450652190        6.9636183020
C         23.4200171999       27.4978000445        7.9060969522
F         19.7175950178       26.2359490558        6.5135927425
C         21.2768944680       26.4229141620        8.3020928064
C         22.5301492433       26.8464132283        8.7829698899
N         22.8844887055       26.6338268235       10.1429698354
C         23.4332939983       27.7070507734       10.9625530199
C         22.7165023596       25.4649160587       10.8600406585
C         23.5089972249       27.0851793210       12.3687958165
O         23.1126798703       25.7067460283       12.1420236023
O         22.2988433361       24.3980912757       10.4443177620
C         22.5926594187       27.8053395516       13.3779627461
N         21.6800878769       27.0093846920       14.0362812716
O         22.6193296360       29.0129835934       13.5450247387
C         20.4349654684       27.5426074639       14.6044128650
C         19.3299926528       26.4591584058       14.5543595146
C         20.6776216493       28.1341343547       16.0222463757
C         18.9480136169       26.1171564706       13.1218804366
O         21.0439843509       27.0963625492       16.9296625612
C         19.4543237477       28.8967280560       16.5894808080
C         19.4470421922       24.9584038647       12.4995837428
C         18.0976785282       26.9771675337       12.4036637977
N         18.8767654779       29.9022779208       15.6584572225
C         19.0934332424       24.6608044648       11.1729191660
C         17.7461852761       26.6825499010       11.0762397960
C         19.7606411679       31.0678351546       15.3976839603
S         17.2043627140       30.1791835487       15.9036064382
C         18.2420406086       25.5218254945       10.4613177965
C         19.6531700474       31.6043132624       13.9922028451
C         16.6749192940       31.3613644512       14.6440192565
O         16.5888314087       28.8999196325       15.5310728767
O         17.0793802670       30.7140783091       17.2634415209
S         19.5570183033       30.6317335099       12.5287380662
C         19.6691750507       32.9467410952       13.7121352308
C         16.6751071838       32.7466425757       14.9014810289
C         16.2509471748       30.8958524599       13.3802429849
C         19.4721613681       32.0886142661       11.5447172213
C         19.5548685915       33.2200140146       12.3185635156
C         16.2708455260       33.6547634998       13.9098042004
F         17.0965539607       33.2424040227       16.0819507561
C         15.8523011417       31.8042267884       12.3875956945
C         15.8628079587       33.1858682129       12.6523337789
F         15.4629665188       31.3342121788       11.1823631315
F         15.4848602727       34.0735431208       11.7063070874
H         21.5285594439       27.4604121049        5.0571912790
H         23.7554243866       28.2205838326        5.8928640788
H         24.3927868285       27.8298915250        8.2589585683
H         20.5753999159       25.9238862361        8.9618874553
H         22.7720147397       28.5837290682       10.9399210982
H         24.4344483010       27.9873281259       10.6126954601
H         24.5332150375       27.1295382059       12.7586933391
H         21.7206676151       26.0228602702       13.8116269490
H         20.1101287844       28.3663911591       13.9592250666
H         19.6582940105       25.5624191695       15.0950921892
H         18.4334662820       26.8127082042       15.0765624340
H         21.5131043502       28.8418213653       15.9451625192
H         21.7681846438       26.6054394062       16.4863192895
H         18.6932290608       28.1492275116       16.8487014686
H         19.7409239495       29.3829900495       17.5314005935
H         20.1089878792       24.2880455395       13.0411283543
H         17.7105835822       27.8750884113       12.8769313960
H         19.4839216563       23.7652330109       10.6955619234
H         17.0895396221       27.3518030892       10.5259227680
H         19.5450929028       31.8660292830       16.1213975682
H         20.8127003717       30.7957762049       15.5427432053
H         17.9701101814       25.2918429469        9.4339721197
H         19.7442616144       33.7244136238       14.4646840396
H         16.2388323745       29.8322554121       13.1598816713
H         19.3781101921       32.0101418050       10.4692569300
H         19.5346527752       34.2263052679       11.9137213363
H         16.2848971766       34.7211731141       14.1120344844
    73
VM2 Rank=23     G=154.787           E=82.130            -TS=72.657              
C         22.0597126665       25.4090185206        5.7062265252
C         21.4394561726       26.5219106173        6.2963108605
C         22.8890079967       24.5837135586        6.4794427923
C         21.6504048364       26.8030865889        7.6568516061
F         23.4895297416       23.5168517346        5.9128023451
C         23.1002358200       24.8620276632        7.8381854067
C         22.4771724280       25.9726846922        8.4407978643
N         22.6909826702       26.2608888341        9.8186663608
C         22.9318555569       27.6214614511       10.2849836806
C         22.7326184449       25.3451676731       10.8536351009
C         23.1767790758       27.4539357991       11.7960185971
O         23.0155446259       26.0265329238       11.9994867616
O         22.5567246163       24.1409447238       10.7821684282
C         22.2082026171       28.2842662686       12.6616405079
N         21.6692961609       27.6261954622       13.7459949985
O         21.8856375731       29.4269008175       12.3803636181
C         20.3999665792       28.0128049170       14.3766134168
C         19.2917438489       26.9894545913       14.0156007862
C         20.5951532370       28.2301528521       15.9051688026
C         19.1981119655       26.7083519182       12.5183664604
O         20.9033715547       26.9921541869       16.5523792004
C         19.3582745647       28.8613187627       16.5961759009
C         18.8972427704       27.7432056795       11.6128526093
C         19.4273174586       25.4098824372       12.0260961138
N         18.8333096780       30.0974247758       15.9504911931
C         18.8202571409       27.4828371013       10.2347195257
C         19.3467168852       25.1471117883       10.6485130795
C         19.8323925213       31.1984384172       15.8751839698
S         17.2545198707       30.5510599079       16.4545641341
C         19.0402942763       26.1829522665        9.7525587717
C         19.4721882913       32.2732980857       14.8862069426
C         16.4936757449       31.4086438040       15.0669924897
O         16.5100410591       29.2939732048       16.5945677488
O         17.4021447672       31.4198545183       17.6282976268
S         19.1447010316       33.9483274120       15.3034755118
C         19.4284689977       32.0589201842       13.5323296175
C         16.3924249412       30.7761702783       13.8150250919
C         15.9936109928       32.7174972485       15.2275120228
C         18.8734696709       34.3300246015       13.6052208635
C         19.0741012628       33.2314132442       12.8052757236
C         15.8200649973       31.4479516700       12.7236613703
F         16.8547043628       29.5240936095       13.6317704086
C         15.4226923024       33.3907957266       14.1359440194
C         15.3388596313       32.7565560071       12.8819752502
F         14.9620371001       34.6494684618       14.3054000232
F         14.7949814926       33.3932750130       11.8214858709
H         21.9014596364       25.1862369491        4.6549225660
H         20.7959441220       27.1653410186        5.7010861559
H         21.1583450780       27.6644561503        8.0998140113
H         23.7507252043       24.2121674709        8.4158826393
H         22.0535202919       28.2519831362       10.0958917507
H         23.8119028148       28.0498378867        9.7890301681
H         24.1988891684       27.7564118017       12.0543235941
H         22.0027167924       26.6832893332       13.9047983263
H         20.0930131560       28.9765328573       13.9520855044
H         19.4752983040       26.0535831237       14.5578684993
H         18.3230819415       27.3586314849       14.3732116407
H         21.4499721677       28.9064545857       16.0331227182
H         21.2130279242       27.2043300298       17.4572056947
H         18.5795908355       28.0880889131       16.6114663560
H         19.6084231125       29.0753967452       17.6436421748
H         18.7288398793       28.7525077469       11.9760844942
H         19.6711271258       24.6016151387       12.7103335320
H         18.5869973521       28.2875446327        9.5422463504
H         19.5272465458       24.1417381766       10.2759944799
H         19.9618254606       31.6520721484       16.8674185810
H         20.8142041120       30.8209845675       15.5699147517
H         18.9771030775       25.9786449015        8.6867106484
H         19.6297999184       31.1039189558       13.0590368523
H         16.0597341183       33.2179559685       16.1900178974
H         18.5982139845       35.3358392118       13.3148286896
H         18.9759161953       33.2492591083       11.7250116275
H         15.7534239233       30.9572487235       11.7576940565
    73
VM2 Rank=24     G=154.791           E=82.159            -TS=72.632              
C         21.4916494692       25.1236011408        6.3480775583
C         22.0359150238       26.4122670558        6.4664583011
C         21.4634804471       24.2762324639        7.4646704338
C         22.5468228039       26.8481285223        7.7010022537
F         20.9325917098       23.0409339513        7.3562417526
C         21.9741238890       24.7086035315        8.6974532952
C         22.5200682487       26.0011209805        8.8282185397
N         23.0157062380       26.4538488590       10.0851930374
C         22.7602279138       27.8091776454       10.5627205101
C         23.7179385650       25.7049921778       11.0130547445
C         23.4578705029       27.8476232407       11.9335181651
O         23.9324934688       26.4912942442       12.1059199916
O         24.0828289642       24.5467656222       10.9062817458
C         22.5309257827       28.3008786535       13.0735411905
N         21.5249139283       27.4206621123       13.4122436223
O         22.6215441789       29.3980617869       13.5975683338
C         20.2739699191       27.8674674105       14.0397043256
C         19.0980791781       26.9779843837       13.5616324440
C         20.4268781233       27.9289107478       15.5875371744
C         19.0251066821       26.8660483347       12.0422307528
O         20.6545059456       26.6220209263       16.1127128862
C         19.2072978009       28.5582305546       16.3073279346
C         18.8712298961       28.0176957843       11.2471081807
C         19.1266397542       25.6083320025       11.4194046342
N         18.7495782575       29.8601910138       15.7456864619
C         18.8320109730       27.9149134409        9.8467107788
C         19.0729906389       25.5032391827       10.0199350804
C         19.7944615929       30.9199054523       15.7622987432
S         17.1822455525       30.3468810030       16.2514765667
C         18.9342774459       26.6569423473        9.2322607680
C         19.5399851019       32.0152634492       14.7638203619
C         16.5029945654       31.3623868109       14.9293024572
O         16.3749146823       29.1212894093       16.2637618996
O         17.3439573106       31.1045066770       17.4982484823
S         19.6304588260       31.8153108805       13.0200565476
C         19.2630939642       33.3088050921       15.1237100314
C         16.3701892018       30.8389596791       13.6306592225
C         16.0979368004       32.6882364183       15.1893411740
C         19.2181527835       33.5124521318       12.7931861465
C         19.0704599810       34.1586665702       13.9964694073
C         15.8609195559       31.6344791406       12.5924672489
F         16.7428197274       29.5750268386       13.3503790941
C         15.5897513742       33.4847758273       14.1510274038
C         15.4744799404       32.9584626549       12.8505363005
F         15.2205671052       34.7569492405       14.4165033041
F         14.9909461855       33.7144746071       11.8403407115
H         21.0924542285       24.7816353584        5.3975271682
H         22.0611330361       27.0733208744        5.6034858948
H         22.9663237250       27.8474899847        7.7726416011
H         21.9269202956       24.0385996374        9.5504265189
H         21.6795240148       27.9805048898       10.6518444378
H         23.2001694224       28.5556923613        9.8905917964
H         24.3082221899       28.5400659813       11.8976939278
H         21.5174788758       26.5357697086       12.9229356356
H         20.0766208799       28.8883010611       13.6859906389
H         19.1894442708       25.9797841823       14.0076120567
H         18.1524940476       27.3877902585       13.9362425443
H         21.3099363836       28.5416900745       15.8094427424
H         21.3882972853       26.2504682098       15.5784826011
H         18.3961045761       27.8210117689       16.2553583471
H         19.4523570186       28.6801031488       17.3706627740
H         18.7879481794       28.9950746269       11.7132860601
H         19.2425964588       24.7093009187       12.0187275699
H         18.7197857597       28.8090928583        9.2389134227
H         19.1436679850       24.5277469738        9.5455689261
H         19.8799598661       31.3477026613       16.7706674542
H         20.7792154535       30.5110634391       15.5118914936
H         18.9035503402       26.5754464544        8.1485968240
H         19.1833484375       33.6528242435       16.1494337456
H         16.1893754593       33.1061586842       16.1883779322
H         19.1245919833       33.9167046429       11.7934352666
H         18.8280692581       35.2124051074       14.0857406052
H         15.7705415225       31.2272055583       11.5903207900
    73
VM2 Rank=25     G=154.792           E=82.201            -TS=72.591              
C         21.4657869071       26.4986186027        6.0019747002
C         20.9860339955       27.5046773273        6.8559433920
C         22.3415775403       25.5227487751        6.4996008945
C         21.3837756302       27.5292935240        8.2034294763
F         22.8059832078       24.5576054944        5.6794042730
C         22.7390791719       25.5447483345        7.8448580823
C         22.2588443778       26.5471332693        8.7101599823
N         22.6569043890       26.5722066632       10.0763385708
C         23.0612082762       27.8112914030       10.7315435917
C         22.7453138556       25.4847352347       10.9254045574
C         23.3881948928       27.3738438431       12.1701530862
O         23.1869435082       25.9369136430       12.1332731096
O         22.4889568478       24.3214629138       10.6669754165
C         22.4879811835       28.0763750726       13.2049867408
N         21.6191483532       27.2616676249       13.8950708749
O         22.4806309689       29.2867302697       13.3540087550
C         20.3656201979       27.7475388834       14.4843773964
C         19.2178772592       26.7585303127       14.1655781264
C         20.5478551249       28.0554776463       16.0000768034
C         19.0897267463       26.4908193507       12.6697206394
O         20.7289886553       26.8462301221       16.7424273466
C         19.3630013273       28.8452250281       16.6167097246
C         18.6846995602       27.5174834789       11.7965360168
C         19.4015811444       25.2232569763       12.1441403386
N         18.9257591263       30.0495143999       15.8556165394
C         18.5854469928       27.2791845974       10.4160049981
C         19.3022475532       24.9834805647       10.7634940060
C         20.0145357086       31.0232084939       15.5697943594
S         17.4381250788       30.7350897545       16.3754249222
C         18.8931890316       26.0108148148        9.8990202593
C         19.6867047012       31.9409085485       14.4239965295
C         16.6324841701       31.3593885135       14.8923045048
O         16.6217376388       29.6091393395       16.8445146949
O         17.7605084068       31.8071880292       17.3249800063
S         19.5392786286       31.4306781445       12.7484731236
C         19.5063679142       33.2917168350       14.5726543098
C         16.3249482108       30.4847522129       13.8350250649
C         16.3099349284       32.7277085097       14.7795977418
C         19.1768341943       33.0848987993       12.2651456472
C         19.2089635115       33.9406382616       13.3394693523
C         15.7232816814       30.9701676117       12.6635300554
F         16.6101997342       29.1705235263       13.9172174797
C         15.7092092048       33.2141960361       13.6077674527
C         15.4191446975       32.3351395382       12.5471714506
F         15.4208161256       34.5306106020       13.5124022614
F         14.8445696388       32.7894390730       11.4117033454
H         21.1625625724       26.4737406431        4.9592313513
H         20.3059428123       28.2629643858        6.4754249957
H         20.9961306075       28.3080524632        8.8541740848
H         23.4204162496       24.7812092613        8.2082117888
H         22.2444640333       28.5445371037       10.7194115486
H         23.9468663227       28.2329047799       10.2397132255
H         24.4305707735       27.6081118266       12.4183671609
H         21.7118119960       26.2680654641       13.7268707665
H         20.1162681178       28.6913662794       13.9826135663
H         19.3847832572       25.8181599168       14.7058635073
H         18.2707834169       27.1601359864       14.5445663660
H         21.4565646611       28.6632194492       16.1023521256
H         21.0531986755       27.0951872221       17.6325133942
H         18.5254228336       28.1407653574       16.7022666463
H         19.6334192639       29.1402247159       17.6391238451
H         18.4502357991       28.5028185593       12.1874291593
H         19.7263926931       24.4229678933       12.8036387313
H         18.2718278603       28.0770175927        9.7477294763
H         19.5508368790       24.0035625124       10.3634317274
H         20.2370167101       31.6146095934       16.4685666814
H         20.9434266581       30.5145215188       15.2904086277
H         18.8212864704       25.8259331172        8.8300920165
H         19.5686211078       33.8143617155       15.5212625112
H         16.5378275587       33.4157452512       15.5894130704
H         18.9746570936       33.3122514724       11.2263500473
H         19.0227716415       35.0067038367       13.2628477813
H         15.4964772659       30.2910840878       11.8475522307
    73
VM2 Rank=26     G=154.799           E=83.422            -TS=71.377              
C         23.2285811752       24.1111930599        6.1867694404
C         23.3543220743       25.4687774290        6.5225453589
C         22.8026193393       23.1914223265        7.1560005049
C         23.0523155350       25.9000252117        7.8254248086
F         22.6854124442       21.8861127601        6.8361362160
C         22.4996764679       23.6199403102        8.4571000559
C         22.6174207014       24.9808071928        8.8017217782
N         22.3125479082       25.4192395447       10.1212663968
C         23.1689794509       26.3627964767       10.8302660532
C         21.2367320652       25.0186205079       10.8910416805
C         22.4809992668       26.5262372340       12.1988696137
O         21.3407268994       25.6344903582       12.1020784771
O         20.3439374076       24.2530690012       10.5702594320
C         22.0584071383       27.9794602171       12.4960707991
N         20.8191632351       28.1273456662       13.0808635352
O         22.7427510275       28.9422953883       12.1916507558
C         20.0374604556       29.3707804026       13.0418556702
C         18.9073837590       29.2535749466       11.9842772880
C         19.5267954740       29.7240345412       14.4659980258
C         19.4124732992       28.8141305349       10.6146242330
O         18.6463597785       28.7022615528       14.9437707399
C         18.8185997437       31.1038067737       14.5037920550
C         19.0626924170       27.5520200656       10.0994165397
C         20.2417820923       29.6620695548        9.8577675961
N         18.6559439473       31.6859136803       15.8659851204
C         19.5303454648       27.1451899853        8.8388514612
C         20.7139043152       29.2543999297        8.5989696580
C         19.9134227796       32.0190309422       16.5782644617
S         17.4064042799       31.0928537295       16.8705243562
C         20.3542973679       27.9974327840        8.0872444018
C         20.8767555076       32.8100606267       15.7329087507
C         15.9937161456       30.8643399469       15.7744841875
O         17.8685069816       29.8015570589       17.3970972940
O         17.0784453418       32.2083121726       17.7653766207
S         22.3631119469       32.1729689267       15.0446811993
C         20.6592014765       34.1163030181       15.3787351381
C         15.4199783391       31.9684512722       15.1165383450
C         15.4673759327       29.5740017194       15.5536627493
C         22.6820682501       33.7228660513       14.2707156740
C         21.6920963024       34.6351088897       14.5456568490
C         14.3300367210       31.7907179992       14.2498225888
F         15.9167792818       33.2116602406       15.2791418804
C         14.3770018002       29.3966028903       14.6874495896
C         13.8068456301       30.5063757498       14.0358764654
F         13.8870975643       28.1531971777       14.4890385878
F         12.7585254678       30.3511441521       13.1974075669
H         23.4609394435       23.7709889669        5.1816860886
H         23.6846504374       26.1858803993        5.7748480041
H         23.1492201910       26.9546390813        8.0679323909
H         22.1760688711       22.8896106967        9.1927465450
H         23.2157747664       27.3188268463       10.2933159387
H         24.1795920370       25.9515053803       10.9461767849
H         23.1472202395       26.2004805803       13.0069133179
H         20.3267374411       27.2728364538       13.3115403663
H         20.7027721509       30.1872894731       12.7276969657
H         18.1477893551       28.5479592555       12.3443252763
H         18.3971811245       30.2181447602       11.8795188107
H         20.4152541252       29.7682834180       15.1093761484
H         18.5620585439       28.8231720204       15.9185988198
H         19.4022120172       31.8001349930       13.8881014735
H         17.8482209810       31.0154756715       14.0023489926
H         18.4302570622       26.8826736667       10.6767398222
H         20.5253898469       30.6356904763       10.2481201516
H         19.2571133919       26.1682362355        8.4473432384
H         21.3553156940       29.9138588384        8.0198292094
H         19.6831784837       32.6107067752       17.4748267593
H         20.4069523925       31.1012437584       16.9242413756
H         20.7147040186       27.6832060343        7.1109314469
H         19.7940137152       34.6930953885       15.6878424601
H         15.9021089123       28.7084669190       16.0466735257
H         23.5720391071       33.8526714645       13.6682605912
H         21.6895970852       35.6511183642       14.1651436165
H         13.8949678049       32.6456344063       13.7415538941
    73
VM2 Rank=27     G=154.808           E=83.473            -TS=71.334              
C         21.2912458294       24.9717765349        6.1231973053
C         22.4455620498       24.3808579714        6.6621297339
C         20.6458721332       26.0020137891        6.8223939607
C         22.9467132246       24.8209051212        7.8992134041
F         19.5339237917       26.5676750695        6.3093907446
C         21.1464261632       26.4452403498        8.0554143664
C         22.2990070354       25.8527152479        8.6075390188
N         22.8032686991       26.2936815666        9.8627887734
C         22.9212587500       27.7119943811       10.1828382429
C         23.2459794145       25.4899850629       10.8967098237
C         23.4953882557       27.7170372746       11.6099645198
O         23.6522549410       26.3060666878       11.9106860375
O         23.2778045964       24.2719753972       10.9262490141
C         22.5654678796       28.4394610928       12.6029949306
N         21.8085778500       27.6232228336       13.4143562730
O         22.4334305528       29.6515120543       12.6188183201
C         20.5148262983       28.0414159736       13.9704323715
C         19.5614028171       26.8217846595       14.0508657510
C         20.7201102510       28.7701819837       15.3304530445
C         19.4529772361       26.0825482995       12.7226276701
O         21.3126311338       27.8836468915       16.2781635281
C         19.4145643264       29.3439989701       15.9287239415
C         20.1190907234       24.8575333641       12.5320822129
C         18.7016818408       26.6307740290       11.6674243332
N         18.6595532189       30.2361231694       15.0116943328
C         20.0311174077       24.1868855109       11.3009161665
C         18.6124552399       25.9605914468       10.4361147327
C         19.4035242813       31.4050755699       14.4708823238
S         17.0130806043       30.4391113638       15.4224813661
C         19.2770983338       24.7375353684       10.2528491431
C         19.7296422768       32.4370860309       15.5197593183
C         16.2928180009       31.4188971350       14.0928859340
O         16.4378320074       29.0959040218       15.2898328034
O         16.9518107865       31.1678869619       16.6940927855
S         21.1195883779       32.3723719631       16.5946082300
C         18.9963089988       33.5824179982       15.6974480406
C         16.3553816325       30.9657674002       12.7619620533
C         15.6543983838       32.6434288977       14.3805090706
C         20.6512800387       33.9077313836       17.3184656966
C         19.5188848599       34.4142780633       16.7290866215
C         15.7940421254       31.7276066399       11.7251189064
F         16.9730151106       29.8088562352       12.4498663777
C         15.0918047720       33.4047459955       13.3437562845
C         15.1616725293       32.9464323723       12.0145811437
F         14.4883429962       34.5766893448       13.6395404926
F         14.6268822243       33.6695725217       11.0060908545
H         20.8968889329       24.6346023196        5.1688941301
H         22.9506048700       23.5827164550        6.1233315792
H         23.8416604474       24.3562323798        8.3055228623
H         20.6233107219       27.2364805868        8.5826338309
H         21.9393891211       28.2017231474       10.1528416076
H         23.6060862721       28.2074570544        9.4830576049
H         24.4684032930       28.2231008554       11.6306859494
H         21.9838045321       26.6306376507       13.3189890529
H         20.0668287432       28.7589360181       13.2682970139
H         19.9017467149       26.1353403897       14.8364202305
H         18.5617745361       27.1572462980       14.3546354538
H         21.4125413251       29.6049789823       15.1591418605
H         22.0860474106       27.4921785024       15.8194481713
H         18.7821080439       28.4958204587       16.2216833298
H         19.6557163481       29.8807965920       16.8551327411
H         20.7076527034       24.4240709678       13.3362985327
H         18.1868348054       27.5775312236       11.8021041881
H         20.5526098951       23.2435967878       11.1577010567
H         18.0303479870       26.3894978085        9.6242595437
H         20.3415824372       31.0796133708       14.0041919320
H         18.8330924004       31.8857403966       13.6671377993
H         19.2123210778       24.2200352253        9.2989200421
H         18.1142496261       33.8385248233       15.1229586179
H         15.5923454846       33.0057775412       15.4034970032
H         21.2450233154       34.3323025167       18.1178563868
H         19.0642950409       35.3570317800       17.0147842973
H         15.8510987408       31.3754190947       10.6998164144
    73
VM2 Rank=28     G=154.822           E=84.577            -TS=70.244              
C         25.0086431875       22.8268276313        8.0500952216
C         24.2574333745       22.1248523077        9.0070059519
C         24.7489957015       24.1861665451        7.8209213003
C         23.2496874848       22.7856614905        9.7303230843
F         25.4714979384       24.8618864037        6.9037474893
C         23.7437018679       24.8481031874        8.5417266252
C         22.9847920442       24.1502731781        9.5009597637
N         21.9708611259       24.8187294293       10.2392019205
C         21.8888644185       24.7128335058       11.6913012593
C         21.0047711884       25.6606665217        9.7242608052
C         20.7846308341       25.7196070470       12.0645390162
O         20.2739161578       26.1347166664       10.7713302735
O         20.8200399336       25.9452802949        8.5537052074
C         21.3129384038       26.9136013217       12.8871053357
N         20.9019266807       28.1563138727       12.4567592138
O         22.0676752204       26.7807123352       13.8350433632
C         21.4863541854       29.4352055957       12.8931893535
C         22.0245020860       30.1817571216       11.6447473312
C         20.4796156264       30.2852989966       13.7192208787
C         20.9597257321       30.4209928535       10.5783003855
O         21.1077563922       31.4909928777       14.1595750656
C         19.9096639962       29.5381985775       14.9515005525
C         20.1500764487       31.5709899974       10.6221427026
C         20.7659682896       29.4808502680        9.5489632365
N         18.5685264775       30.0607128020       15.3056909821
C         19.1464145662       31.7693557936        9.6593607262
C         19.7624870075       29.6765286878        8.5864519889
C         17.4340150165       29.1494201616       15.0322917370
S         18.4388209728       31.1486104862       16.6113984636
C         18.9505692494       30.8207876811        8.6424783037
C         17.3589374968       28.7728937068       13.5754417095
C         16.9103394062       32.0365028166       16.2742841096
O         18.3624114290       30.3524771917       17.8417347960
O         19.5253156789       32.1130875233       16.4014043234
S         17.0001587457       29.8953268681       12.2709091167
C         17.5715876104       27.4983214091       13.1171452278
C         16.7759038396       32.7865723027       15.0906776957
C         15.8329746723       31.9664022675       17.1815467814
C         17.1845652517       28.6021493344       11.0905632543
C         17.4680000068       27.4041804014       11.6992618820
C         15.5790448506       33.4660556626       14.8146219269
F         17.7792830890       32.8572493852       14.1914046608
C         14.6369630983       32.6482168688       16.9057088118
C         14.5101463844       33.3991032661       15.7215097902
F         13.6155886363       32.5706071809       17.7867411888
F         13.3639081954       34.0579201765       15.4417071866
H         25.7890333504       22.3220398504        7.4878101987
H         24.4550433902       21.0708821827        9.1876229801
H         22.6718541780       22.2311401888       10.4650432319
H         23.5599634846       25.9017139506        8.3527005095
H         22.8518189174       24.9713798576       12.1513581752
H         21.5969019208       23.6974653879       11.9865165895
H         19.9945401885       25.2349411963       12.6508147546
H         20.2603000131       28.1668072973       11.6712687045
H         22.3444304926       29.2290691217       13.5484492564
H         22.4724667174       31.1359043576       11.9500010566
H         22.8488255397       29.5976678383       11.2166726867
H         19.6389776274       30.5305972642       13.0594592598
H         20.5045234718       31.9067182613       14.8220271580
H         19.8414364878       28.4650393815       14.7386871647
H         20.6069606766       29.6403750864       15.7941228555
H         20.2913648072       32.3057857386       11.4108750699
H         21.3904104642       28.5936555538        9.4974358573
H         18.5187809615       32.6557693383        9.7041872828
H         19.6147663320       28.9405362703        7.7998010570
H         17.5244861656       28.2453781259       15.6494863801
H         16.4819226762       29.6241894245       15.2996289361
H         18.1724939168       30.9730534713        7.8987381080
H         17.7998954630       26.6519311111       13.7552288380
H         15.9200924793       31.3866198527       18.0968073127
H         17.0630328196       28.8124319270       10.0358505069
H         17.6066559466       26.4755156861       11.1563197925
H         15.4794768364       34.0403784734       13.8988341410
    73
VM2 Rank=29     G=154.822           E=84.156            -TS=70.667              
C         24.6309929093       23.9946707069        6.7241627581
C         23.5222446474       24.8486897007        6.6105447890
C         25.2805585253       23.8584745720        7.9596448234
C         23.0679755628       25.5613803937        7.7331745112
F         26.3483937474       23.0414171013        8.0693390370
C         24.8280226026       24.5681978094        9.0820355032
C         23.7130632150       25.4229921664        8.9789515850
N         23.2499987254       26.1454295545       10.1146022486
C         22.8704787606       27.5506972168       10.0224446799
C         23.1223512996       25.6581844571       11.4021541736
C         22.5220918600       27.9300889089       11.4720593266
O         22.6800585246       26.6789965341       12.1900821951
O         23.3540404247       24.5263732037       11.7909616485
C         21.1072250655       28.5258925462       11.6023306147
N         20.2234630022       27.8021370846       12.3732883259
O         20.7645822049       29.5341720282       11.0091178884
C         18.7643893364       27.8480721817       12.1865157152
C         18.2255128503       26.4009022697       12.0713773975
C         18.0631524820       28.6637133146       13.3079449434
C         18.9501147581       25.5877954233       11.0043288057
O         16.6511117340       28.6894446319       13.0889941031
C         18.5967401367       30.1192989157       13.3715822435
C         18.7957681581       25.9093696772        9.6432444200
C         19.7928467495       24.5216795479       11.3700646788
N         17.8493455662       31.0490195005       14.2667886365
C         19.4738864561       25.1722613070        8.6581664285
C         20.4683521809       23.7816553774       10.3854719716
C         18.2672816643       32.4613435047       14.0742673782
S         17.6503279567       30.5372234422       15.8900397412
C         20.3087496142       24.1062476873        9.0293076495
C         18.0277002175       32.9446716773       12.6681794008
C         16.8694397404       31.9160633170       16.7497127613
O         16.6465626456       29.4677412719       15.8331399590
O         18.9955600386       30.3032073608       16.4271175727
S         16.4403635644       33.1988750171       11.9598789820
C         19.0403213198       33.2177548165       11.7846616289
C         15.5831034966       32.3470922823       16.3737224706
C         17.5454715307       32.5765550883       17.7971354435
C         17.1844314858       33.6851771327       10.4388689238
C         18.5555743662       33.6397657129       10.5131525228
C         14.9733551053       33.4239085410       17.0365226418
F         14.9206271322       31.7573810805       15.3576940078
C         16.9340494783       33.6518546533       18.4614219215
C         15.6464285410       34.0753532775       18.0813986785
F         17.5969453202       34.2710731865       19.4626862891
F         15.0469452965       35.1107048186       18.7097185750
H         24.9876800491       23.4411206503        5.8602966178
H         23.0148659821       24.9575968475        5.6549910230
H         22.2039145906       26.2120512052        7.6313433656
H         25.3487645123       24.4506831356       10.0276858579
H         21.9982370111       27.6710926414        9.3667990146
H         23.7062048779       28.1545451234        9.6468691444
H         23.2343450422       28.6728953531       11.8516971252
H         20.6166970431       26.9816302230       12.8180450047
H         18.5500021578       28.3542420299       11.2343592043
H         18.3046829700       25.9060553003       13.0475243646
H         17.1541518873       26.4295334316       11.8350422721
H         18.2782756625       28.1668889492       14.2639440012
H         16.2612378548       29.0510851315       13.9194665102
H         19.6493236468       30.0889906179       13.6828432852
H         18.5836084939       30.4989476670       12.3423874614
H         18.1504547282       26.7329100919        9.3492691997
H         19.9279619617       24.2657972242       12.4175446621
H         19.3505202027       25.4257157846        7.6082852591
H         21.1207934366       22.9613153028       10.6747507422
H         17.7065093199       33.1350804831       14.7310362023
H         19.3297746419       32.5756446585       14.3295019879
H         20.8342720914       23.5349608044        8.2680490746
H         20.0952607673       33.1173364607       12.0160492150
H         18.5401981919       32.2589704164       18.0988376396
H         16.5623686199       33.9672679759        9.5990935116
H         19.2103465911       33.8960278010        9.6869431683
H         13.9831961854       33.7547407534       16.7387907777
    73
VM2 Rank=30     G=154.850           E=83.371            -TS=71.478              
C         21.3612766913       27.0129967266        6.0418292188
C         20.5361925235       26.3929700198        6.9943638849
C         22.6268616129       27.4861933941        6.4191285059
C         20.9817790220       26.2491626432        8.3192319579
F         23.4201955693       28.0817682041        5.5049415222
C         23.0733150492       27.3441056595        7.7417902548
C         22.2524306838       26.7213199442        8.7015451257
N         22.6934329105       26.5853238457       10.0457539270
C         23.2559283139       27.7125849039       10.7788826520
C         22.6096826638       25.4470188699       10.8240666254
C         23.4495116385       27.1580260298       12.2019329840
O         23.0771441628       25.7610533377       12.0658068994
O         22.2032107597       24.3493947050       10.4844054719
C         22.5893913884       27.9007909143       13.2435660653
N         21.7595493656       27.1116776849       14.0104796495
O         22.5853876491       29.1157823474       13.3476595761
C         20.5392378076       27.6327561397       14.6402195230
C         19.4755937660       26.5111792483       14.7287820364
C         20.8600952642       28.3103319709       16.0028679454
C         19.0047016464       26.0794787386       13.3479665346
O         21.3272681099       27.3375048912       16.9355652293
C         19.6529019571       29.0634670891       16.6154508373
C         19.5075433369       24.9110045544       12.7472847292
C         18.0673244156       26.8661632062       12.6544791812
N         18.9748466410       29.9956135957       15.6758282618
C         19.0718139153       24.5310653255       11.4668972497
C         17.6331672678       26.4889864001       11.3732258880
C         19.7948559275       31.1727367197       15.2888981097
S         17.3144800524       30.2302182108       16.0248327538
C         18.1336944390       25.3189104054       10.7801439600
C         19.5693231463       31.6246364809       13.8677155780
C         16.6558512961       31.3247594619       14.7470620876
O         16.7218722364       28.9130848994       15.7637470655
O         17.2647357586       30.8337490755       17.3605582886
S         19.4043629967       30.5678370301       12.4702382265
C         19.5177866476       32.9487879168       13.5144774012
C         16.6254629842       32.7213279237       14.9313415522
C         16.1601811753       30.7780369066       13.5433120347
C         19.1986584718       31.9629762255       11.4170329470
C         19.2956516591       33.1386023503       12.1200518867
C         16.1203052078       33.5609548599       13.9256693432
F         17.1116921097       33.2936223228       16.0507030141
C         15.6605200178       31.6180378602       12.5362621526
C         15.6410539870       33.0116920254       12.7272453970
F         15.2036634509       31.0710896223       11.3885578784
F         15.1660643038       33.8342193132       11.7661985869
H         21.0236450667       27.1277898572        5.0157905919
H         19.5537720066       26.0255970068        6.7075408038
H         20.3357335514       25.7714523811        9.0501814408
H         24.0574130506       27.7141176525        8.0120901183
H         22.5617037403       28.5635952149       10.7646497474
H         24.2198344720       28.0118451982       10.3492507123
H         24.4977155399       27.2450776399       12.5129098409
H         21.8186666428       26.1166952993       13.8319611876
H         20.1377044459       28.4077248097       13.9779942982
H         19.8760544014       25.6567572889       15.2890632074
H         18.6064761035       26.8617828218       15.2972775355
H         21.6616740770       29.0393702124       15.8274603167
H         22.0359310504       26.8465059304       16.4678410711
H         18.9396954682       28.3074247377       16.9689417759
H         19.9873089765       29.6110895138       17.5065634242
H         20.2360418392       24.2968627296       13.2697136096
H         17.6767226483       27.7711976243       13.1110645683
H         19.4652853872       23.6282192444       11.0059724906
H         16.9088952075       27.1015412435       10.8420605753
H         19.6015899456       32.0033008673       15.9818129180
H         20.8637726681       30.9438917074       15.3722233887
H         17.7969571316       25.0242706438        9.7893524629
H         19.6182707520       33.7699971857       14.2160881866
H         16.1700559751       29.7041782726       13.3800144134
H         19.0317076987       31.8205245627       10.3571007490
H         19.2112190181       34.1190963347       11.6635099501
H         16.1110728817       34.6367107499       14.0705421883
