    80
VM2 Rank=1      G=208.232           E=119.723           -TS=88.509              
C         21.5159385066       23.4888561631        6.1031612589
C         21.7956761960       22.8219915649        7.3060395131
C         21.2907451437       24.8815948086        6.0923641205
C         21.8564830573       23.5385423103        8.5107255846
C         20.9924084896       25.6213851400        4.7824631476
C         21.3651002857       25.5911195784        7.3098630402
C         21.6395264412       24.9282077733        8.5213998481
F         20.4433569297       24.8238030055        3.8381616698
F         20.1288406117       26.6481795909        4.9526217519
F         22.1144917630       26.1452043293        4.2420807850
N         21.7077098540       25.6575840340        9.7408372129
C         22.4466962664       26.9105569252        9.8406503822
C         21.1400195781       25.2937132075       10.9471379647
C         22.2252285488       27.3500388248       11.3004377909
O         21.4731772898       26.2446142727       11.8644805676
O         20.4652698031       24.3049890859       11.1778391354
C         21.4656632126       28.6878066366       11.4197011959
O         21.6593935864       29.6278153658       10.6666230030
N         20.5083355175       28.7380884848       12.4096121049
C         19.4068923771       29.7102473086       12.4425209068
C         19.3276067572       30.3819393566       13.8421597976
C         18.0852987601       29.0270717907       12.0016535873
O         19.0423482770       29.4009952701       14.8447163676
C         18.2730707414       31.5203728223       13.8842648459
C         18.1961218339       28.3134017294       10.6590247661
N         18.4106191202       32.4615686832       15.0292399791
C         18.3516724534       29.0526868963        9.4721439984
C         18.1465407900       26.9084494836       10.5948123553
S         17.6953009928       31.9877003134       16.5074464812
C         19.6882303071       33.2186894682       15.1230305710
C         18.4499151784       28.3954115513        8.2342430665
C         18.2412784488       26.2502166759        9.3575273350
O         16.3065148975       31.6626386622       16.1604105054
C         17.6193521649       33.5223185091       17.4607139497
O         18.5942510617       30.9992966661       17.1176908514
C         20.0813118824       33.9929243067       13.8381749393
C         18.3881760275       26.9940862135        8.1764347272
C         16.7392612302       34.5518162777       17.0735469490
C         18.4556734937       33.7090255160       18.5790273525
C         19.0017681816       35.0289425207       13.4502041904
C         21.4366152602       34.7016635346       14.0426549665
C         16.6952155772       35.7536017185       17.8003175685
C         18.4072445748       34.9126433188       19.3027487388
C         17.5280239082       35.9355926530       18.9151397151
N         17.4836346216       37.1186076519       19.6279514113
H         21.4766959954       22.9181671541        5.1781714807
H         21.9672468364       21.7481889132        7.3045583375
H         22.0770951114       23.0106575425        9.4351494179
H         21.1973090028       26.6648825809        7.3120968220
H         22.0507351315       27.6529002932        9.1362600245
H         23.5122525525       26.7408439345        9.6413893324
H         23.1835844894       27.4627378735       11.8217395188
H         20.4252601888       27.9168746546       12.9966759178
H         19.6260725395       30.5053374284       11.7163956581
H         20.3179025769       30.8160238417       14.0305898488
H         17.7713556989       28.3159809137       12.7763903555
H         17.2863119576       29.7750869055       11.9390852835
H         19.0846676837       29.8527109009       15.7205924782
H         18.3398067842       32.0852631429       12.9468786506
H         17.2710763654       31.0716474279       13.8916272476
H         18.3988951387       30.1375741177        9.5099122108
H         18.0362942450       26.3241392536       11.5045816324
H         19.6267780852       33.9565552058       15.9327636654
H         20.5025175277       32.5334129989       15.3939016302
H         18.5693475551       28.9720253908        7.3204703408
H         18.2029652499       25.1643633025        9.3156549646
H         20.2064882612       33.2842630489       13.0082474861
H         18.4558020985       26.4852869773        7.2185593409
H         16.0946323356       34.4200279882       16.2076173382
H         19.1433797819       32.9241003498       18.8849224709
H         18.0386328120       34.5443115211       13.2473882830
H         18.8483628351       35.7589037133       14.2555281284
H         19.2935123354       35.5777533063       12.5457544205
H         22.2244415525       33.9782062478       14.2891535896
H         21.7431675762       35.2298797850       13.1306233223
H         21.3820447403       35.4359116971       14.8569527454
H         16.0148368622       36.5443274265       17.4961833060
H         19.0545349237       35.0513048271       20.1644480369
H         18.0813213362       37.2578045114       20.4353187824
H         16.8505992117       37.8624142219       19.3550840519
    80
VM2 Rank=2      G=208.379           E=119.798           -TS=88.581              
C         21.4631001524       23.4934004290        6.1319612037
C         21.7551574999       22.8175739260        7.3270103366
C         21.2667014393       24.8905321001        6.1291488092
C         21.8472609148       23.5281772054        8.5332910529
C         20.9308232421       25.6358770891        4.8317796037
C         21.3580393497       25.5917191772        7.3501874766
C         21.6444861535       24.9196909693        8.5534825533
F         21.3935448535       25.0079274457        3.7268593718
F         19.5963159360       25.7716589047        4.6702080564
F         21.4528606867       26.8830401236        4.8001840215
N         21.7306892615       25.6414028952        9.7756328591
C         22.4992413139       26.8758729475        9.8815115055
C         21.1497885848       25.2878503245       10.9783604329
C         22.2530578827       27.3336748449       11.3318050983
O         21.4989153574       26.2306504063       11.8980991477
O         20.4536940666       24.3129336168       11.2041073139
C         21.4786370435       28.6656535483       11.4205704060
O         21.6695835670       29.5949266979       10.6536384877
N         20.5142649528       28.7238840731       12.4032214973
C         19.4174285028       29.7013640112       12.4287205253
C         19.3316988094       30.3702505805       13.8293399778
C         18.0960176527       29.0247427502       11.9778776086
O         19.0322867973       29.3886470826       14.8270931627
C         18.2849316740       31.5160282023       13.8666794445
C         18.2064817751       28.3362218083       10.6224167174
N         18.4220855433       32.4544413463       15.0139842259
C         18.3250028863       29.0994978222        9.4466153616
C         18.1908718080       26.9317973279       10.5344212226
S         17.6940456890       31.9832051699       16.4868235250
C         19.7045041821       33.2022040371       15.1170815100
C         18.4190255011       28.4664298554        8.1958642819
C         18.2827689740       26.2975109059        9.2844062638
O         16.3047388749       31.6704216081       16.1307112251
C         17.6250360634       33.5161943261       17.4432451115
O         18.5811574874       30.9860717018       17.1001819385
C         20.1120272421       33.9745969373       13.8356146615
C         18.3913106779       27.0651616141        8.1142276310
C         16.7557890158       34.5538122699       17.0532656800
C         18.4562246403       33.6934459849       18.5669113026
C         19.0429964659       35.0191271849       13.4414217478
C         21.4712655292       34.6728409743       14.0498471320
C         16.7173779471       35.7542813594       17.7825279062
C         18.4134600468       34.8957880508       19.2931061589
C         17.5450494166       35.9268604850       18.9026607923
N         17.5062545393       37.1086098790       19.6178956518
H         21.3875678660       22.9257928211        5.2073147165
H         21.9077732517       21.7409443485        7.3188306348
H         22.0742898858       22.9938167135        9.4524597514
H         21.1898300709       26.6653932570        7.3632044186
H         22.1438560948       27.6216718494        9.1594545016
H         23.5644418920       26.6743021595        9.7123372194
H         23.2016162694       27.4628550033       11.8670054564
H         20.4329166023       27.9120517564       13.0034705620
H         19.6457412535       30.4966455738       11.7055793475
H         20.3234581290       30.7970702927       14.0264343442
H         17.7834796805       28.2997029644       12.7401879699
H         17.2959886979       29.7726058881       11.9291497566
H         19.0709688608       29.8378800144       15.7044327528
H         18.3613974129       32.0818563664       12.9306006778
H         17.2797411836       31.0744836462       13.8673456250
H         18.3452436219       30.1844318992        9.5028788030
H         18.1084392518       26.3296528777       11.4355072569
H         19.6429235184       33.9398635977       15.9269884585
H         20.5119198061       32.5108042712       15.3929158023
H         18.5084605024       29.0619457364        7.2908579748
H         18.2704040109       25.2118971763        9.2240539285
H         20.2373967794       33.2657797489       13.0058528526
H         18.4552234715       26.5749214962        7.1464295336
H         16.1152516285       34.4293271546       16.1832288133
H         19.1356070580       32.9021734750       18.8750442197
H         18.0775586860       34.5420223295       13.2318281524
H         18.8898342354       35.7495772714       14.2463481675
H         19.3448942917       35.5664379219       12.5393971911
H         21.7879223236       35.1995575173       13.1404035607
H         21.4168068442       35.4067276381       14.8644782000
H         22.2519122673       33.9432002081       14.3009194096
H         16.0453854010       36.5513033380       17.4761911430
H         19.0567658270       35.0271437734       20.1589245579
H         18.1003455516       37.2410670604       20.4290421305
H         16.8811137712       37.8582988922       19.3429341506
    80
VM2 Rank=3      G=208.435           E=119.468           -TS=88.967              
C         22.4587737361       24.4779887556        6.1731100327
C         23.3050428319       24.2849289830        7.2762419526
C         21.4547175709       25.4689888349        6.2064255668
C         23.1593508802       25.0794095680        8.4235158336
C         20.5208567568       25.6965447569        5.0115758353
C         21.3273971950       26.2680524298        7.3619569561
C         22.1675980953       26.0752210604        8.4748656270
F         19.2424759908       25.9124159238        5.3960703360
F         20.8944879581       26.7748282081        4.2881458311
F         20.4835082662       24.6502624721        4.1552463657
N         22.0186913331       26.8842422868        9.6348424279
C         21.8808244201       28.3328160467        9.5410321910
C         22.0040736347       26.4444059940       10.9449521232
C         21.7555757126       28.7822084816       11.0072484690
O         21.8618044525       27.5376302015       11.7466602292
O         22.1009284612       25.2955601022       11.3406291217
C         20.4353532415       29.5290497695       11.2808696126
O         20.1038179948       30.5226537271       10.6571641983
N         19.6190147826       28.9659171740       12.2377146033
C         18.1705829934       29.2138010782       12.3252046030
C         17.8159003175       30.0827831142       13.5657831948
C         17.4338339493       27.8508416267       12.3125312535
O         16.3975417644       30.2167021237       13.6793699446
C         18.4577796497       31.4961061991       13.4839773624
C         17.8256252425       26.9738768677       11.1283281865
N         18.5241634579       32.2311429958       14.7763250627
C         18.5984765845       25.8143955916       11.3251155494
C         17.4227057477       27.3213842438        9.8258604286
S         17.1270380315       33.0959336120       15.2446164351
C         19.3108208253       31.5918246314       15.8661794532
C         18.9555846542       25.0060410783       10.2332174895
C         17.7810221697       26.5146707656        8.7327537459
O         16.8221055111       33.9592399312       14.0972449588
C         17.7188623195       34.1987763382       16.5496849558
O         16.1649484797       32.1076012169       15.7498950628
C         20.7464919807       31.1583145117       15.4683604137
C         18.5431401354       25.3535217437        8.9374720857
C         18.5727684456       35.2735741595       16.2334231484
C         17.3517624514       33.9765430417       17.8916253382
C         21.4399885271       30.4682871491       16.6614739461
C         21.5921882114       32.3627362144       14.9959114915
C         19.0509070856       36.1181432836       17.2495575329
C         17.8323290034       34.8245058840       18.9039626462
C         18.6815354522       35.8953968081       18.5850209423
N         19.1536036947       36.7267310136       19.5828374552
H         22.5881647265       23.8534569043        5.2922709638
H         24.0753188043       23.5181308902        7.2420708946
H         23.8214527829       24.9206578138        9.2710524745
H         20.5569305698       27.0338715005        7.3969325816
H         20.9831209382       28.6016751920        8.9694801080
H         22.7685970425       28.7733346441        9.0700095557
H         22.5810198376       29.4530228277       11.2752835632
H         19.9873101251       28.1338411261       12.6820543799
H         17.8514373922       29.7696186965       11.4322036763
H         18.2076984751       29.5580673567       14.4463196194
H         17.6296996293       27.3256601355       13.2558123715
H         16.3503586969       28.0226431506       12.2845787946
H         16.2140083968       30.7067847031       14.5161188145
H         19.4733785934       31.4035981310       13.0862127484
H         17.9078821662       32.0862255982       12.7388385797
H         18.9243234956       25.5377332278       12.3241998670
H         16.8299299043       28.2173257913        9.6619444640
H         19.4092468439       32.2841429792       16.7116846316
H         18.7654562984       30.7175387076       16.2459669082
H         19.5547268484       24.1126949684       10.3919486966
H         17.4649205001       26.7868409541        7.7288160523
H         20.6938255012       30.4228459188       14.6543350108
H         18.8172251405       24.7259775072        8.0934145502
H         18.8675760740       35.4492507611       15.2014370694
H         16.6975928227       33.1470182539       18.1496087958
H         20.8705009554       29.5900191366       16.9917589815
H         22.4463237410       30.1280139266       16.3853475964
H         21.5359790255       31.1522498206       17.5147668567
H         21.6725977040       33.1215480787       15.7849207852
H         22.6071992015       32.0455613760       14.7250579632
H         21.1479541850       32.8403088884       14.1137283975
H         19.7099502072       36.9450117477       16.9993371038
H         17.5459931618       34.6484438567       19.9372818855
H         18.8908535952       36.5732387079       20.5502277595
H         19.7670408324       37.5031583437       19.3608234910
    80
VM2 Rank=4      G=208.455           E=119.321           -TS=89.134              
C         20.2404103903       23.6139632545        6.6247325799
C         20.5137685004       22.9527459950        7.8321902183
C         20.3074165346       25.0211778008        6.5481725233
C         20.8595385335       23.6887631410        8.9755040929
C         20.0185870474       25.7543843087        5.2324742367
C         20.6664555257       25.7479165047        7.7031831398
C         20.9361864085       25.0921261327        8.9196447954
F         21.1558908085       26.0226835509        4.5542123723
F         19.2258193010       25.0472825296        4.3953081321
F         19.3950810156       26.9386626150        5.4266801881
N         21.2935345413       25.8398702180       10.0759481970
C         22.2782903455       26.9135048150       10.0163233980
C         20.8090546711       25.6521131685       11.3565691026
C         22.3287490517       27.4440102409       11.4616970243
O         21.4347702341       26.5476677927       12.1709007356
O         19.9783499172       24.8373671824       11.7201922678
C         21.8864675474       28.9173838921       11.5806475892
O         22.1783372234       29.7646180229       10.7527936619
N         21.0903834546       29.2096873005       12.6667317091
C         20.2289086110       30.3961255993       12.7622603116
C         20.4533620293       31.1068755476       14.1265323647
C         18.7511020526       29.9985400268       12.5009279027
O         20.0836110089       30.2360828794       15.1999585153
C         19.6797835089       32.4491639304       14.2198357929
C         18.5555989873       29.2220048328       11.2036436010
N         20.0593745910       33.3140493681       15.3730137116
C         18.7328632735       29.8579336289        9.9612439661
C         18.1973956947       27.8614858848       11.2370460404
S         19.3491202459       33.0136321091       16.9005110752
C         21.4714843571       33.7726248695       15.4251469532
C         18.5477364947       29.1437822762        8.7655164227
C         18.0085507157       27.1472396556       10.0423428618
O         20.0666618792       31.8682037132       17.4757480724
C         17.6287368962       32.5959173563       16.5241272900
O         19.3186472762       34.3266443633       17.5565314112
C         21.9859759193       34.4653688869       14.1357956604
C         18.1790187546       27.7898029137        8.8062369025
C         17.1857586426       31.2596926542       16.5882962638
C         16.7264477178       33.6056514354       16.1350180472
C         21.1438057434       35.7133221539       13.7858978947
C         23.4668760444       34.8644876719       14.3054211355
C         15.8561466217       30.9400935291       16.2654004087
C         15.3973522471       33.2809314177       15.8147752672
C         14.9606591719       31.9488702897       15.8786430634
N         13.6539304633       31.6315445403       15.5602230995
H         19.9778275184       23.0270917004        5.7475530505
H         20.4590943103       21.8678287844        7.8817470068
H         21.0719290848       23.1642553148        9.9037619567
H         20.7250251276       26.8319956654        7.6536293714
H         21.9586586200       27.6953571137        9.3158987201
H         23.2551525403       26.5179372107        9.7110690849
H         23.3445022808       27.3666529009       11.8680935725
H         20.9099171598       28.4485775628       13.3102237519
H         20.5260921276       31.1039575745       11.9760725788
H         21.5278721607       31.3232364292       14.1906834132
H         18.3814237288       29.4063071345       13.3477644966
H         18.1258139769       30.8982539313       12.4688812843
H         20.3510801506       30.6727667036       16.0421977308
H         19.8526248010       33.0017899356       13.2887089888
H         18.6048672218       32.2379958864       14.2340495485
H         19.0168968807       30.9060102538        9.9229532885
H         18.0662915067       27.3550023774       12.1896843724
H         21.5841102850       34.4885032658       16.2512607912
H         22.1247648205       32.9221429477       15.6619900228
H         18.6854921303       29.6407323081        7.8085594960
H         17.7324255022       26.0960961730       10.0758381645
H         21.9343278566       33.7581536787       13.2969184885
H         18.0273097415       27.2389021393        7.8818648140
H         17.8716608395       30.4683667693       16.8808620007
H         17.0582436444       34.6396647449       16.0761585974
H         21.1730038969       36.4489311297       14.5999566759
H         21.5214325658       36.1979314406       12.8765575190
H         20.0937835800       35.4491291390       13.6092385847
H         24.0875685421       33.9856481458       14.5227119513
H         23.8546362553       35.3277721406       13.3890118668
H         23.5931860892       35.5815581854       15.1269661101
H         15.5222795251       29.9072482542       16.3137327486
H         14.7071263839       34.0644135292       15.5141199667
H         13.0006473421       32.3546409741       15.2799128016
H         13.3307353814       30.6714043827       15.6032974859
    80
VM2 Rank=5      G=208.470           E=119.531           -TS=88.939              
C         22.3562702868       24.5364729841        6.1441608410
C         23.2702599310       24.3757127877        7.1974244918
C         21.3441669372       25.5168385287        6.2181220243
C         23.1793686725       25.1867131446        8.3388350303
C         20.3262278873       25.6911473363        5.0846996218
C         21.2632947054       26.3234268569        7.3726318062
C         22.1719008995       26.1629586538        8.4355535788
F         19.9915680896       26.9864468378        4.8871125964
F         20.7744536568       25.2336337785        3.8934391365
F         19.1766814407       25.0308562091        5.3456456794
N         22.0702131194       26.9808621802        9.5938225975
C         21.9145291683       28.4272085121        9.4942600217
C         22.1151070817       26.5516270384       10.9065467228
C         21.7966956729       28.8809754474       10.9597542957
O         21.9859113676       27.6493124109       11.7044864766
O         22.2486667520       25.4080863655       11.3067441208
C         20.4402355378       29.5517814711       11.2541472936
O         20.0404208544       30.5202077927       10.6308763814
N         19.6764789381       28.9515989449       12.2318986667
C         18.2222500617       29.1376782792       12.3661355565
C         17.8719194949       30.0101048383       13.6059855320
C         17.5461185645       27.7440090444       12.4014863702
O         16.4536174523       30.0863609017       13.7648807457
C         18.4499412319       31.4480046416       13.4851566686
C         17.9224086072       26.8679544397       11.2117109203
N         18.5234336692       32.2047532022       14.7645218198
C         18.7662697258       25.7552010220       11.3847958013
C         17.4291878771       27.1664937939        9.9282832806
S         17.1061967714       33.0187657746       15.2624030489
C         19.3678540104       31.6153124564       15.8391509020
C         19.1042891932       24.9439081774       10.2890285164
C         17.7676001020       26.3563717577        8.8312211342
O         16.7308953481       33.8496429599       14.1119553505
C         17.6907729126       34.1665597124       16.5314729693
O         16.2020030125       31.9999819491       15.8121404930
C         20.8079015585       31.2349592253       15.4044158151
C         18.6006852625       25.2410247200        9.0131393890
C         18.4893702174       35.2700812218       16.1725156780
C         17.3738031204       33.9518861495       17.8873471081
C         21.5885900905       32.4655619164       14.8894500525
C         21.5643917409       30.5926131240       16.5858108660
C         18.9623633907       36.1504454007       17.1602800085
C         17.8489607507       34.8356808425       18.8711913581
C         18.6429226541       35.9350786092       18.5097572426
N         19.1098021803       36.8016985596       19.4796019898
H         22.4363543509       23.8928699311        5.2711631776
H         24.0482325382       23.6189044910        7.1306146264
H         23.8918867617       25.0522565966        9.1488814568
H         20.4739833907       27.0666707835        7.4496207032
H         21.0117292646       28.6863781913        8.9264402957
H         22.7956079176       28.8735753377        9.0162499995
H         22.5863403791       29.6011333869       11.2067382454
H         20.0979733684       28.1446763877       12.6752112662
H         17.8483642586       29.6638921961       11.4764289112
H         18.3139475010       29.5153713794       14.4800742003
H         17.8051947284       27.2404501743       13.3413150654
H         16.4559678925       27.8682934380       12.4193128355
H         16.2767148370       30.5817086727       14.5999350522
H         19.4564329819       31.3927397361       13.0587600789
H         17.8536433119       32.0029220890       12.7487085096
H         19.1614452853       25.5165952280       12.3685711238
H         16.7802918020       28.0259941244        9.7827109704
H         19.4623352230       32.3241495169       16.6713215035
H         18.8706978007       30.7253622534       16.2476528677
H         19.7583017079       24.0867060694       10.4294382213
H         17.3804691586       26.5897999180        7.8425656063
H         20.7617662559       30.4853595919       14.6029824860
H         18.8591423751       24.6097597989        8.1669500393
H         18.7454145904       35.4404489468       15.1293548519
H         16.7627331974       33.1006237777       18.1781218858
H         21.0990694065       32.9107875152       14.0143464881
H         21.6607436252       33.2391989541       15.6647440082
H         22.6074418538       32.1861321256       14.5926889883
H         22.5753703842       30.2896548083       16.2843460644
H         21.6571216312       31.2931357338       17.4259296324
H         21.0418346194       29.6969714502       16.9456999557
H         19.5786368015       36.9993890768       16.8771497547
H         17.6014215961       34.6653079820       19.9154293330
H         18.8827297970       36.6538502779       20.4568539605
H         19.6833127758       37.5989583112       19.2268229330
    80
VM2 Rank=6      G=208.570           E=119.371           -TS=89.200              
C         20.3268001824       23.5804110471        6.7272841010
C         20.6835012184       22.9452377992        7.9270589403
C         20.3463936763       24.9877447677        6.6290931627
C         21.0565391123       23.7082485539        9.0438494988
C         19.9430226458       25.6933049408        5.3287267393
C         20.7195740365       25.7424970566        7.7612962864
C         21.0721677281       25.1126278135        8.9698646715
F         18.6412292105       26.0546231446        5.3449339448
F         20.6547883858       26.8222589243        5.1102416122
F         20.1179026559       24.9217923924        4.2316875144
N         21.4435376869       25.8886632508       10.1022342762
C         22.3914727809       26.9913357162        9.9952395293
C         21.0029015244       25.7082055216       11.3993454510
C         22.4411299902       27.5681064359       11.4229609929
O         21.6211090192       26.6394065884       12.1786014912
O         20.2117011002       24.8724112672       11.8011445720
C         21.9043668286       29.0123579266       11.5101444374
O         22.1136038870       29.8499222822       10.6481971334
N         21.1263036988       29.2871761359       12.6137511452
C         20.2089545065       30.4303134453       12.7156125718
C         20.4313616763       31.1679963438       14.0659390889
C         18.7471975606       29.9552186752       12.4976146588
O         20.1314768278       30.2929843299       15.1575776766
C         19.5959298201       32.4723510852       14.1644779296
C         18.5540904890       29.1751247888       11.2023884233
N         19.9605841500       33.3676048779       15.2991620600
C         18.6257464132       29.8326467471        9.9607668168
C         18.3009454158       27.7912430151       11.2364661888
S         19.3024898101       33.0507251285       16.8465875475
C         21.3495169600       33.8945959133       15.3120368132
C         18.4387392676       29.1165568045        8.7665244499
C         18.1115592599       27.0743914020       10.0433354859
O         20.0889992786       31.9485467779       17.4161253903
C         17.5962904249       32.5448292018       16.5166499929
O         19.2230724528       34.3682617619       17.4892986609
C         21.7983265585       34.5973247975       14.0037075749
C         18.1749091695       27.7382802264        8.8081748789
C         16.6362853967       33.5045094396       16.1391580928
C         17.2213867995       31.1893232647       16.6055393711
C         20.8880763754       35.7990371948       13.6625408368
C         23.2616573948       35.0696674013       14.1328951802
C         15.3175891719       33.1112811076       15.8547096527
C         15.9018646803       30.8011524982       16.3183921176
C         14.9487693000       31.7602295999       15.9430450779
N         13.6521354721       31.3754726071       15.6596179621
H         20.0325675361       22.9735865507        5.8740426404
H         20.6683092223       21.8598856986        7.9924025968
H         21.3311282578       23.2047097214        9.9674223368
H         20.7202797636       26.8277275299        7.7023991309
H         22.0413298795       27.7393099018        9.2728557960
H         23.3769338628       26.6159326181        9.6921935903
H         23.4683263479       27.5701755245       11.8073410055
H         21.0156430850       28.5373402565       13.2856979850
H         20.4508417093       31.1417276599       11.9138093015
H         21.4952103969       31.4372844095       14.1007943670
H         18.4355511308       29.3409451745       13.3520854418
H         18.0737186346       30.8199182589       12.4890523055
H         20.3971120204       30.7524874413       15.9881836427
H         19.7192984390       33.0219989209       13.2237647951
H         18.5331948189       32.2099207130       14.2074490221
H         18.8277240670       30.8995664212        9.9219306363
H         18.2513415426       27.2691144643       12.1884311097
H         21.4470127647       34.6241044763       16.1280897184
H         22.0489909204       33.0794352018       15.5410256303
H         18.4934624958       29.6308652725        7.8104177825
H         17.9164893097       26.0052246817       10.0772721717
H         21.7609681427       33.8793015682       13.1733017892
H         18.0211950026       27.1853592075        7.8852950617
H         16.9151880884       34.5528002953       16.0614675510
H         17.9522383690       30.4360356232       16.8895558699
H         19.8482511365       35.4822584664       13.5143161773
H         20.9009308583       36.5439984418       14.4684773123
H         21.2195913330       36.2915010412       12.7395434627
H         23.9295472372       34.2244200160       14.3433987410
H         23.6041297808       35.5411769391       13.2027414873
H         23.3726215137       35.8009677439       14.9440475680
H         14.5826121430       33.8564152192       15.5627603060
H         15.6206028594       29.7537953012       16.3855493511
H         13.3783789828       30.4009034190       15.7183723176
H         12.9580558836       32.0620506548       15.3856049004
    80
VM2 Rank=7      G=208.614           E=120.266           -TS=88.348              
C         22.1584646247       23.7762334109        6.5056740391
C         22.4331210199       23.1661029027        7.7396225422
C         21.6940978714       25.1078382416        6.4536118375
C         22.2487258879       23.8783935428        8.9342952118
C         21.3890474894       25.7942962993        5.1167370564
C         21.5235884546       25.8152881804        7.6620685132
C         21.7904048217       25.2076005648        8.9035140009
F         21.2565958867       24.9275153438        4.0868926256
F         20.2395733228       26.5051042083        5.1593809707
F         22.3663943462       26.6601815405        4.7692224732
N         21.6050260517       25.9334291292       10.1121836662
C         22.1074669678       27.2932735406       10.2692898697
C         20.9770176562       25.4758781596       11.2550790382
C         21.7019357790       27.6673937881       11.7055162853
O         21.0314598784       26.4720640276       12.1839558907
O         20.4609036062       24.3854881363       11.4296040576
C         20.8036880944       28.9190192277       11.7517332962
O         21.1682257867       30.0017274955       11.3261765594
N         19.5303636911       28.7223985589       12.2401597969
C         18.3905463776       29.5938127238       11.9143170349
C         18.0185514402       30.5246001072       13.1020956725
C         17.2028878073       28.7137171592       11.4531182693
O         16.9098143742       31.3564340214       12.7499967245
C         19.2112271956       31.4223804380       13.5270853768
C         17.5693845965       27.7825617995       10.3030665085
N         18.8814296931       32.4532175084       14.5444610384
C         17.6951571163       26.3976618497       10.5189436056
C         17.7932970358       28.3032017741        9.0153650961
S         18.0441453580       31.9396829844       15.9514725124
C         19.9018791718       33.5238112875       14.6410316011
C         18.0320801014       25.5420329476        9.4570255921
C         18.1317826842       27.4485035507        7.9529084745
O         16.6283413089       31.9556167132       15.5615136579
C         18.3098243075       33.2072386230       17.2205407000
O         18.7326432551       30.7183034357       16.3855762393
C         19.2943077822       34.9352879115       14.4501692136
C         18.2465281903       26.0666841857        8.1730263276
C         19.4559798372       33.1647021333       18.0402413235
C         17.3603516494       34.2305894712       17.4168238588
C         18.7666635287       35.1267607361       13.0108647479
C         20.3399498012       36.0189695615       14.7838923408
C         19.6618386339       34.1490173330       19.0214941466
C         17.5709178565       35.2126926960       18.3994090635
C         18.7223177047       35.1755614660       19.2002996880
N         18.9280519555       36.1437312839       20.1645434548
H         22.3092016133       23.2082280569        5.5906519998
H         22.7896815168       22.1392633570        7.7702246464
H         22.4658346465       23.3950645634        9.8835860132
H         21.1652203097       26.8409817542        7.6318998521
H         21.6385010930       27.9672159844        9.5407626479
H         23.1980883023       27.3163169582       10.1505859603
H         22.5916534047       27.8711231185       12.3138406278
H         19.3330389093       27.7828388310       12.5622360048
H         18.6719324196       30.2376513917       11.0688530059
H         17.7405994259       29.8838954601       13.9501261122
H         16.8272534960       28.1354311601       12.3066533581
H         16.3725296385       29.3590583569       11.1394051786
H         16.6314805452       31.8051691569       13.5827966800
H         20.0161995420       30.7815711193       13.9101792820
H         19.5923300626       31.9110882630       12.6204473925
H         17.5329684987       25.9818435323       11.5097458632
H         17.7032211277       29.3717073402        8.8386640862
H         20.4307386578       33.4655809247       15.5999921904
H         20.6705837973       33.3893391459       13.8676553203
H         18.1304042314       24.4732507169        9.6310522615
H         18.3014598573       27.8562303243        6.9595144669
H         18.4497700948       35.0649270039       15.1365796972
H         18.5052320788       25.4038254386        7.3513622646
H         20.1896722725       32.3723329078       17.9118811930
H         16.4642959191       34.2703092352       16.8019590964
H         19.5727150088       35.0114561518       12.2750687810
H         17.9866209683       34.3908770494       12.7756127217
H         18.3304065923       36.1255927405       12.8835232975
H         19.9123846941       37.0232872800       14.6691878627
H         20.6858479407       35.9214532407       15.8213396859
H         21.2138079956       35.9442110852       14.1238510363
H         20.5516898244       34.1135935318       19.6440507934
H         16.8385699334       36.0032052507       18.5386885333
H         18.2540747896       36.8892302048       20.2996655603
H         19.7577389315       36.1240246998       20.7472145211
    80
VM2 Rank=8      G=208.623           E=119.697           -TS=88.926              
C         22.1700984711       23.9188238040        6.4889635266
C         22.4842305134       23.3061573127        7.7121892967
C         21.6674738802       25.2371306410        6.4573784858
C         22.3015249319       24.0026161739        8.9164144292
C         21.3187937769       25.9265554808        5.1327578529
C         21.4987733428       25.9289245806        7.6751069263
C         21.8052472607       25.3184391816        8.9059821300
F         21.2037138427       25.0672121518        4.0946234021
F         20.1448127536       26.5940613442        5.1996387108
F         22.2587162719       26.8317103142        4.7820528246
N         21.6214683570       26.0282687714       10.1243596528
C         22.0881057699       27.4004313703       10.2848258486
C         21.0277147359       25.5431679671       11.2741903567
C         21.6987861111       27.7502979899       11.7315781372
O         21.0707680890       26.5325161898       12.2109543179
O         20.5460143710       24.4370536017       11.4480840646
C         20.7671291571       28.9758049464       11.8053618096
O         21.0976050470       30.0741533550       11.3922531595
N         19.5045097104       28.7369896731       12.3030780780
C         18.3376402544       29.5797470639       11.9981251132
C         17.9592752720       30.4986094240       13.1935297198
C         17.1657556088       28.6707755235       11.5530917221
O         16.8342614765       31.3113361307       12.8511843439
C         19.1394973782       31.4174552195       13.6091952862
C         17.5373215052       27.7547691837       10.3926000965
N         18.8201422160       32.4475471380       14.6399340334
C         17.7219023641       28.2864392204        9.1031803958
C         17.7071737733       26.3733259788       10.6002769823
S         18.0268163479       31.8654434821       16.0465430660
C         19.9066899890       33.4451597196       14.8512885749
C         18.0651818838       27.4458815134        8.0310411436
C         18.0490392796       25.5318060941        9.5287046813
O         16.6136412260       31.7770144096       15.6558584745
C         18.1553463375       33.1882991263       17.2767609316
O         18.7965991227       30.7011933268       16.5008833568
C         20.3781954174       34.2031428158       13.5809617136
C         18.2242179417       26.0672026625        8.2431775937
C         19.1492410853       33.1407527033       18.2748275957
C         17.2729978895       34.2860857380       17.2307603661
C         21.4476602078       35.2496170432       13.9598663670
C         19.1999138376       34.8976144243       12.8601028159
C         19.2565420442       34.1799675700       19.2145775314
C         17.3849349415       35.3225933373       18.1728583778
C         18.3757885707       35.2713288857       19.1651912781
N         18.4847376360       36.2925774160       20.0896854289
H         22.3201897708       23.3631288910        5.5663153990
H         22.8701598613       22.2896402781        7.7270402288
H         22.5494634492       23.5175112907        9.8572088672
H         21.1108174084       26.9441477420        7.6606435098
H         21.5868638962       28.0671429824        9.5712828588
H         23.1752580439       27.4555389719       10.1464610725
H         22.5935426970       27.9736099385       12.3254756719
H         19.3364886575       27.7878610239       12.6134928797
H         18.5894804768       30.2321944760       11.1499027712
H         17.7003671734       29.8489115985       14.0407191556
H         16.8199626720       28.0790407278       12.4100194172
H         16.3135271614       29.2953692753       11.2564807375
H         16.5407629955       31.7301586011       13.6945689858
H         19.9596811579       30.7865842163       13.9760796598
H         19.4907062607       31.8944021059       12.6881881471
H         17.5975605132       29.3525155022        8.9326925210
H         17.5755584964       25.9493056566       11.5921349338
H         19.5745546548       34.2196132172       15.5522610875
H         20.7725248475       32.9478734761       15.3098855856
H         18.2043629227       27.8620521934        7.0364143598
H         18.1816560522       24.4657155772        9.6963699507
H         20.8528407696       33.4967139206       12.8865631516
H         18.4869867025       25.4152320958        7.4141200575
H         19.8395954105       32.3017771647       18.3202580147
H         16.5049678569       34.3370619678       16.4624722929
H         22.3067270979       34.7726641950       14.4490741577
H         21.8189782320       35.7698333350       13.0675330798
H         21.0407765459       36.0035413983       14.6463375050
H         18.6976333821       35.6128100694       13.5239067869
H         19.5498997891       35.4432175194       11.9746657899
H         18.4527677439       34.1671349713       12.5240489834
H         20.0256047531       34.1378775241       19.9810727719
H         16.7021651662       36.1668519060       18.1308849797
H         17.8527966699       37.0851944089       20.0604307794
H         19.1985199992       36.2635944050       20.8094927458
    80
VM2 Rank=9      G=208.638           E=119.952           -TS=88.686              
C         20.7735772427       25.0017193634        5.2885052327
C         19.5997202487       25.6035949391        5.7669536913
C         22.0072138948       25.2250710484        5.9355378202
C         19.6449056538       26.4370279737        6.8943957009
C         23.2983742145       24.5828782141        5.4135048105
C         22.0392704186       26.0722310486        7.0637920372
C         20.8647265091       26.6744466164        7.5546265824
F         24.1455875207       24.2381293494        6.4096455640
F         23.0782832222       23.4534483166        4.7024168922
F         23.9775200027       25.4237264242        4.6025864579
N         20.9123691860       27.5231710486        8.6966003267
C         20.1785081848       28.7827343457        8.7417635028
C         21.6372480747       27.3053214505        9.8537918750
C         20.5847137619       29.3936697834       10.0940865021
O         21.4387335411       28.3746476321       10.6753093807
O         22.3363808899       26.3423985204       10.1183036768
C         19.3712806871       29.7381603073       10.9791751048
O         18.4694750871       30.4662082202       10.6011581977
N         19.3359432578       29.1155455618       12.2079042176
C         18.0952846393       28.8809216337       12.9645820332
C         18.0431171088       29.7483847615       14.2540575412
C         17.9678784946       27.3629126799       13.2480368331
O         16.8818537196       29.4179887552       15.0187522693
C         18.0246288255       31.2672756507       13.9243930372
C         18.1095124624       26.5117102022       11.9906633886
N         18.3940393413       32.1596051747       15.0567069283
C         17.1260189978       26.5632576819       10.9858547935
C         19.2321343257       25.6814024966       11.8151681931
S         17.1495720071       32.5677890331       16.1539282189
C         19.7565706153       31.9803845760       15.6283343266
C         17.2609313198       25.7911077675        9.8200067542
C         19.3660516393       24.9059442843       10.6515728386
O         16.0756467333       33.1100884784       15.3128824072
C         17.8224787352       33.9766183731       17.0661597708
O         16.9434628899       31.3975440783       17.0175317584
C         20.9086596964       31.9971589596       14.5892807632
C         18.3798432454       24.9594391326        9.6543580818
C         17.9933840154       35.2183576035       16.4233174780
C         18.2033742006       33.8360500732       18.4152773716
C         20.9545452974       33.3341273589       13.8150498139
C         22.2596089230       31.7542774243       15.2939517427
C         18.5367129673       36.3078324388       17.1249460534
C         18.7457716584       34.9289610529       19.1125294655
C         18.9130606337       36.1651058746       18.4693814659
N         19.4480259095       37.2376242906       19.1572190984
H         20.7206126817       24.3624744626        4.4102473148
H         18.6529581222       25.4236987782        5.2632667912
H         18.7254500615       26.8883163586        7.2566514118
H         22.9873430355       26.2644461401        7.5603213878
H         19.0969908792       28.5974569928        8.7065365430
H         20.4737468788       29.4341774124        7.9095848991
H         21.1572902984       30.3160715729        9.9373952683
H         20.1318065529       28.5224353775       12.4091470708
H         17.2390289167       29.1717699681       12.3397866967
H         18.9448265737       29.5144022878       14.8340083652
H         18.7199817274       27.0707659345       13.9916323805
H         16.9935177868       27.1592140910       13.7099639058
H         16.9276477383       29.9319249114       15.8600956514
H         18.7104098208       31.4594787935       13.0927918338
H         17.0283833291       31.5291944834       13.5439260731
H         16.2576718585       27.2050560550       11.1083275704
H         20.0045082357       25.6379662156       12.5783245783
H         19.9668811872       32.7789609914       16.3507575002
H         19.7958672834       31.0380708804       16.1909318869
H         16.4979517276       25.8358895571        9.0470481940
H         20.2377732222       24.2694887714       10.5203675858
H         20.7654407535       31.1782169848       13.8715429335
H         18.4853876358       24.3609015080        8.7529577988
H         17.7089968990       35.3350665596       15.3801153404
H         18.0817050171       32.8812533916       18.9214038726
H         20.0234905972       33.5059355189       13.2607137273
H         21.1006563775       34.1805420367       14.4984429855
H         21.7776131711       33.3375906554       13.0892696961
H         22.2583472367       30.7930340019       15.8238257643
H         23.0815026094       31.7325336936       14.5667943125
H         22.4743819433       32.5452131476       16.0243070883
H         18.6668462196       37.2628555604       16.6232924692
H         19.0378701877       34.8148854748       20.1529144565
H         19.5735802834       38.1338245518       18.6995111104
H         19.7237494089       37.1425711036       20.1284990522
    80
VM2 Rank=10     G=208.641           E=120.170           -TS=88.472              
C         21.2692071304       24.5812983519        5.2113881435
C         21.0600775582       25.9625820759        5.3435274033
C         21.5724817878       23.7921783177        6.3407701082
C         21.1444244904       26.5699584812        6.6052046378
C         21.7944935650       22.2805669347        6.2071090747
C         21.6466030711       24.4151748241        7.6049834689
C         21.4309927020       25.7995184466        7.7473075168
F         22.2281166408       21.9174733551        4.9783723330
F         22.7142165352       21.8115962181        7.0809586765
F         20.6562492580       21.5891195747        6.4350386963
N         21.5101846513       26.4126900766        9.0296672882
C         22.2004099923       27.6817121577        9.2286245694
C         20.9941612421       25.9146292777       10.2113684248
C         22.0605959376       27.9429565478       10.7403329746
O         21.3286976894       26.7809378144       11.2082275585
O         20.3553611477       24.8874356254       10.3631080219
C         21.3292144706       29.2619853816       11.0640875843
O         21.5007328914       30.2870030299       10.4252109794
N         20.4195820906       29.1954617518       12.0972829174
C         19.3178609006       30.1496540674       12.2851734447
C         19.2753277184       30.6340920492       13.7616487874
C         17.9853810228       29.5216096281       11.7963203081
O         19.0215954910       29.5298630136       14.6363494826
C         18.2184093482       31.7500700704       13.9792625817
C         18.0649337664       28.9771059546       10.3745636357
N         18.3848029860       32.5367428743       15.2319348010
C         18.2023090243       29.8557373038        9.2844565228
C         18.0116906821       27.5904264296       10.1403002716
S         17.7129418921       31.8712157410       16.6556648680
C         19.6618894577       33.2845210786       15.3875732633
C         18.2830527005       29.3543439821        7.9745649934
C         18.0882415034       27.0880245845        8.8307504915
O         16.3159462393       31.5843287869       16.3079143218
C         17.6591670004       33.2694379605       17.8009297271
O         18.6318359698       30.8184111792       17.1080905457
C         20.0160476943       34.2206278046       14.2030526511
C         18.2215945535       27.9702693966        7.7472415977
C         16.7654337869       34.3344338481       17.5743302399
C         18.5261707472       33.3159083041       18.9104626720
C         18.9224555926       35.2903555513       13.9816787588
C         21.3740923573       34.9066606963       14.4600444766
C         16.7383825672       35.4321874808       18.4510448551
C         18.4946449619       34.4158421289       19.7845141295
C         17.6018249268       35.4744323913       19.5565781363
N         17.5741642570       36.5554194510       20.4169840593
H         21.1939698222       24.1260121661        4.2265624203
H         20.8292039134       26.5631883811        4.4669369760
H         20.9726957238       27.6392862230        6.6905848040
H         21.8732929408       23.8159016876        8.4835030907
H         21.7196383077       28.4763328814        8.6438071360
H         23.2557090881       27.5942076840        8.9412523964
H         23.0476564525       27.9827381810       11.2168416701
H         20.3544219339       28.3075234582       12.5803458180
H         19.5161472779       31.0328544195       11.6621612607
H         20.2690001548       31.0471066070       13.9776404259
H         17.6902491234       28.7201799226       12.4855383118
H         17.1852460958       30.2694898991       11.8446142640
H         19.0867828904       29.8649854612       15.5617998718
H         18.2568185980       32.4315847976       13.1211787055
H         17.2185941196       31.2970211304       13.9560251856
H         18.2525090802       30.9279016927        9.4535688444
H         17.9152545038       26.8995054027       10.9737145329
H         19.6206321883       33.9114672206       16.2870836858
H         20.4858515092       32.5758467580       15.5453893939
H         18.3909553370       30.0385316945        7.1367918162
H         18.0489434345       26.0153699405        8.6571158613
H         20.1203292647       33.6257211840       13.2855297088
H         18.2800793593       27.5814597032        6.7337496211
H         16.0970310062       34.3111570241       16.7167495915
H         19.2245938507       32.5026603857       19.0933636191
H         17.9556788456       34.8291150879       13.7445498958
H         18.7892245306       35.9094037066       14.8783127682
H         19.1867706170       35.9531383687       13.1478948530
H         22.1710295613       34.1630526711       14.5895105029
H         21.6530959793       35.5501318378       13.6157155186
H         21.3398534342       35.5294717593       15.3634343443
H         16.0473677809       36.2510417693       18.2703909057
H         19.1656228733       34.4465271943       20.6386718854
H         18.1941808503       36.5934213734       21.2185977541
H         16.9316591248       37.3241393358       20.2598312298
    80
VM2 Rank=11     G=208.645           E=119.899           -TS=88.746              
C         20.7049837550       24.9588983101        5.3085689982
C         19.5215437479       25.4965460677        5.8372387918
C         21.9549363438       25.2850810184        5.8755109740
C         19.5723594113       26.3598831450        6.9417147897
C         23.2528869292       24.6956357185        5.3098962384
C         21.9905981061       26.1488295781        6.9910630862
C         20.8070628027       26.6866963132        7.5324552612
F         23.6168628450       23.5729774724        5.9677747873
F         23.1558674210       24.3633438463        4.0022921485
F         24.2951146988       25.5529359509        5.4005935798
N         20.8591395898       27.5570790745        8.6578573638
C         20.0495682619       28.7684637722        8.7230523692
C         21.6549108275       27.4060973621        9.7785878739
C         20.4834478736       29.4270051416       10.0440860700
O         21.4306921585       28.4751257937       10.5938402449
O         22.4270697444       26.4942081159       10.0200418392
C         19.2967633017       29.7070671996       10.9863560176
O         18.3309090595       30.3684161802       10.6458418567
N         19.3652763018       29.1046948363       12.2237502513
C         18.1831421023       28.8035941676       13.0476078512
C         18.1404751050       29.6884763640       14.3255580368
C         18.1703225458       27.2857615220       13.3590029252
O         17.0445433198       29.2967566075       15.1549853960
C         18.0048663202       31.1968786118       13.9757359022
C         18.3026150544       26.4233201219       12.1082842109
N         18.3730502850       32.1312196963       15.0740519325
C         19.4664047285       25.6637868906       11.8864884307
C         17.2678414271       26.3938575301       11.1554258687
S         17.1632378583       32.4765794215       16.2300360329
C         19.7724077310       32.0513812903       15.5748509232
C         19.5908279198       24.8779858076       10.7287910748
C         17.3929388143       25.6114007649        9.9953690351
O         16.0135074745       32.9329721142       15.4397279986
C         17.7883363854       33.9419703062       17.0854052605
O         17.0800760779       31.3106757652       17.1197095102
C         20.8651040003       32.1249348991       14.4758369201
C         18.5536164590       24.8504352235        9.7836322233
C         18.2475249613       33.8500763003       18.4141865869
C         17.8429565122       35.1808534216       16.4171558127
C         20.7820337573       33.4481180340       13.6812869848
C         22.2640709592       31.9832903174       15.1110082786
C         18.7521102860       34.9880334804       19.0663001188
C         18.3489187225       36.3155225447       17.0736423100
C         18.8034793025       36.2210942717       18.3980186036
N         19.3015987110       37.3380396288       19.0413792301
H         20.6465323020       24.2862705148        4.4559455769
H         18.5627413930       25.2408469474        5.3925638591
H         18.6459441839       26.7596403795        7.3444926346
H         22.9479474954       26.4021125017        7.4400297820
H         18.9816570045       28.5149272270        8.7458442515
H         20.2605040366       29.4227971380        7.8678218393
H         20.9857120304       30.3817486341        9.8455524066
H         20.2076028626       28.5679935938       12.3914256689
H         17.2787186800       29.0273063097       12.4644218245
H         19.0843740789       29.5239867559       14.8605072885
H         18.9771921206       27.0561514971       14.0662393461
H         17.2364599792       27.0275974106       13.8742689957
H         17.0999538136       29.8271135205       15.9854905535
H         18.6323145342       31.4185380532       13.1062735087
H         16.9750974305       31.3866884651       13.6449648319
H         20.2779207156       25.6835091533       12.6089190908
H         16.3669969186       26.9806690430       11.3137315850
H         19.9668918181       32.8746115175       16.2736466663
H         19.9031820096       31.1237192553       16.1478740301
H         20.4942072099       24.2965078610       10.5615224705
H         16.5901903048       25.5934175333        9.2626503586
H         20.7391183179       31.2858033463       13.7784811741
H         18.6516399778       24.2439290557        8.8867200090
H         18.2158139852       32.8983284721       18.9393289243
H         17.4974228152       35.2605802888       15.3890420254
H         21.5640633298       33.4924311702       12.9127341345
H         19.8139979150       33.5489508610       13.1749209236
H         20.9073407372       34.3142408335       14.3437964613
H         23.0465564204       32.0024105209       14.3415338857
H         22.4638625884       32.7993517848       15.8175853469
H         22.3540270710       31.0335373093       15.6538086485
H         19.1050068853       34.9113836874       20.0911527465
H         18.3892785873       37.2681320088       16.5525228447
H         19.6314876548       37.2785423452       19.9984978713
H         19.3417466974       38.2328582721       18.5658558241
    80
VM2 Rank=12     G=208.661           E=119.212           -TS=89.449              
C         21.6588877152       25.3585581763        5.8765088214
C         22.4911591978       24.7536282764        6.8313485058
C         20.8711115889       26.4776997647        6.2204739388
C         22.5471614953       25.2596279674        8.1388181770
C         19.9560456534       27.1540448933        5.1925088001
C         20.9461808007       26.9825997831        7.5355224734
C         21.7729008757       26.3766066485        8.5003996503
F         20.5003297369       28.2968064678        4.7197300578
F         19.6930239905       26.3771694133        4.1170136142
F         18.7552503189       27.4859043557        5.7183859432
N         21.8289918577       26.8939076634        9.8238450986
C         21.9733326912       28.3224465457       10.0781180410
C         21.7783816482       26.1600934625       10.9939152640
C         22.0015660834       28.4177546165       11.6134569557
O         21.8830659733       27.0338278508       12.0349494194
O         21.6633122820       24.9516937042       11.1048580122
C         20.8734618798       29.3108374074       12.1657576594
O         20.7416493882       30.4772145991       11.8367497951
N         19.9790119030       28.6890681415       13.0097962633
C         18.6115309288       29.1773183529       13.2505817502
C         18.4660168532       29.7959178791       14.6702451059
C         17.6186504467       28.0158675648       12.9951843602
O         17.1090666444       30.1829528495       14.8939967767
C         19.3915899309       31.0299092442       14.8572843053
C         17.7911260358       27.3793253921       11.6205558403
N         19.5385254407       31.4980217065       16.2645412576
C         18.3297120025       26.0851313571       11.4966703080
C         17.4188128192       28.0853812653       10.4619533816
S         18.3490099219       32.5378831645       16.9181969121
C         20.1166728156       30.5264806413       17.2288793308
C         18.4849034972       25.4997349424       10.2292058767
C         17.5753472631       27.5015595324        9.1936332109
O         17.1916761621       31.6953170880       17.2478740577
C         17.9720238335       33.6914929183       15.5761081051
O         19.0618704500       33.3176298208       17.9376521139
C         21.4521724071       29.8716511422       16.7851338825
C         18.1037670404       26.2060369536        9.0778037153
C         16.7666583164       33.5808025903       14.8546924052
C         18.8947597850       34.6987565162       15.2311596984
C         22.5528722275       30.9293784177       16.5427604110
C         21.9244806772       28.8599363348       17.8501213943
C         16.4898481472       34.4691653283       13.8017362197
C         18.6127555358       35.5850699792       14.1778510909
C         17.4110421982       35.4718335051       13.4621007716
N         17.1362835393       36.3439557757       12.4259212276
H         21.6302520036       24.9528591105        4.8679289217
H         23.0939586131       23.8909642021        6.5576432438
H         23.1962544415       24.7827353791        8.8689848883
H         20.3427966514       27.8440172512        7.8097815638
H         21.1213564757       28.8783724929        9.6658548643
H         22.9087345822       28.6975977759        9.6441206278
H         22.9566034325       28.8361256199       11.9541255807
H         20.1775733921       27.7156266861       13.2057161654
H         18.3860703540       29.9696249339       12.5226681849
H         18.7518846060       29.0201541297       15.3922806591
H         17.7358294478       27.2602576441       13.7821187034
H         16.5905413546       28.3882176052       13.0878339849
H         17.0338242158       30.4672212885       15.8354081313
H         20.3864334686       30.7797919761       14.4748406939
H         19.0343468581       31.8353611926       14.2045722968
H         18.6294756761       25.5307581299       12.3819332332
H         17.0063079703       29.0872753720       10.5459597443
H         20.3001120827       31.0371783343       18.1843934648
H         19.3822152963       29.7367217833       17.4361359404
H         18.9038624374       24.5003388995       10.1402762044
H         17.2837534740       28.0509305347        8.3019858232
H         21.2914166182       29.3107691481       15.8543582013
H         18.2216565859       25.7514461502        8.0975779483
H         16.0473708094       32.8048419952       15.1054030671
H         19.8305560708       34.7905178313       15.7776013818
H         23.4924152362       30.4529191922       16.2353797685
H         22.2633556107       31.6322582103       15.7517269844
H         22.7482785918       31.5099581822       17.4534311097
H         22.8519711417       28.3647139393       17.5350492523
H         22.1144292591       29.3550449164       18.8112780029
H         21.1691863353       28.0802430950       18.0125502240
H         15.5593728120       34.3770159936       13.2482686678
H         19.3291439332       36.3591306509       13.9165796825
H         16.2712822220       36.2673376487       11.9022852236
H         17.7976925392       37.0697627890       12.1728318175
    80
VM2 Rank=13     G=208.668           E=119.647           -TS=89.022              
C         22.0671274268       23.9820208288        6.4977632273
C         22.3921895193       23.3326403761        7.6991447733
C         21.6141238007       25.3182489044        6.5059449838
C         22.2614800256       24.0076848861        8.9222704455
C         21.2352208187       26.0312118578        5.2023579291
C         21.4854945239       25.9838959856        7.7431091206
C         21.8029476387       25.3365832848        8.9518437990
F         21.8715856717       25.5277726251        4.1203007387
F         19.9108992229       25.9357087523        4.9523408755
F         21.5291832090       27.3509905227        5.2295437206
N         21.6584214012       26.0211516241       10.1889758906
C         22.1893544277       27.3651981100       10.3831177689
C         21.0379327207       25.5374535539       11.3248246978
C         21.7513283226       27.7242691539       11.8135634486
O         21.1119231018       26.5071876971       12.2801524506
O         20.5147487300       24.4468417476       11.4746471669
C         20.8075273216       28.9429221461       11.8396118591
O         21.1460798325       30.0394161119       11.4281596356
N         19.5291052600       28.7014875342       12.2947242470
C         18.3728439222       29.5520678588       11.9705288594
C         17.9866702661       30.4804865105       13.1567217917
C         17.1971369372       28.6503580865       11.5204072814
O         16.8726406211       31.3005743876       12.7962701555
C         19.1673782584       31.3929092136       13.5849188689
C         17.5638479540       27.7307352544       10.3613125394
N         18.8413341694       32.4287804394       14.6077341837
C         17.7331138965       28.2562450508        9.0671869960
C         17.7363434842       26.3503760851       10.5734748601
S         18.0249470052       31.8570020732       16.0053386064
C         19.9318173783       33.4195863054       14.8305143465
C         18.0619473600       27.4102639892        7.9945453999
C         18.0645998856       25.5036462707        9.5018139268
O         16.6163431000       31.7793638682       15.5963144764
C         18.1490915616       33.1815292099       17.2342153330
O         18.7790403914       30.6874809031       16.4722925234
C         20.4269799043       34.1688754288       13.5640368941
C         18.2221292481       26.0323824836        8.2112991746
C         19.1308277419       33.1285570750       18.2439750921
C         17.2757004307       34.2858621101       17.1756604339
C         21.4986518000       35.2089994769       13.9540237133
C         19.2642793332       34.8690578696       12.8236661525
C         19.2349987173       34.1688898850       19.1828334581
C         17.3844503997       35.3234567575       18.1169399164
C         18.3631846319       35.2667673519       19.1209397249
N         18.4690286262       36.2890603526       20.0446385134
H         22.1653231829       23.4405144862        5.5597140787
H         22.7421769427       22.3032276266        7.6826694201
H         22.5138696117       23.4944170878        9.8468274819
H         21.1149731937       27.0054710876        7.7639916293
H         21.7647085191       28.0651710504        9.6521139186
H         23.2834240223       27.3583737775       10.2994212205
H         22.6221736504       27.9620399733       12.4366395911
H         19.3522558662       27.7549743434       12.6079202606
H         18.6397196342       30.1967614732       11.1209608287
H         17.7114321910       29.8368578720       14.0033894220
H         16.8433508177       28.0616377137       12.3761582970
H         16.3502070805       29.2804387849       11.2202786943
H         16.5714247761       31.7254198714       13.6338893474
H         19.9782526134       30.7580485779       13.9652265057
H         19.5338708822       31.8642866703       12.6670204057
H         17.6057449623       29.3213956446        8.8931025257
H         17.6157928910       25.9308381257       11.5686463623
H         19.5951064785       34.1992783622       15.5234689724
H         20.7874281139       32.9181243132       15.3035254389
H         18.1878702518       27.8213338029        6.9960454011
H         18.1989384578       24.4383456293        9.6730478895
H         20.9062482316       33.4561257786       12.8793217856
H         18.4724356234       25.3754688869        7.3823143221
H         19.8142017723       32.2844699967       18.2992016614
H         16.5171230661       34.3410390828       16.3983255031
H         22.3471026053       34.7277423829       14.4573385624
H         21.8864917770       35.7228317526       13.0650264669
H         21.0876171691       35.9686806463       14.6316173501
H         18.7579539497       35.5906887460       13.4773534331
H         19.6308887669       35.4083931069       11.9411209539
H         18.5165585271       34.1427514967       12.4799407696
H         19.9946801814       34.1225790829       19.9583872420
H         16.7086353433       36.1727596629       18.0652820630
H         17.8434396226       37.0863227939       20.0064818564
H         19.1740156385       36.2561006517       20.7728928834
    80
VM2 Rank=14     G=208.696           E=119.247           -TS=89.449              
C         21.5777050035       25.4287167466        5.9024786278
C         22.4588283255       24.8314934977        6.8176685389
C         20.8051469241       26.5478869796        6.2787119576
C         22.5728303249       25.3402946741        8.1203369780
C         19.8232494467       27.1984213482        5.2969462306
C         20.9284738845       27.0474095423        7.5921892975
C         21.8044965528       26.4491159093        8.5172095603
F         18.5644983410       26.7431205874        5.4807230813
F         19.7717680923       28.5428193778        5.4339787239
F         20.1348384877       26.9650989399        4.0016525804
N         21.9091402224       26.9622427238        9.8387436100
C         22.0711442337       28.3890637801       10.0916832892
C         21.8858780610       26.2258892862       11.0078091513
C         22.0860517241       28.4856178888       11.6271304103
O         22.0139070620       27.0980402491       12.0476828957
O         21.7757382150       25.0170734118       11.1186605960
C         20.9175309786       29.3338829408       12.1668570862
O         20.7459827842       30.4949568670       11.8374114510
N         20.0378265499       28.6790401763       13.0016942621
C         18.6587498979       29.1295280495       13.2507205961
C         18.5067800662       29.7583673508       14.6656829132
C         17.6978399209       27.9364920779       13.0195531470
O         17.1422481715       30.1160807961       14.8923321999
C         19.4044462880       31.0149001473       14.8383099552
C         17.8614961389       27.2975642116       11.6450673674
N         19.5335715334       31.5085558405       16.2385985556
C         17.4232984700       27.9754019466       10.4926292330
C         18.4513691979       26.0265645729       11.5154803851
S         18.3220690728       32.5374270407       16.8689430070
C         20.1246113429       30.5643442210       17.2219904851
C         17.5642782199       27.3856538415        9.2250857719
C         18.5918729222       25.4355686832       10.2489276456
O         17.1821160017       31.6778491180       17.2147695339
C         17.9223805322       33.6543369209       15.5025374283
O         19.0173786880       33.3527870285       17.8725197712
C         21.4764976332       29.9306511290       16.7976435544
C         18.1435134165       26.1124672061        9.1041215307
C         18.8227746795       34.6751545907       15.1388667332
C         16.7218335998       33.5011890796       14.7808409002
C         22.5566328924       31.0072197344       16.5458969231
C         21.9622204720       28.9459304304       17.8817326870
C         18.5235143192       35.5327249450       14.0666913510
C         16.4277261219       34.3609234067       13.7089814003
C         17.3266967534       35.3771719636       13.3506844074
N         17.0350484336       36.2209607408       12.2958241889
H         21.4955740953       25.0151819053        4.8999799195
H         23.0516395298       23.9705140814        6.5180876625
H         23.2572003976       24.8686282034        8.8211247905
H         20.3215848415       27.8950869382        7.8995476504
H         21.2349676511       28.9600699805        9.6680971448
H         23.0181612711       28.7464571432        9.6680460338
H         23.0200928695       28.9421552504       11.9768424238
H         20.2677008492       27.7131710983       13.2004652136
H         18.4030841876       29.9065366045       12.5162930515
H         18.8138014125       28.9963429066       15.3936719984
H         17.8529453231       27.1890195603       13.8077037993
H         16.6605804290       28.2771436798       13.1302799704
H         17.0652091957       30.4133876619       15.8295050387
H         20.4067500712       30.7796111428       14.4663769456
H         19.0345392981       31.8018595009       14.1702965741
H         16.9699139930       28.9590937839       10.5811581466
H         18.8014343183       25.4940129762       12.3956730288
H         20.2906093972       31.0935764907       18.1705934429
H         19.4050969704       29.7628440616       17.4365066989
H         17.2204708974       27.9125237869        8.3385146618
H         19.0504518840       24.4541267832       10.1556274462
H         21.3340032662       29.3520048446       15.8747971208
H         18.2490043979       25.6522374616        8.1251292106
H         19.7547542275       34.7996132900       15.6853572320
H         16.0198180947       32.7142586237       15.0459206917
H         22.7334568272       31.6060434202       17.4485187574
H         23.5080509855       30.5457433695       16.2524981932
H         22.2581442966       31.6913475749       15.7418624600
H         21.2221757232       28.1532804154       18.0514840001
H         22.9020124126       28.4653000801       17.5808325165
H         22.1350538913       29.4599883714       18.8361495415
H         19.2227771371       36.3173618471       13.7909749056
H         15.5011767932       34.2359707933       13.1553641970
H         16.1736505331       36.1134710857       11.7716849135
H         17.6805588175       36.9560921018       12.0289898427
    80
VM2 Rank=15     G=208.704           E=120.276           -TS=88.428              
C         22.0808214122       23.8555329756        6.5066637885
C         22.3748798843       23.2115639742        7.7188940786
C         21.6551000509       25.2006902707        6.4953936240
C         22.2400502652       23.9011193849        8.9334478420
C         21.3101001088       25.9088522998        5.1798295139
C         21.5219238659       25.8809191273        7.7241013308
C         21.8083083885       25.2392649460        8.9435817752
F         21.6383225305       27.2206981912        5.1967457082
F         21.9453198355       25.3773499686        4.1105885718
F         19.9866633635       25.8453668953        4.9153364559
N         21.6598369677       25.9388118866       10.1718865647
C         22.2136734392       27.2744073878       10.3603441333
C         21.0149976004       25.4782429218       11.3037957967
C         21.7646821588       27.6553414398       11.7817448811
O         21.0951864758       26.4555273801       12.2508763453
O         20.4687449903       24.3994410325       11.4568384681
C         20.8451648158       28.8927844951       11.7852172410
O         21.2075590360       29.9766383033       11.3607917789
N         19.5598407841       28.6830260210       12.2360767885
C         18.4226059634       29.5525068157       11.8953939584
C         18.0411789952       30.4913633642       13.0744930820
C         17.2364059497       28.6696239708       11.4353962417
O         16.9347820657       31.3205463080       12.7088310193
C         19.2287873731       31.3933794766       13.5046281434
C         17.6004586957       27.7371783309       10.2857076118
N         18.8887995628       32.4292033086       14.5135415484
C         17.7418359081       26.3546433890       10.5065538456
C         17.7986838674       28.2528875169        8.9917480176
S         18.0411175985       31.9217345840       15.9165094052
C         19.9063778835       33.5023153683       14.6123913228
C         18.0678200420       25.4962471528        9.4435147172
C         18.1253874415       27.3952422694        7.9277518038
O         16.6284277787       31.9341965769       15.5153330430
C         18.2958272674       33.1955308388       17.1815672992
O         18.7275098379       30.7032078335       16.3618330006
C         19.2974393910       34.9116055496       14.4100837254
C         18.2543766702       26.0154562758        8.1530041207
C         19.4360611233       33.1583987392       18.0097460610
C         17.3435274134       34.2184123065       17.3662410025
C         18.7802632699       35.0949625369       12.9659322396
C         20.3383729081       35.9990292954       14.7463412927
C         19.6334271858       34.1475153794       18.9879097050
C         17.5455837964       35.2053181554       18.3457970859
C         18.6911947579       35.1735187319       19.1551749230
N         18.8885712795       36.1463970240       20.1164210979
H         22.1817937172       23.3028959314        5.5754304010
H         22.7040187982       22.1751657569        7.7174506897
H         22.4684254098       23.3919389384        9.8664684554
H         21.1722043255       26.9099979277        7.7295592352
H         21.8114361423       27.9751808060        9.6175364412
H         23.3083768398       27.2462518958       10.2905421315
H         22.6321234319       27.8812189843       12.4139232994
H         19.3624934950       27.7445330485       12.5609660550
H         18.7098868850       30.1895525357       11.0467545721
H         17.7566901355       29.8558071032       13.9242232069
H         16.8616608909       28.0920886073       12.2898423149
H         16.4047332269       29.3131877584       11.1215500138
H         16.6495682062       31.7739203645       13.5367567943
H         20.0314548279       30.7561561223       13.8982711744
H         19.6166244081       31.8778226026       12.5985700472
H         17.5988243505       25.9424687156       11.5018287016
H         17.6955342297       29.3195536076        8.8110434630
H         20.4282709406       33.4498408960       15.5754892380
H         20.6810199792       33.3656210250       13.8453508580
H         18.1779359628       24.4292682744        9.6214619337
H         18.2737510470       27.7988547883        6.9292924663
H         18.4475004179       35.0428823600       15.0894748439
H         18.5027525774       25.3495909435        7.3306103616
H         20.1717645310       32.3664903078       17.8903699249
H         16.4519002664       34.2540185251       16.7447208476
H         18.0035170214       34.3563253990       12.7284173704
H         18.3429552354       36.0922577477       12.8304166876
H         19.5920689878       34.9777236909       12.2367978382
H         19.9096779922       37.0019015140       14.6235015419
H         20.6766478278       35.9072914655       15.7868247108
H         21.2173219584       35.9228245963       14.0932625540
H         20.5187964471       34.1162393381       19.6170431776
H         16.8111402531       35.9954123206       18.4761240538
H         19.7130503021       36.1294276454       20.7065228382
H         18.2115983860       36.8904100827       20.2445772005
    80
VM2 Rank=16     G=208.720           E=120.132           -TS=88.588              
C         21.6687063500       25.0279157696        5.4810301659
C         21.1182193752       26.3108616568        5.6229108979
C         22.1068634267       24.3080856257        6.6125290652
C         21.0018796867       26.8903129761        6.8950977055
C         22.7216951067       22.9105843970        6.4677263204
C         21.9912345444       24.9065225995        7.8853892569
C         21.4336423437       26.1906857099        8.0371401108
F         24.0710434705       22.9650394367        6.4213320727
F         22.4029808932       22.0944825105        7.4979314779
F         22.3217572745       22.2696702307        5.3456830152
N         21.3185383894       26.7789982600        9.3283016413
C         21.6619874429       28.1769720409        9.5628503416
C         20.9113720736       26.1448907259       10.4876239803
C         21.4689271333       28.3508631994       11.0791533268
O         20.9763663094       27.0530140596       11.5020366235
O         20.5548484810       24.9857268050       10.6108011854
C         20.5062869531       29.5037559734       11.4235006214
O         20.7197522328       30.6568171559       11.0900245584
N         19.3452809582       29.1378525460       12.0690329766
C         18.0996604506       29.9173880574       11.9957541761
C         17.8183276369       30.6845100874       13.3175500316
C         16.9400002333       28.9732575046       11.5937020625
O         16.6106284964       31.4399004056       13.1988573546
C         18.9830925027       31.6437183485       13.6825971802
C         17.2386033828       28.1825264788       10.3247866861
N         18.7342092744       32.5428865739       14.8466496166
C         17.4616056095       26.7943746416       10.3857215817
C         17.3121091233       28.8391835045        9.0826802413
S         18.1617602074       31.7706191313       16.2688811884
C         19.7753551151       33.5930107391       15.0302625031
C         17.7483714783       26.0701424140        9.2167450532
C         17.6022406174       28.1163212270        7.9135510181
O         16.7183299671       31.6184118914       16.0432816525
C         18.3661393812       32.9729212628       17.6077779158
O         19.0512434039       30.6265459891       16.5020993581
C         20.0351334774       34.5029326300       13.7993547751
C         17.8178349483       26.7306232814        7.9802666888
C         19.4805330163       32.9011242797       18.4675469899
C         17.4203286647       34.0023035986       17.7855631745
C         18.7348365311       35.1748945244       13.3013787456
C         21.0776503881       35.5840117287       14.1555261753
C         19.6440171515       33.8486436927       19.4922794404
C         17.5888623336       34.9472477642       18.8117784280
C         18.6997405295       34.8720849492       19.6658593882
N         18.8640036338       35.8033636154       20.6734532306
H         21.7556218643       24.5962285668        4.4866149053
H         20.7805700102       26.8570869992        4.7453941085
H         20.5649250061       27.8805907385        6.9882258255
H         22.3405235953       24.3674054190        8.7627042213
H         20.9850023301       28.8372508601        9.0052512453
H         22.7013089100       28.3752566303        9.2720367681
H         22.4308648338       28.5619166608       11.5622002655
H         19.2729620092       28.1529474194       12.2936567605
H         18.2037323698       30.6676084170       11.1989867129
H         17.7094588106       29.9382547150       14.1163766511
H         16.7236396372       28.2911746645       12.4255539495
H         16.0268087594       29.5629835577       11.4429778470
H         16.4006117788       31.7528861847       14.1103528512
H         19.8804053950       31.0426355833       13.8799041474
H         19.1848435871       32.2320114358       12.7813057079
H         17.4165926693       26.2747261798       11.3390357312
H         17.1464547387       29.9116609813        9.0247688004
H         19.4874011212       34.2694573580       15.8432593995
H         20.7210907190       33.1191517746       15.3274449855
H         17.9242090984       24.9985476389        9.2711206157
H         17.6585980468       28.6294933983        6.9569491953
H         20.4606704172       33.9038954168       12.9829151108
H         18.0435292953       26.1700886647        7.0764865326
H         20.2205451673       32.1146029982       18.3398800403
H         16.5586974830       34.0716343123       17.1256247966
H         17.9974410792       34.4271530536       12.9821827611
H         18.2775322905       35.7835632495       14.0918360888
H         18.9360002712       35.8278563247       12.4426886791
H         20.7152545085       36.2359778147       14.9610144736
H         22.0192721901       35.1267789229       14.4858196416
H         21.3006401919       36.2139945317       13.2848028873
H         20.5059126841       33.7883909833       20.1512562338
H         16.8564929537       35.7392416058       18.9425031427
H         19.6633099279       35.7553530158       21.2957520059
H         18.1856082950       36.5453428790       20.8064655315
    80
VM2 Rank=17     G=208.767           E=120.096           -TS=88.670              
C         22.4544265772       25.4652510718        5.3212072012
C         22.8605567893       26.8003814405        5.4677627326
C         21.8174438941       24.7918543048        6.3842480246
C         22.6363025529       27.4772616839        6.6762716476
C         21.3761619351       23.3300746275        6.2427616102
C         21.6080302243       25.4819590964        7.5966326974
C         22.0065233777       26.8235760137        7.7523753329
F         21.1673137950       22.9621004259        4.9581038946
F         22.3006586298       22.4811888331        6.7428745546
F         20.2206002057       23.0745470514        6.8975550117
N         21.7709394502       27.5109788758        8.9785310645
C         21.2902725404       28.8891010151        9.0036583114
C         21.9167745391       26.9961502774       10.2547530545
C         21.3015726639       29.2477787938       10.4988398739
O         21.5806007659       27.9772387404       11.1395611466
O         22.2768524969       25.8729380509       10.5627932677
C         19.9949497914       29.9054702862       10.9799259496
O         19.5037698496       30.8729765633       10.4240387907
N         19.3824776350       29.2931681791       12.0512090124
C         17.9464934498       29.4245069078       12.3473850078
C         17.7108187666       30.1721881188       13.6894189127
C         17.3010015554       28.0167576601       12.3087577804
O         16.3174341079       30.1813018084       14.0067330316
C         18.2328410247       31.6348478254       13.6257358030
C         17.6422012738       27.2451929973       11.0380194761
N         18.4481214174       32.2818976855       14.9484976706
C         18.4006750989       26.0619245184       11.1067391648
C         17.2219943329       27.7231719420        9.7829300195
S         17.0807273546       32.9876250675       15.6911791962
C         19.4405859740       31.6372806381       15.8512357892
C         18.7262227946       25.3591259402        9.9352374575
C         17.5550106731       27.0262026018        8.6097483741
O         16.5410816356       33.9049476605       14.6802037387
C         17.7840781569       34.0364589789       16.9854302610
O         16.2820220942       31.8864695839       16.2455702729
C         20.8240911379       31.3567130542       15.2075616436
C         18.3039344648       25.8414832476        8.6859536655
C         18.4979436458       35.2010430815       16.6411574442
C         17.6453826046       33.6839537106       18.3424363808
C         21.4945375098       32.6590464507       14.7141956927
C         21.7446761038       30.6462505276       16.2216469279
C         19.0636942123       36.0051289259       17.6450575996
C         18.2126953498       34.4919025891       19.3425315183
C         18.9218026304       35.6523941501       18.9959664331
N         19.4797049169       36.4441889972       19.9815675594
H         22.6399057653       24.9553338938        4.3786507250
H         23.3520307542       27.3115836457        4.6433392937
H         22.9647211159       28.5081898097        6.7715994972
H         21.1296637227       24.9664735491        8.4240878313
H         21.9510204929       29.5605686288        8.4428118913
H         20.2727425984       28.9352547829        8.5925698039
H         22.1205049277       29.9475589946       10.7062749656
H         19.8704536819       28.4849361109       12.4179199174
H         17.4743586953       30.0229843907       11.5557230423
H         18.2614609483       29.6229967769       14.4635895365
H         17.6192575697       27.4515287288       13.1936928222
H         16.2108678809       28.1138746120       12.3887712251
H         16.2223127766       30.5924833850       14.8989553871
H         19.1768407448       31.6521795974       13.0707116566
H         17.5326789340       32.2283691544       13.0229160655
H         18.7381666622       25.6844789000       12.0682215529
H         16.6411970062       28.6392027982        9.7167517532
H         19.6193711877       32.2746898110       16.7262096470
H         19.0272868483       30.6953347419       16.2358373758
H         19.3056430477       24.4414967207        9.9975777991
H         17.2288168521       27.4018733985        7.6432387386
H         20.6986879998       30.6784408848       14.3529272027
H         18.5538973668       25.2978202228        7.7785747297
H         18.6165682829       35.4779669377       15.5961654110
H         17.1013678070       32.7845200725       18.6211316877
H         22.4750254892       32.4493777782       14.2682257826
H         20.8835780806       33.1577442568       13.9515161643
H         21.6417488287       33.3646317372       15.5420065777
H         21.9226385115       31.2742795048       17.1042758915
H         21.2999950680       29.7015991060       16.5602488614
H         22.7175750269       30.4132648414       15.7700683926
H         19.6139076603       36.9017622261       17.3730721396
H         18.1026599278       34.2152356858       20.3875593937
H         19.3809665118       36.1969714381       20.9601265824
H         19.9928918240       37.2847797731       19.7397336805
    80
VM2 Rank=18     G=208.771           E=119.710           -TS=89.061              
C         20.2083854749       24.8296069786        5.6405270580
C         20.2745027016       26.2275751265        5.7426240809
C         20.4734848919       24.0168942156        6.7628288523
C         20.6084467509       26.8293534752        6.9649910263
C         20.4173096543       22.4877704675        6.6592670572
C         20.8161419296       24.6355792008        7.9841042339
C         20.8777533115       26.0379842192        8.0969828887
F         19.9480036087       21.9085777871        7.7876365317
F         19.6196602999       22.0537074742        5.6567478030
F         21.6411720241       21.9608231543        6.4349114561
N         21.2209849827       26.6465163817        9.3375008484
C         22.1483304677       27.7697720286        9.4069227542
C         20.7703267492       26.2709473882       10.5892140611
C         22.2503870373       28.0695221356       10.9144354606
O         21.3761931925       27.0749353111       11.5071495034
O         19.9778394953       25.3829043498       10.8527982660
C         21.8295080220       29.5080635126       11.2788110933
O         22.1089606261       30.4738357234       10.5878109209
N         21.0633824715       29.6288976775       12.4179474665
C         20.1941533643       30.7779288572       12.7065544852
C         20.4189353991       31.2597183990       14.1674902174
C         18.7174298944       30.4159911251       12.3903144828
O         20.0646644889       30.2216171580       15.0862925022
C         19.6317799739       32.5600898418       14.4810471969
C         18.5239393445       29.8442117885       10.9904156356
N         20.0055506757       33.2278040851       15.7602596701
C         18.7035931016       30.6605766484        9.8588612479
C         18.1722784351       28.4926120305       10.8170269925
S         19.3027846852       32.6733058764       17.2185815503
C         21.4128614754       33.6869213773       15.8854269736
C         18.5313848675       30.1327293357        8.5683429306
C         17.9956121897       27.9646625458        9.5273632565
O         20.0359896062       31.4585773848       17.5988670288
C         17.5868455522       32.3003899936       16.7798973472
O         19.2575787948       33.8612911274       18.0799361325
C         21.9157030821       34.5887979952       14.7275184619
C         18.1728440086       28.7854672937        8.4026386455
C         16.6708783147       33.3483179920       16.5609244822
C         17.1609385912       30.9659736121       16.6256563690
C         21.0588902534       35.8678295884       14.5896216413
C         23.3926975217       34.9710759718       14.9587866271
C         15.3452388808       33.0630205054       16.1924294964
C         15.8347282963       30.6861527871       16.2553498263
C         14.9256140194       31.7328423259       16.0384432558
N         13.6223114917       31.4548277466       15.6727421815
H         19.9529063238       24.3802146991        4.6836746351
H         20.0669690953       26.8460059444        4.8726149531
H         20.6494742975       27.9131409830        7.0276887486
H         21.0386546789       24.0183710238        8.8512359753
H         21.7476132977       28.6322552013        8.8590199638
H         23.1255720182       27.4879490916        8.9952571150
H         23.2787537001       27.9231229641       11.2665054350
H         20.8934087269       28.7756351315       12.9366961707
H         20.4833479392       31.6055525014       12.0440628252
H         21.4914533772       31.4749217989       14.2619063762
H         18.3531363589       29.6993755933       13.1374954543
H         18.0870816108       31.3064672202       12.4964599852
H         20.3312915118       30.5187575158       15.9875130706
H         19.7962390966       33.2599500179       13.6531479749
H         18.5591581885       32.3380168293       14.4615215395
H         18.9830027151       31.7035777945        9.9801378282
H         18.0393235973       27.8481343175       11.6820147137
H         21.5205320949       34.2576911582       16.8183070552
H         22.0758943904       32.8162324480       15.9775304826
H         18.6735309765       30.7684150453        7.6981169341
H         17.7261299727       26.9189372392        9.4005551743
H         21.8690699069       34.0292639194       13.7834479569
H         18.0351684762       28.3770945712        7.4046380968
H         16.9894117771       34.3822897705       16.6712618695
H         17.8574820842       30.1464427303       16.7851670057
H         20.0112914820       35.6246112265       14.3729731229
H         21.0825033941       36.4591256357       15.5140003538
H         21.4284333238       36.5002399797       13.7724062407
H         23.7724978112       35.5836926327       14.1309906211
H         23.5137842711       35.5439901122       15.8873271986
H         24.0236083099       34.0754677074       15.0271165572
H         14.6444224776       33.8760609087       16.0236950555
H         15.5140992898       29.6550204806       16.1347837245
H         13.3119738516       30.4964761015       15.5568427948
H         12.9597977094       32.2055106747       15.5122077903
    80
VM2 Rank=19     G=208.774           E=119.996           -TS=88.778              
C         22.3909403402       26.3244245043        5.4561117253
C         23.2461961135       27.2340927968        6.0967002842
C         21.3423682722       25.7069900288        6.1699847515
C         23.0601823386       27.5427971220        7.4528748224
C         20.3869974740       24.7164337292        5.4939147332
C         21.1666793004       26.0286508321        7.5317263666
C         22.0152659403       26.9446569324        8.1823382419
F         20.8129670184       24.2992413857        4.2798238618
F         20.2059444629       23.5999544743        6.2344931848
F         19.1630441368       25.2581980423        5.3079282956
N         21.8128742264       27.2691065932        9.5551956597
C         21.9112826240       28.6426825001       10.0391128833
C         21.4725342707       26.3912744850       10.5692457312
C         21.7273190608       28.5045621549       11.5595543201
O         21.3607106332       27.1108535046       11.7216575800
O         21.2962721335       25.1884700513       10.4782976397
C         20.6900867187       29.4836590891       12.1403359353
O         20.7312045792       30.6840327772       11.9312807248
N         19.6740724634       28.9073451438       12.8705461779
C         18.3660625616       29.5474363578       13.0845110496
C         18.1693551745       29.9604263009       14.5699144500
C         17.2584147199       28.5989578684       12.5625750857
O         16.8556012459       30.4892497777       14.7578837936
C         19.2200434066       31.0173392667       15.0094936403
C         17.5137518693       28.1265593104       11.1353556171
N         19.3142178076       31.2347673654       16.4808089215
C         17.7867077613       26.7714769934       10.8720095389
C         17.5009741165       29.0472856144       10.0714375945
S         18.2064545357       32.3009959014       17.2288471488
C         19.6982456204       30.0568254617       17.3013124377
C         18.0330417512       26.3400692102        9.5583630098
C         17.7552759183       28.6184542686        8.7582467491
O         16.9334702666       31.5757541805       17.3368007146
C         18.0835708426       33.6970355747       16.0843017895
O         18.9196597943       32.8042223672       18.4093594268
C         20.9756515929       29.3120717922       16.8293120774
C         18.0171111377       27.2636739935        8.5006677745
C         16.9367944085       33.8669154178       15.2832815445
C         19.1471569443       34.6143405027       15.9732515563
C         22.2099480239       30.2424193059       16.8270345394
C         21.2419037082       28.0921796334       17.7358521774
C         16.8572962797       34.9431218631       14.3832832698
C         19.0623038396       35.6892849355       15.0722348334
C         17.9183980706       35.8552424388       14.2765115725
N         17.8376464952       36.9124681507       13.3902267679
H         22.5483714418       26.1030696776        4.4031104077
H         24.0547645004       27.7023708735        5.5403812156
H         23.7366099997       28.2452059022        7.9313022126
H         20.3581142422       25.5601098287        8.0848879733
H         21.1115886772       29.2515273926        9.5961173907
H         22.8881645451       29.0843562494        9.8094636750
H         22.6810680773       28.6923296694       12.0679325259
H         19.7300923860       27.9001620913       12.9613813981
H         18.3197467857       30.4664516782       12.4833774842
H         18.2928509210       29.0545280196       15.1772998424
H         17.1718911166       27.7393327938       13.2389135164
H         16.2897054290       29.1130186705       12.6025564434
H         16.7310271410       30.6322310137       15.7258377511
H         20.2036655304       30.7036043780       14.6442879402
H         19.0114441841       31.9554928807       14.4814971712
H         17.8075003392       26.0504698916       11.6847507837
H         17.2976233736       30.0972851770       10.2639412894
H         19.8688917643       30.3825453820       18.3368002313
H         18.8613989091       29.3464281061       17.3344638286
H         18.2364618935       25.2902703910        9.3626099607
H         17.7446999734       29.3349992254        7.9408436654
H         20.8198035898       28.9308703605       15.8109328491
H         18.2048987054       26.9313347619        7.4829727264
H         16.1103131182       33.1638321969       15.3535682174
H         20.0392711433       34.4903314773       16.5827554466
H         22.0669422255       31.0931376009       16.1492465610
H         22.4040857634       30.6412912437       17.8309222192
H         23.1063251467       29.7023433848       16.4967899390
H         22.1247933527       27.5364977020       17.3945678419
H         21.4163535571       28.4003771439       18.7748986792
H         20.3888244236       27.4015971156       17.7245707841
H         15.9709695219       35.0671551027       13.7671247766
H         19.8865580959       36.3926099236       14.9910514313
H         17.0154858568       37.0381545646       12.8100773893
H         18.6009281188       37.5747143067       13.3055726892
    80
VM2 Rank=20     G=208.776           E=119.661           -TS=89.115              
C         20.2498185837       24.9481424172        5.5658997055
C         20.4147911778       26.3340674930        5.7111513094
C         20.4027894532       24.0892425121        6.6745240318
C         20.7271166303       26.8783240151        6.9657784375
C         20.2165162007       22.5740952829        6.5270193022
C         20.7094987643       24.6511925314        7.9322927829
C         20.8693577653       26.0416566632        8.0882554792
F         21.0333636819       21.8688141292        7.3423522920
F         18.9534909802       22.1974542883        6.8246084881
F         20.4670916980       22.1310365975        5.2737951905
N         21.1797766148       26.5925983821        9.3638347815
C         22.1821750319       27.6400643754        9.5202410144
C         20.6260783833       26.2227833456       10.5752933196
C         22.2121333803       27.8963194809       11.0388958068
O         21.2320492043       26.9567105479       11.5500903768
O         19.7552147923       25.3912187775       10.7659061493
C         21.8762005169       29.3535855114       11.4168571472
O         22.2680253179       30.3113481195       10.7707452966
N         21.0519596053       29.5052863584       12.5108379019
C         20.2534552537       30.7094439275       12.7783024925
C         20.4248731270       31.1414969389       14.2618306419
C         18.7759115513       30.4658366895       12.3670359644
O         19.9401256129       30.1136757384       15.1312781905
C         19.7184916940       32.4904263951       14.5623214867
C         18.6257215020       29.9409421898       10.9436384956
N         20.0647573074       33.1017296161       15.8769884283
C         18.9335247255       30.7658696459        9.8464097444
C         18.1861099736       28.6238364383       10.7144437290
S         19.2388386046       32.5712391845       17.2785731034
C         21.4922948616       33.4514136945       16.0935043717
C         18.8011773464       30.2807665417        8.5345864201
C         18.0492505702       28.1389565001        9.4032059920
O         19.8559305770       31.2965015906       17.6684617900
C         17.5283434668       32.3394297379       16.7341744989
O         19.2322779638       33.7405671617       18.1662223136
C         22.1274217660       34.3362726995       14.9886761919
C         18.3545530589       28.9683455171        8.3127815585
C         17.0136367597       31.0448995513       16.5217734082
C         16.7075965946       33.4584693244       16.4908168564
C         21.3769080491       35.6785689564       14.8336231297
C         23.6124697433       34.6017979743       15.3131263716
C         15.6940344462       30.8748012004       16.0701262813
C         15.3880619313       33.2828292928       16.0408451752
C         14.8798779478       31.9920404398       15.8292296554
N         13.5829077828       31.8219022251       15.3836448955
H         20.0018632064       24.5439384512        4.5871436644
H         20.2974991609       26.9880826693        4.8503683275
H         20.8446145226       27.9540603513        7.0617195829
H         20.8236072711       23.9993243472        8.7950435166
H         21.8819948729       28.5429496531        8.9731348160
H         23.1594155778       27.2940919180        9.1607998848
H         23.2030965322       27.6651278834       11.4481245762
H         20.7879756390       28.6554719522       12.9947421320
H         20.6417305771       31.5273528216       12.1556084816
H         21.5027358774       31.2732160581       14.4242213756
H         18.3158596048       29.7621891178       13.0725549524
H         18.2072539939       31.3983656883       12.4596746859
H         20.1738308147       30.3703452303       16.0538281415
H         19.9822703814       33.1929585399       13.7628627456
H         18.6354273153       32.3497093338       14.4761804577
H         19.2815182933       31.7819227588       10.0112252212
H         17.9536881905       27.9725187408       11.5528914548
H         21.5867577727       33.9935096074       17.0447353683
H         22.0828044603       32.5317735286       16.2019220945
H         19.0424370098       30.9227120052        7.6912039672
H         17.7112766505       27.1195576629        9.2333565714
H         22.0951416111       33.8010714670       14.0300091111
H         18.2477260594       28.5933491576        7.2980435530
H         17.6365225972       30.1715247039       16.6992008432
H         17.0955425309       34.4626059217       16.6455560515
H         20.3287389235       35.5191580871       14.5516944022
H         21.3898119631       36.2475829078       15.7720909659
H         21.8394369044       36.2978602564       14.0545897275
H         24.1704641849       33.6601428254       15.3953545817
H         24.0843954704       35.2007591660       14.5236152115
H         23.7207758986       35.1451264799       16.2608306641
H         15.3047895778       29.8738756095       15.9051751225
H         14.7609937907       34.1502675629       15.8537957902
H         12.9881464423       32.6240281140       15.2073614823
H         13.2083897587       30.8925848600       15.2278055874
    80
VM2 Rank=21     G=208.816           E=120.869           -TS=87.946              
C         21.4306850894       23.2454354004        6.1969382104
C         21.1482779538       22.5383285290        7.3759837029
C         21.6310514327       24.6416477154        6.2303779198
C         21.0651961678       23.2167116457        8.6012890889
C         21.9475230249       25.4254204391        4.9507090423
C         21.5548517266       25.3092487890        7.4711206599
C         21.2655670132       24.6078314258        8.6572543752
F         23.2764886030       25.6200406885        4.8041439297
F         21.5210116379       24.8029201641        3.8282424310
F         21.3734577827       26.6498989665        4.9405426019
N         21.1886429898       25.2967722294        9.8996219829
C         22.1923101334       26.2795127339       10.2905932305
C         20.2229453921       25.1271601280       10.8736395322
C         21.7109439780       26.7649028934       11.6709670308
O         20.5387205512       25.9455617510       11.9163332393
O         19.2573842993       24.3839584924       10.8353618671
C         21.3832185277       28.2722157548       11.7011992907
O         22.0552138984       29.1066554805       11.1177530062
N         20.2426836095       28.6153688740       12.3941786033
C         19.5187629659       29.8819761852       12.2163266469
C         19.2482505137       30.5331941995       13.6022583686
C         18.2403999110       29.6403328729       11.3693752859
O         18.3861872313       29.7085646186       14.3941510407
C         18.6564301139       31.9638455442       13.4960390069
C         18.5124527231       28.9040300873       10.0620903050
N         18.3293185097       32.5913624305       14.8020688327
C         19.2293616242       29.5335151709        9.0280236116
C         18.0504142363       27.5874736451        9.8783677817
S         19.5089363655       32.5380809808       16.0471084002
C         17.4185256441       33.7549021231       14.6881894580
C         19.4757559148       28.8573399269        7.8213201504
C         18.2928594134       26.9116403534        8.6710393874
O         19.3098315827       31.2312828826       16.6870258185
C         19.0822730543       33.8395654913       17.2354095426
O         20.7680753550       32.9208795416       15.3970443213
C         16.1248568841       33.5690166826       15.5184245950
C         19.0014654495       27.5484642288        7.6404041697
C         18.3191553784       33.5373354418       18.3814298400
C         19.5315360482       35.1608458670       17.0358260726
C         15.3191705471       34.8837086506       15.5577942724
C         15.2546011873       32.4254662571       14.9510210817
C         17.9874397993       34.5491552647       19.2982195989
C         19.1973783845       36.1690127539       17.9556605543
C         18.4227550090       35.8658873670       19.0855100720
N         18.0936323419       36.8595293316       19.9876220399
H         21.4949241565       22.7024862308        5.2567947267
H         20.9949153692       21.4623592114        7.3404378657
H         20.8488680823       22.6566538042        9.5076056280
H         21.7119740554       26.3839869212        7.5078542346
H         22.2278828539       27.1054454915        9.5689805595
H         23.1801108714       25.8076066931       10.3646075054
H         22.4732914641       26.5736884498       12.4359363403
H         19.7537797013       27.8580598792       12.8561699434
H         20.1623999859       30.5738080740       11.6554695376
H         20.2246348792       30.6077009935       14.1003680849
H         17.5124455311       29.0782929543       11.9681960449
H         17.7627961756       30.5987616826       11.1371746707
H         18.4313911297       30.0708062548       15.3096321604
H         19.3692491738       32.5987741075       12.9532283247
H         17.7413035189       31.9096613298       12.8946182929
H         19.5978841325       30.5469712007        9.1612727826
H         17.5036354204       27.0853146861       10.6721468574
H         17.9310295335       34.6763466670       14.9895583177
H         17.1216585474       33.9074656916       13.6415952871
H         20.0295709525       29.3492929961        7.0257088724
H         17.9332420119       25.8943827882        8.5363388055
H         16.3893585510       33.3089882179       16.5500697418
H         19.1840525077       27.0278120074        6.7041305685
H         17.9757808982       32.5205588008       18.5570100644
H         20.1337745604       35.4067916920       16.1643663269
H         15.9126589757       35.6921706483       16.0046095637
H         15.0202577971       35.1966209427       14.5490361734
H         14.4095734303       34.7668925434       16.1607956758
H         14.3430777910       32.2945540393       15.5478411855
H         14.9558861925       32.6314812746       13.9153402147
H         15.7988847571       31.4720636864       14.9629599315
H         17.3917754825       34.3097129284       20.1748566109
H         19.5411801366       37.1864962649       17.7907327917
H         17.5338981526       36.6486826947       20.8064779539
H         18.4043810668       37.8135900220       19.8410147766
    80
VM2 Rank=22     G=208.822           E=120.344           -TS=88.478              
C         21.4300039152       23.2832318895        6.2323079917
C         21.1349626845       22.5681185704        7.4033970521
C         21.6369910272       24.6781136873        6.2785626835
C         21.0456280579       23.2370715514        8.6334350142
C         21.9671721097       25.4706814958        5.0078107755
C         21.5544270783       25.3361164551        7.5240155157
C         21.2523365588       24.6267007044        8.7021791961
F         21.3969657280       26.6969900563        5.0021842425
F         23.2979696878       25.6622727729        4.8744711292
F         21.5486918233       24.8582722046        3.8768013096
N         21.1689990158       25.3060407898        9.9494381442
C         22.1734908745       26.2818151832       10.3554740911
C         20.1956241146       25.1323734341       10.9150819234
C         21.6862128964       26.7550876584       11.7379461972
O         20.5072929963       25.9406187860       11.9668824106
O         19.2271374484       24.3937921059       10.8635886667
C         21.3683533100       28.2641037197       11.7828091729
O         22.0518291458       29.1006978169       11.2160410779
N         20.2231416699       28.6068582206       12.4682255087
C         19.5095804205       29.8803668700       12.2980692794
C         19.2341538435       30.5190852590       13.6892021271
C         18.2366079815       29.6562516158       11.4379056785
O         18.3559242850       29.6952419905       14.4627327077
C         18.6570997733       31.9570666913       13.5938204155
C         18.5142886828       28.9288600589       10.1268338684
N         18.3241970960       32.5958200656       14.9008074007
C         18.0445435894       27.6171881347        9.9283230232
C         19.2442887442       29.5617643250        9.1040760341
S         19.5427990658       32.5161287826       16.1080171486
C         17.5860529414       33.8845062867       14.7763789670
C         18.2922360603       26.9497115833        8.7174181149
C         19.4959198342       28.8939056746        7.8938323512
O         19.3851741474       31.1786475981       16.6945012791
C         19.0708223551       33.7157517887       17.3801723415
O         20.7850644211       32.9571815629       15.4622003461
C         16.2720623405       33.8285140881       13.9512336588
C         19.0139074114       27.5899981007        7.6980561948
C         19.6473696890       35.0016517201       17.3976320017
C         18.1068740978       33.3765424369       18.3505212050
C         15.3039660069       32.7505641333       14.4909469388
C         15.5798694072       35.2079404849       13.9707151157
C         19.2627229312       35.9347869788       18.3753419478
C         17.7258118113       34.3136126929       19.3257778202
C         18.3024240229       35.5928545434       19.3397757200
N         17.9250088982       36.5130994309       20.2990562113
H         21.4988628182       22.7475013053        5.2883597403
H         20.9766039211       21.4932440809        7.3580064318
H         20.8194972261       22.6708108899        9.5334811788
H         21.7166541062       26.4097116895        7.5705841300
H         22.2149535855       27.1148215459        9.6423273170
H         23.1596154627       25.8064786892       10.4299064075
H         22.4423770488       26.5503035063       12.5055379093
H         19.7245525151       27.8473405699       12.9160347614
H         20.1626024447       30.5730745598       11.7492649148
H         20.2079660220       30.5759118339       14.1945117875
H         17.4988666488       29.0950288975       12.0254026836
H         17.7685719932       30.6201389615       11.2089781190
H         18.4198804904       30.0329491955       15.3866647424
H         19.3800137789       32.5846847480       13.0558023611
H         17.7567349174       31.8960360499       12.9772845451
H         17.4876321174       27.1123700583       10.7133177745
H         19.6188465767       30.5714203073        9.2488300263
H         17.2957414176       34.2487033237       15.7685437302
H         18.2493997896       34.6431667019       14.3386137392
H         17.9265331661       25.9362202047        8.5712098123
H         20.0597617838       29.3885018533        7.1069514683
H         16.5061396089       33.6025523574       12.9024666157
H         19.2004607790       27.0759121494        6.7589381942
H         20.3896895344       35.2787885299       16.6528640968
H         17.6508573816       32.3892431186       18.3448954576
H         14.3737409094       32.7334157038       13.9090569475
H         15.7491085092       31.7490171329       14.4319453253
H         15.0450796487       32.9428122760       15.5399911502
H         14.6672073801       35.1961713785       13.3610483310
H         15.3006970478       35.4984025251       14.9919547584
H         16.2413697469       35.9844268128       13.5653685537
H         19.7102796775       36.9249291093       18.3828151599
H         16.9809560352       34.0459674707       20.0702665302
H         18.3378849571       37.4392021839       20.3169918801
H         17.2327603895       36.2735358399       21.0003780097
    80
VM2 Rank=23     G=208.867           E=120.217           -TS=88.650              
C         21.6226585021       25.0532619661        5.4554218832
C         21.0465150959       26.3238084006        5.6065948451
C         22.1214302324       24.3557786200        6.5756741792
C         20.9557386688       26.9088412589        6.8783132650
C         22.7446680654       22.9630439772        6.4212061306
C         22.0166564867       24.9530445220        7.8500764227
C         21.4332360930       26.2245135573        8.0114095566
F         21.8346501875       21.9857862286        6.6273144119
F         23.2669235427       22.7520146954        5.1914168193
F         23.7522736419       22.7450729869        7.2967949462
N         21.3339377370       26.8139106671        9.3034381332
C         21.6472693030       28.2209014843        9.5259763575
C         20.9702079896       26.1736613666       10.4738166828
C         21.4828422306       28.3957268703       11.0455534482
O         21.0353189395       27.0867099057       11.4837853923
O         20.6466666618       25.0061198150       10.6087484098
C         20.4965429715       29.5232385501       11.4066712734
O         20.6707037231       30.6801965233       11.0639722181
N         19.3605530275       29.1285289249       12.0792119966
C         18.0926203648       29.8732584628       12.0304927397
C         17.8201155995       30.6398121198       13.3544955139
C         16.9505244854       28.8955108772       11.6596969401
O         16.5897893942       31.3612459046       13.2592335598
C         18.9659627765       31.6325509436       13.6884026739
C         17.2413151628       28.1067624552       10.3877400120
N         18.7184675522       32.5316997995       14.8527848041
C         17.5024823125       26.7253237815       10.4495469164
C         17.2688246010       28.7589635391        9.1414181359
S         18.1996119417       31.7528610695       16.2918885207
C         19.7344693133       33.6107736768       15.0071279447
C         17.7815096033       26.0031555885        9.2774217814
C         17.5512095142       28.0382574323        7.9690656224
O         16.7566574722       31.5574205464       16.0989201177
C         18.3972078954       32.9700259455       17.6183068820
O         19.1267910403       30.6366295914       16.5128564523
C         19.9412007494       34.5202970935       13.7659173822
C         17.8050426871       26.6591033002        8.0368166542
C         19.5303315063       32.9356687433       18.4556095231
C         17.4266360663       33.9738354678       17.8084413320
C         18.6119787504       35.1535446482       13.2942791181
C         20.9614412031       35.6315192760       14.0926022507
C         19.6877899826       33.8948241279       19.4704201738
C         17.5892465992       34.9305666995       18.8246362131
C         18.7188244050       34.8927041333       19.6563603837
N         18.8771559210       35.8355244563       20.6541219802
H         21.6791074358       24.6119776894        4.4630068932
H         20.6659794892       26.8545796068        4.7371818883
H         20.4973799106       27.8886294366        6.9791019640
H         22.3916655854       24.4218314866        8.7215258856
H         20.9422370760       28.8621250663        8.9810578593
H         22.6748151401       28.4437985075        9.2120601910
H         22.4489002281       28.6351530561       11.5066495190
H         19.3203465363       28.1430493311       12.3092930500
H         18.1579792906       30.6215804291       11.2278473864
H         17.7497039603       29.8954006806       14.1593398016
H         16.7723279734       28.2120492361       12.4994306218
H         16.0181528312       29.4590944306       11.5275372477
H         16.3915044137       31.6730434218       14.1737603062
H         19.8835208574       31.0573022884       13.8688943464
H         19.1315564313       32.2206776203       12.7796690964
H         17.4931098810       26.2093756270       11.4058817206
H         17.0733279036       29.8263568914        9.0826562592
H         19.4467965891       34.2838352134       15.8230184442
H         20.6993081849       33.1645112254       15.2850036970
H         17.9869646907       24.9368721976        9.3323639009
H         17.5719547065       28.5479890843        7.0091956969
H         20.3644083295       33.9283984852       12.9430850655
H         18.0248324094       26.1002600583        7.1305355906
H         20.2894238279       32.1692393324       18.3181396147
H         16.5502473367       34.0142481138       17.1657560471
H         18.1561277745       35.7539885455       14.0918351803
H         18.7756107679       35.8068199917       12.4278898291
H         17.8883918657       34.3840666242       12.9958119327
H         20.5996360273       36.2779939133       14.9027683351
H         21.9225080753       35.2021183791       14.4036819308
H         21.1472501489       36.2622998025       13.2137660978
H         20.5641745476       33.8634956061       20.1120688982
H         16.8377029047       35.7027079419       18.9649552187
H         19.6899097511       35.8144438323       21.2602871068
H         18.1810096600       36.5592093923       20.7959249724
    80
VM2 Rank=24     G=208.878           E=120.386           -TS=88.492              
C         21.4023920833       23.3097748065        6.2486474182
C         21.1361954302       22.5834535400        7.4198567329
C         21.6200734607       24.7026989838        6.3042789499
C         21.0771378453       23.2407608278        8.6580194571
C         21.8958692797       25.5110344561        5.0307134368
C         21.5538521936       25.3510972612        7.5555985073
C         21.2804415869       24.6303896260        8.7335648026
F         20.7678832577       26.0800600183        4.5517616843
F         22.7775170459       26.5153565581        5.2377415658
F         22.4088207279       24.7625492853        4.0277163204
N         21.2149592836       25.3003126288        9.9864204890
C         22.2309632995       26.2647348020       10.3908723980
C         20.2469445291       25.1293820586       10.9575698582
C         21.7367860700       26.7606643265       11.7630830135
O         20.5711051526       25.9322142014       12.0097038380
O         19.2740065194       24.3964788234       10.9099601215
C         21.3893508514       28.2641420283       11.7723559933
O         22.0518157722       29.1000695795       11.1802818441
N         20.2443063692       28.6012829399       12.4608839707
C         19.5164481395       29.8662184196       12.2879506385
C         19.2402851206       30.5065199898       13.6782428873
C         18.2421313848       29.6237302024       11.4350677180
O         18.3718734182       29.6771911530       14.4569388105
C         18.6512768642       31.9396093492       13.5817583959
C         18.5266255915       28.9177265103       10.1140555796
N         18.3184223725       32.5786634633       14.8886126722
C         18.1095729316       27.5887457215        9.9131550022
C         19.2082788921       29.5896971567        9.0830129010
S         19.5423904233       32.5116347415       16.0911556855
C         17.5691508073       33.8609258126       14.7642892915
C         18.3615084379       26.9423360319        8.6916700534
C         19.4630993794       28.9436033750        7.8616946096
O         19.3975463437       31.1744450212       16.6815837199
C         19.0662081322       33.7108966715       17.3620829707
O         20.7785718645       32.9607167805       15.4392239922
C         16.2522711834       33.7921905255       13.9447252925
C         19.0335180401       27.6218041318        7.6635634742
C         19.6323759612       35.0014681760       17.3735158834
C         18.1092438780       33.3665847380       18.3375337131
C         15.2953972891       32.7074545548       14.4908169996
C         15.5487229120       35.1658604026       13.9640421509
C         19.2443998452       35.9341688957       18.3503241358
C         17.7248149162       34.3032395389       19.3118675426
C         18.2910844988       35.5871456055       19.3198533136
N         17.9103606144       36.5069662802       20.2782321647
H         21.4365148277       22.7850059365        5.2966760234
H         20.9727731277       21.5096461380        7.3676760978
H         20.8707459960       22.6669727119        9.5580708498
H         21.7021080300       26.4265328596        7.6070324752
H         22.2970696022       27.0880134149        9.6684874584
H         23.2071009156       25.7721301546       10.4825615500
H         22.4962313360       26.5889603249       12.5355205026
H         19.7631332101       27.8438294960       12.9307402816
H         20.1593781895       30.5638985448       11.7335111415
H         20.2153430827       30.5728114009       14.1799803087
H         17.5210963604       29.0401451914       12.0215547702
H         17.7511424267       30.5791975315       11.2197286108
H         18.4357028365       30.0181884082       15.3796739069
H         19.3670298462       32.5717529118       13.0394818433
H         17.7489926704       31.8701922184       12.9690471808
H         17.5898999117       27.0545653961       10.7042807335
H         19.5415498554       30.6134968043        9.2293968031
H         17.2799058127       34.2249855866       15.7568144910
H         18.2243978200       34.6240305559       14.3220748328
H         18.0363840270       25.9153631478        8.5435035294
H         19.9884171617       29.4691356665        7.0682675483
H         16.4838736188       33.5658453430       12.8954922327
H         19.2219912082       27.1243496035        6.7158660220
H         20.3691898541       35.2825442677       16.6247677687
H         17.6612249215       32.3756152885       18.3365927180
H         14.3629691676       32.6812683781       13.9128031794
H         15.7486048553       31.7095091443       14.4322030617
H         15.0392260894       32.8999092389       15.5404898692
H         14.6336921021       35.1451510917       13.3581767229
H         15.2713450037       35.4562694610       14.9857854357
H         16.2020721646       35.9469064885       13.5542624028
H         19.6839350461       36.9279225789       18.3531362934
H         16.9853788668       34.0316376280       20.0603161914
H         18.3157475182       37.4364457186       20.2918019854
H         17.2230852965       36.2637655683       20.9831840118
    80
VM2 Rank=25     G=208.879           E=120.471           -TS=88.408              
C         23.0166319836       24.4602111995        6.2387612346
C         23.9121353219       25.2203987018        7.0062236718
C         21.6728473179       24.3171457991        6.6422140085
C         23.4769344042       25.8441830676        8.1853231783
C         20.6895056814       23.4775438892        5.8175799051
C         21.2516499587       24.9429770885        7.8345646750
C         22.1413459613       25.7112483306        8.6101811030
F         19.4256195209       23.9560903893        5.8710079091
F         21.0137671682       23.4250124462        4.5055628089
F         20.6386275583       22.2002503285        6.2549759964
N         21.6961543736       26.3472701434        9.8055133643
C         22.0951315091       27.7105868535       10.1424228482
C         20.8425250012       25.8139159603       10.7551607122
C         21.4963085120       27.9263672700       11.5421403966
O         20.6681627631       26.7507593138       11.7300356365
O         20.3235112401       24.7108492771       10.7474920679
C         20.7246721174       29.2523020204       11.6781060994
O         21.2207399687       30.3316004584       11.4030716783
N         19.4104327312       29.1365154390       12.0737816265
C         18.3853821983       30.1491737581       11.7765078471
C         17.9635375577       30.9347617363       13.0482551132
C         17.1932005854       29.4628658514       11.0667933835
O         16.9810395180       31.9177183824       12.7142620658
C         19.1788648795       31.6352593428       13.7134995899
C         17.6293527099       28.6442348718        9.8569005187
N         18.8520044510       32.5495653279       14.8460302186
C         17.5335068913       27.2404167127        9.8740971251
C         18.1571808995       29.2863239770        8.7217035607
S         17.8376680417       31.8872191401       16.0623306466
C         20.0064130564       33.3684321203       15.3121090623
C         17.9513187529       26.4878424392        8.7643306990
C         18.5822329821       28.5343026020        7.6141562002
O         16.4800849455       32.0289626915       15.5197024962
C         17.9617166603       33.0059334134       17.4811352675
O         18.4164179351       30.5856570888       16.4165581878
C         20.7028572052       34.2275002904       14.2223698851
C         18.4758182316       27.1348198201        7.6337585632
C         18.8191442786       32.7013781406       18.5573742815
C         17.2151249155       34.2007842085       17.5080608490
C         21.8254872941       35.0744807155       14.8585705049
C         19.6988383022       35.1517814718       13.4957907391
C         18.9260763502       33.5830230769       19.6463506380
C         17.3260540182       35.0788740935       18.5994285858
C         18.1807712901       34.7718157822       19.6691584148
N         18.2892029567       35.6376449689       20.7406466359
H         23.3723474320       23.9792316668        5.3304491580
H         24.9468353116       25.3242012907        6.6881447829
H         24.1880211637       26.4211290242        8.7694884921
H         20.2220462052       24.8274659035        8.1597664339
H         21.6671181099       28.4138426863        9.4153498442
H         23.1856821098       27.8197869529       10.1707635857
H         22.2976353801       27.9310409373       12.2912602840
H         19.1017078242       28.1904022191       12.2622277197
H         18.8086799975       30.8786071554       11.0715019962
H         17.5368479253       30.2127271343       13.7578248268
H         16.6607043522       28.8276966849       11.7857986845
H         16.4724721046       30.2257094526       10.7458380032
H         16.6347739126       32.2524585866       13.5750521544
H         19.8757435624       30.8634516417       14.0658173989
H         19.6879628865       32.1834250053       12.9137892702
H         17.1354342394       26.7305824798       10.7472845209
H         18.2418535335       30.3695334829        8.7003517911
H         19.6785535473       34.0760490035       16.0823158593
H         20.7537521967       32.7113694078       15.7779658507
H         17.8687613356       25.4040081057        8.7826654654
H         18.9899249971       29.0363093758        6.7403810067
H         21.1781495426       33.5686338551       13.4831800888
H         18.7973572966       26.5541780139        6.7731651829
H         19.4043188253       31.7848490116       18.5485400311
H         16.5537339885       34.4497268150       16.6814267385
H         22.5649149241       34.4344098245       15.3569298818
H         22.3530218770       35.6609751512       14.0953552577
H         21.4230327088       35.7729651101       15.6037911086
H         19.2006258984       35.8267592109       14.2033368934
H         20.2071995637       35.7650845257       12.7410680586
H         18.9231546946       34.5702834540       12.9810663889
H         19.5896669123       33.3429337558       20.4726369367
H         16.7485253245       35.9991888139       18.6132239407
H         17.7547163227       36.4991550651       20.7645426660
H         18.9051583686       35.4235576156       21.5173159693
    80
VM2 Rank=26     G=208.899           E=120.925           -TS=87.974              
C         21.4495843892       23.2708635440        6.2249025856
C         21.2178528516       22.5562990912        7.4105802526
C         21.6388343093       24.6686677903        6.2570806258
C         21.1651988261       23.2302085963        8.6400754706
C         21.8767657974       25.4637262658        4.9676185835
C         21.5793928948       25.3337282350        7.4999784195
C         21.3404648868       24.6247115730        8.6924438579
F         20.7288466596       25.9992742518        4.4975104656
F         22.7378533686       26.4911035421        5.1461022819
F         22.3919355500       24.7119842557        3.9682028950
N         21.2813227392       25.3112800866        9.9365601040
C         22.2836333642       26.3018955890       10.3107233477
C         20.3326703154       25.1348338497       10.9256465811
C         21.8007380371       26.8082561768       11.6831769847
O         20.6571088225       25.9591849405       11.9609082039
O         19.3743218114       24.3817544536       10.9042106545
C         21.4210139215       28.3039384266       11.6757229826
O         22.0535123444       29.1442740142       11.0576741973
N         20.2825506376       28.6274516682       12.3815035044
C         19.5238336495       29.8733440358       12.2030192277
C         19.2521391884       30.5252650715       13.5884458243
C         18.2424298603       29.5914909842       11.3734887003
O         18.4188473654       29.6839075675       14.3933885219
C         18.6253072614       31.9409566812       13.4822538707
C         18.5222031625       28.8765503768       10.0562774457
N         18.2972588059       32.5669253046       14.7888364536
C         19.1710210365       29.5518528797        9.0064098821
C         18.1334209638       27.5358531367        9.8777290616
S         19.4910423490       32.5479052072       16.0213141885
C         17.3593831127       33.7091204164       14.6785707720
C         19.4213288929       28.8972295175        7.7887027748
C         18.3808743839       26.8808241358        8.6599231351
O         19.3326771781       31.2382977185       16.6668564296
C         19.0423584044       33.8404675157       17.2112403484
O         20.7329220641       32.9613668006       15.3569979213
C         16.0772672435       33.4971294609       15.5203782264
C         19.0199802848       27.5634269603        7.6130733180
C         18.2969752875       33.5212780099       18.3643170552
C         19.4566287477       35.1722227719       17.0056795037
C         15.2422086214       34.7933084674       15.5615592357
C         15.2285546224       32.3318391046       14.9646864021
C         17.9479675408       34.5261002612       19.2823765990
C         19.1052838479       36.1733432935       17.9268106030
C         18.3483014640       35.8529349109       19.0638292247
N         18.0021831348       36.8396230592       19.9672132765
H         21.4791968645       22.7331352081        5.2800357566
H         21.0762059219       21.4786813043        7.3763978065
H         20.9856090522       22.6654448149        9.5515119341
H         21.7058515021       26.4126414084        7.5337077418
H         22.3219280079       27.1153510534        9.5753261622
H         23.2708416778       25.8303581547       10.3942798808
H         22.5758009773       26.6646095424       12.4457665360
H         19.8271280837       27.8676358269       12.8727282177
H         20.1425038337       30.5781833925       11.6303334712
H         20.2316322262       30.6258581765       14.0757667168
H         17.5444538689       28.9985320537       11.9781901200
H         17.7263290847       30.5331446570       11.1558590829
H         18.4654032450       30.0515072202       15.3066856603
H         19.3170315566       32.5899870179       12.9289284982
H         17.7053188686       31.8625381750       12.8911092601
H         19.4823477335       30.5848613749        9.1354010675
H         17.6392835096       26.9992545910       10.6834516487
H         17.8533708438       34.6430304412       14.9723978207
H         17.0504266661       33.8511345296       13.6339887820
H         19.9212620119       29.4253260810        6.9807114923
H         18.0777411227       25.8448073852        8.5291022074
H         16.3562714429       33.2473224345       16.5507326792
H         19.2049826344       27.0591294185        6.6683146448
H         17.9806626975       32.4965493693       18.5444453663
H         20.0449448157       35.4316239469       16.1286296966
H         15.8208413480       35.6168277001       16.0002865773
H         14.9278398360       35.0953256238       14.5541793124
H         14.3405731892       34.6582414741       16.1726503120
H         14.3252103427       32.1826965668       15.5696093605
H         14.9166759344       32.5268352947       13.9307543177
H         15.7944361524       31.3910837788       14.9757614718
H         17.3660812478       34.2733783035       20.1645220117
H         19.4220377489       37.1988225482       17.7573068047
H         17.4549925469       36.6162751568       20.7912175769
H         18.2876120118       37.8009132034       19.8164131159
    80
VM2 Rank=27     G=208.914           E=121.028           -TS=87.886              
C         20.0667304635       24.6084829952        5.8067200086
C         19.0622822009       24.8302693449        6.7614736233
C         21.4160841526       24.8901766331        6.1081894433
C         19.3938531989       25.3405621669        8.0253396274
C         22.5190499860       24.6595090454        5.0676718584
C         21.7339743552       25.4112678517        7.3810734509
C         20.7312654270       25.6356312353        8.3437696535
F         22.7904256250       25.7870330742        4.3743057349
F         23.6837412669       24.2599584443        5.6273566526
F         22.1975727316       23.7125318220        4.1569038040
N         21.0650885463       26.1692473279        9.6191610303
C         21.9415708044       27.3269465354        9.7540434173
C         20.6023379530       25.7225555599       10.8423664581
C         21.9410406790       27.6101921997       11.2675079566
O         21.1299215654       26.5318147204       11.8038137333
O         19.8650559623       24.7746607092       11.0518396994
C         21.3781194415       29.0032922882       11.6159980090
O         21.7293768253       30.0214875969       11.0433119685
N         20.4102342519       29.0238789603       12.5939875237
C         19.5312196191       30.1696434894       12.8593393095
C         20.1062145642       31.0432140000       14.0093535033
C         18.0866112789       29.6675601056       13.1115760911
O         20.0708235941       30.3252634513       15.2460587967
C         19.3519927464       32.3927389663       14.1412112835
C         17.5552062530       28.8408620151       11.9477081566
N         20.0286350934       33.4065214111       14.9991720177
C         17.1003327951       29.4779331930       10.7789234897
C         17.5339994270       27.4357248120       12.0219738739
S         19.8087823262       33.3292048144       16.6941336856
C         21.3821315552       33.8447242774       14.5699902410
C         16.6255875226       28.7188849238        9.6962861803
C         17.0582946259       26.6758729987       10.9407550509
O         20.6857134939       32.2557115598       17.1804252088
C         18.0619633252       32.9041427158       16.9025868224
O         19.9496440185       34.7185642379       17.1470754739
C         21.4857672010       34.3192662318       13.0963160265
C         16.6027640185       27.3173905072        9.7776955651
C         17.6822107241       31.5994302027       17.2758347629
C         17.0667966685       33.8725676209       16.6641336493
C         20.5473371291       35.5151869584       12.8166125363
C         22.9421905404       34.7094978715       12.7683262103
C         16.3226263651       31.2699990356       17.4074130189
C         15.7085939807       33.5383693648       16.7986293362
C         15.3346342226       32.2376732934       17.1694620698
N         13.9982014743       31.9105534311       17.2981739866
H         19.7915559311       24.2175683022        4.8298331417
H         18.0252592640       24.6084224823        6.5210196802
H         18.6079836807       25.5100517491        8.7554132017
H         22.7691589736       25.6380778168        7.6222854582
H         21.5423459843       28.1752207740        9.1822138609
H         22.9556824734       27.0903051919        9.4097607799
H         22.9594309737       27.5533995336       11.6708193877
H         20.1875590419       28.1355479165       13.0245570476
H         19.5079772309       30.7923540002       11.9537486074
H         21.1497000076       31.2570192305       13.7428779196
H         18.0588542431       29.0776563542       14.0368030357
H         17.4183779485       30.5202150692       13.2789307348
H         20.5599097119       30.8608491402       15.9134209514
H         19.2268100388       32.8077519314       13.1340715690
H         18.3355643298       32.1972011000       14.5003676623
H         17.1183865080       30.5621903742       10.7085932800
H         17.8909293003       26.9309355660       12.9157120384
H         21.7068556568       34.6778685096       15.2087482171
H         22.1001969899       33.0303737540       14.7357488325
H         16.2759950262       29.2166829978        8.7952948643
H         17.0474019375       25.5904254877       11.0041146015
H         21.2136944860       33.4918297427       12.4266806772
H         16.2346185997       26.7299256281        8.9403282860
H         18.4382765829       30.8393002779       17.4570862026
H         17.3475155150       34.8812083414       16.3698811849
H         19.4980822661       35.2492706824       12.9949981938
H         20.7925906785       36.3676240462       13.4630211147
H         20.6334355183       35.8443541435       11.7732625752
H         23.0374560018       35.0186619273       11.7194599238
H         23.2823343318       35.5411006504       13.3990220804
H         23.6205344183       33.8614341434       12.9281334670
H         16.0368244831       30.2611928336       17.6923964058
H         14.9462157375       34.2897725801       16.6119997027
H         13.7196545366       30.9724558304       17.5639010342
H         13.2781567047       32.6036482953       17.1266653394
    80
VM2 Rank=28     G=208.955           E=121.002           -TS=87.953              
C         20.0651691380       24.6462266943        5.7842176047
C         19.0527098595       24.8815922641        6.7272079721
C         21.4141054608       24.9140380742        6.0997550330
C         19.3769256470       25.3827051392        7.9966516912
C         22.5272769549       24.6486930625        5.0785848236
C         21.7264269229       25.4106107752        7.3837842722
C         20.7156504316       25.6485270532        8.3346470975
F         23.5447989117       25.5341779477        5.1787586480
F         23.0665816025       23.4204195375        5.2405000385
F         22.0967244117       24.7171178997        3.7981475337
N         21.0437186179       26.1633627597        9.6191169140
C         21.9407803283       27.3023742720        9.7757051485
C         20.5573000892       25.7142672315       10.8321859231
C         21.9240311293       27.5736332509       11.2912618767
O         21.0882622053       26.5043349866       11.8076426056
O         19.7996809180       24.7786722050       11.0235549299
C         21.3782294085       28.9728047393       11.6427163427
O         21.7568230075       29.9901343730       11.0861375196
N         20.3931059039       29.0009240493       12.6031344221
C         19.5298040457       30.1595478241       12.8639719251
C         20.1069447413       31.0196244667       14.0230941667
C         18.0750439873       29.6795403830       13.1003237349
O         20.0459939082       30.2987682641       15.2571113751
C         19.3743597762       32.3813754498       14.1510478799
C         17.5411133958       28.8678416587       11.9271024707
N         20.0596311095       33.3814342665       15.0182109567
C         17.1042612274       29.5187371881       10.7590588515
C         17.4994728715       27.4626971797       11.9920917027
S         19.8218140779       33.3035535565       16.7107085476
C         21.4246162271       33.7974691159       14.6035377796
C         16.6271253605       28.7734216564        9.6679626706
C         17.0214578813       26.7165781647       10.9023531467
O         20.6748981622       32.2135156295       17.2025840400
C         18.0658067229       32.9088533646       16.9008072359
O         19.9826319414       34.6890185001       17.1689070868
C         21.5512221768       34.2728347646       13.1319162206
C         16.5839143361       27.3718983097        9.7400863139
C         17.6594525017       31.6100917115       17.2667222302
C         17.0902693511       33.8953153622       16.6552860787
C         20.6362429946       35.4851409111       12.8451422021
C         23.0173351424       34.6386841705       12.8193735300
C         16.2930395108       31.3043972301       17.3841036319
C         15.7251281028       33.5848258846       16.7755972023
C         15.3246572628       32.2899935453       17.1391955408
N         13.9814622358       31.9862251274       17.2539930823
H         19.7970808557       24.2525263545        4.8064685597
H         18.0155793995       24.6744948298        6.4743811765
H         18.5851162878       25.5623146146        8.7178582286
H         22.7635828169       25.6049357597        7.6441934631
H         21.5668047026       28.1628897129        9.2050975900
H         22.9547861459       27.0481286166        9.4438321057
H         22.9356903823       27.4976693742       11.7081271819
H         20.1476546322       28.1126787153       13.0212960575
H         19.5256406573       30.7856309823       11.9604091300
H         21.1567321328       31.2165134256       13.7686112854
H         18.0292249878       29.0852073638       14.0219949368
H         17.4191465697       30.5419854624       13.2663127927
H         20.5372393530       30.8238338297       15.9312184099
H         19.2661616061       32.8009308257       13.1438244539
H         18.3512715455       32.2021981548       14.4996887746
H         17.1381344688       30.6030588868       10.6959111429
H         17.8422841024       26.9471949723       12.8852406439
H         21.7569230767       34.6238188680       15.2472028285
H         22.1270927377       32.9707721087       14.7748930181
H         16.2914899157       29.2818670581        8.7676089929
H         16.9948510111       25.6310035086       10.9585138421
H         21.2718748459       33.4513724367       12.4579239524
H         16.2139818723       26.7950447974        8.8961533380
H         18.4001766561       30.8362603127       17.4532657439
H         17.3916141230       34.8995927795       16.3665631231
H         19.5808550253       35.2369361768       13.0125234686
H         20.8895599396       36.3321198708       13.4956033327
H         20.7384251816       35.8146050524       11.8033372923
H         23.1284344958       34.9481222297       11.7721467204
H         23.3652899597       35.4631534398       13.4551521083
H         23.6794103149       33.7788123873       12.9842395685
H         15.9866963863       30.3000646998       17.6634929083
H         14.9779945767       34.3500614822       16.5835973168
H         13.2755273975       32.6929351908       17.0794132970
H         13.6838572359       31.0530814877       17.5164837426
    80
VM2 Rank=29     G=208.963           E=120.301           -TS=88.662              
C         22.2312979050       24.9177998836        5.9164885369
C         22.7699511761       26.2101108868        5.8214768361
C         21.6155136293       24.4859119534        7.1095441214
C         22.6907352545       27.0886901799        6.9126181808
C         21.0038592016       23.0839126879        7.2140113723
C         21.5422936184       25.3802917038        8.1981077090
C         22.0724842404       26.6814784648        8.1095780857
F         21.6199050366       22.1807034068        6.4178429930
F         21.0624156241       22.5800580258        8.4675951694
F         19.6998367559       23.0868517613        6.8604864440
N         21.9631539380       27.5802644701        9.2088331966
C         21.5900481328       28.9774335207        9.0158497689
C         22.1206485554       27.2684795029       10.5472049788
C         21.5888026749       29.5532625355       10.4414067661
O         21.8722839470       28.3974087984       11.2695973038
O         22.4212314766       26.1880217885       11.0248576948
C         20.2634217951       30.2491428996       10.7985623716
O         19.9505886312       31.3316930857       10.3340947324
N         19.4244988556       29.5450612324       11.6355670235
C         17.9884776283       29.8312561609       11.7885042163
C         17.6803234516       30.4415128371       13.1854240230
C         17.1837477033       28.5368230020       11.5043884144
O         16.2696393035       30.5978128896       13.3524849369
C         18.3736763859       31.8193215747       13.3781709282
C         17.5835076754       27.8324044689       10.2099165737
N         18.5187405075       32.2544987396       14.7937568029
C         17.6067775205       28.5313477095        8.9876341280
C         17.9293331693       26.4682992452       10.2277264799
S         17.1681711927       33.0252905060       15.5017814684
C         19.3286465016       31.3753525874       15.6811170945
C         17.9824213511       27.8782350350        7.8018532529
C         18.2899433500       25.8106469167        9.0402934047
O         16.8560445866       34.1351783695       14.5932311476
C         17.8381649789       33.7852134201       16.9996280040
O         16.1896893841       31.9731025745       15.8072734359
C         20.7273631237       30.9950293231       15.1271487504
C         18.3229857450       26.5167767635        7.8274626681
C         18.7133134862       34.8848904820       16.9035680429
C         17.5106576915       33.2685538529       18.2687909086
C         21.5988806084       32.2469534330       14.8780861801
C         21.4447496936       30.0453702097       16.1089648810
C         19.2516927261       35.4624925917       18.0658800279
C         18.0514524993       33.8502679648       19.4280832467
C         18.9216747809       34.9468578775       19.3287003806
N         19.4529545065       35.5159346770       20.4704073173
H         22.2918303978       24.2533334351        5.0575914467
H         23.2458328951       26.5332910275        4.8986685663
H         23.1135087703       28.0851446725        6.8210670961
H         21.0557375071       25.0640479448        9.1169829376
H         22.3224420319       29.5024327071        8.3909049304
H         20.5938641078       29.0409178085        8.5580542801
H         22.3921257476       30.2928264121       10.5471830368
H         19.7763764181       28.6536103107       11.9613169094
H         17.6931883630       30.5761835448       11.0366947691
H         18.0626081574       29.7354639496       13.9333780455
H         17.3027888211       27.8544252477       12.3552950841
H         16.1143667573       28.7791120334       11.4615059431
H         16.1164086965       30.8991358728       14.2798397879
H         19.3679413479       31.7864039491       12.9214123792
H         17.8174170748       32.5727032073       12.8046674575
H         17.3385049425       29.5836708409        8.9558515781
H         17.9112788093       25.9129181178       11.1615673632
H         19.4919091189       31.8685175034       16.6475373503
H         18.7673765112       30.4560893190       15.8954361413
H         18.0041612239       28.4260049309        6.8631896039
H         18.5436200540       24.7540061326        9.0609461018
H         20.6103914644       30.4522696565       14.1796844961
H         18.6083855860       26.0094842683        6.9092744484
H         18.9778101961       35.2866535646       15.9281725646
H         16.8405555994       32.4165497524       18.3562859115
H         21.1351254449       32.9158743771       14.1425046876
H         21.7454404123       32.8159101976       15.8052187030
H         22.5869471754       31.9649482331       14.4928215742
H         22.4233039651       29.7422475876       15.7148366819
H         21.6058677398       30.5276199432       17.0818907884
H         20.8557315348       29.1340421615       16.2741517215
H         19.9268073826       36.3100580461       17.9851608732
H         17.7954346483       33.4477029040       20.4043676496
H         20.0835603470       36.3076359230       20.4073111224
H         19.2205560776       35.1486673096       21.3866755800
    80
VM2 Rank=30     G=208.969           E=119.793           -TS=89.176              
C         19.9101410857       26.0249908626        5.2780222609
C         19.0374963235       26.9180809138        5.9183089639
C         21.1400431649       25.6750952347        5.8741044286
C         19.3841817903       27.4737258105        7.1588051136
C         22.1071114424       24.7101253114        5.1772392294
C         21.4795358744       26.2479355256        7.1183972809
C         20.6063844746       27.1394853460        7.7709912221
F         23.0471433502       25.3750536797        4.4700874254
F         22.7690352330       23.9182862107        6.0511726127
F         21.4895543830       23.8753967315        4.3103175764
N         20.9606778008       27.7056159410        9.0282618792
C         20.7368718913       29.1171544198        9.3191785998
C         21.5559478078       27.0472573231       10.0886002074
C         21.3393537162       29.3005185022       10.7227894402
O         21.7595540921       27.9587370578       11.0813762505
O         21.8566980952       25.8676397958       10.1519730845
C         20.3370182488       29.9062425983       11.7241047285
O         19.7858509358       30.9767274033       11.5333701740
N         20.0477011140       29.1262001474       12.8225069205
C         18.7919953795       29.2324081252       13.5828524058
C         19.0249649159       29.8514473570       14.9899517657
C         18.1261055255       27.8346279669       13.6383575643
O         17.7997639403       29.8597297714       15.7247259849
C         19.5794504827       31.2996797278       14.8927612404
C         17.9686892810       27.1999610613       12.2608044930
N         20.1080722442       31.8574155332       16.1697148408
C         18.7236699826       26.0659247633       11.9081378273
C         17.0784731746       27.7548332106       11.3231556928
S         19.0139719982       32.5601659168       17.2799770452
C         21.2454648214       31.1295376169       16.7898459871
C         18.5846838219       25.4891040625       10.6348727460
C         16.9416295387       27.1810468050       10.0481588583
O         18.3405938339       31.4486508034       17.9649192251
C         17.8639607300       33.4997047133       16.2460876651
O         19.8141667657       33.5539564900       18.0062994948
C         22.4428521762       30.8476487405       15.8432987802
C         17.6928378396       26.0457119662        9.7049691131
C         16.5559463608       33.0272415223       16.0191917973
C         18.2787878177       34.7039084970       15.6437366076
C         23.0400533795       32.1550026561       15.2747726106
C         23.5349076643       30.0565997419       16.5933216440
C         15.6751913552       33.7533027674       15.1996571199
C         17.3938536296       35.4265565059       14.8256819853
C         16.0919118277       34.9528886029       14.6024730908
N         15.2237006889       35.6646762600       13.7966670162
H         19.6271751369       25.6076867299        4.3144033681
H         18.0904559733       27.1799830709        5.4525430169
H         18.6931894736       28.1567359066        7.6448967120
H         22.4322312817       25.9979462015        7.5790464331
H         19.6622472842       29.3416866395        9.3238210020
H         21.2483653170       29.7511359912        8.5839815901
H         22.2106758033       29.9653354305       10.6776626908
H         20.5567827453       28.2520750682       12.8716093272
H         18.1074993987       29.9008604132       13.0415796699
H         19.7596837848       29.2190384870       15.5048575699
H         18.7143794755       27.1804441342       14.2940270857
H         17.1377171580       27.9202860593       14.1074222665
H         18.0069041170       30.1573082708       16.6419499778
H         20.3861415310       31.3141504279       14.1524524404
H         18.7991219430       31.9435282529       14.4697640336
H         19.4217462343       25.6314051928       12.6185796984
H         16.4942027198       28.6335062434       11.5830214015
H         21.6252857837       31.7157329448       17.6381276444
H         20.8869057947       30.1788083148       17.2065531836
H         19.1739245576       24.6154336270       10.3671546334
H         16.2527050577       27.6148713076        9.3279007922
H         22.1059972081       30.2209721798       15.0062765435
H         17.5879930879       25.6005138520        8.7186998558
H         16.2232843810       32.0965108268       16.4724263497
H         19.2876054391       35.0756313768       15.8075805102
H         23.8886054953       31.9418478043       14.6123806150
H         22.2964866908       32.7126617276       14.6919149962
H         23.3945873470       32.8093144948       16.0814678717
H         23.9268174701       30.6296521953       17.4436485189
H         23.1383355120       29.1075793275       16.9765538407
H         24.3749985699       29.8217413821       15.9271047952
H         14.6685996918       33.3822900699       15.0272372787
H         17.7205411107       36.3541193476       14.3635662864
H         14.2820357090       35.3280625853       13.6285404557
H         15.5178227195       36.5312274320       13.3597371142
