    77
VM2 Rank=1      G=187.163           E=97.580            -TS=89.583              
C         23.6147121057       23.7715552947        6.8546149625
C         22.4180401554       24.4994844814        6.7845029242
C         24.5092247224       24.0020188374        7.9122817252
F         21.5560205468       24.2778766791        5.7709043539
C         22.1097419429       25.4551733552        7.7638864665
C         24.2009484777       24.9570307687        8.8961552374
C         22.9973209058       25.6873584403        8.8328985477
N         22.6865795469       26.6549789577        9.8290581350
C         22.8596666239       26.5150216366       11.1935497562
C         22.1487795977       27.9642103844        9.4778465845
O         22.4754647946       27.6829974818       11.7819703966
O         23.2768723308       25.5373150337       11.7901980909
C         22.0431745444       28.6897784607       10.8304209629
C         20.6218026568       29.2132810581       11.1134618074
N         20.0282483079       28.7323187704       12.2602393138
O         20.0329392633       29.9580013773       10.3487375777
C         18.5708241231       28.6761073259       12.4594447277
C         18.1706778506       27.2132310300       12.7766496775
C         18.1062105532       29.6848993148       13.5478923868
C         18.6954450745       26.2193474418       11.7460294448
O         16.7066994521       29.5295328253       13.7923394654
C         18.3935383198       31.1541684155       13.1296918040
C         19.7045120642       25.3009542985       12.0908161035
C         18.1850826667       26.2232165791       10.4349082122
N         18.3736655325       32.1395380807       14.2448227928
C         20.1916591246       24.3912563429       11.1376840874
C         18.6740088383       25.3161747308        9.4799728929
C         19.3601877020       31.9268842410       15.3388419283
S         16.8475138329       32.7594374650       14.6984396261
C         19.6749199804       24.3970473283        9.8327007218
C         20.8273317847       31.7424230274       14.8689889795
O         16.2711839733       33.2771369507       13.4515969624
O         16.1815712551       31.7136811077       15.4863071655
C         17.2508019284       34.2116860666       15.6972959074
C         21.3317257954       32.9766279270       14.0870189938
C         21.7427518193       31.4828120710       16.0836315921
C         17.0381612108       34.2003629863       17.0899732239
C         17.8046630949       35.3555605410       15.0897592960
C         17.3736514172       35.3244341317       17.8637465869
C         18.1388599898       36.4766545739       15.8681535913
C         17.9237575457       36.4630588584       17.2549209289
N         18.2540585476       37.5663653214       18.0186460588
H         23.8459008677       23.0335999606        6.0917698266
H         25.4395004384       23.4419962867        7.9701331840
H         21.1741665463       26.0006887788        7.6924180591
H         24.9031715824       25.1284640881        9.7081804643
H         22.8290051140       28.4933358622        8.7985796893
H         21.1602783314       27.8605892769        9.0116028057
H         22.7268706287       29.5471589479       10.8563947896
H         20.6060092186       28.1100173935       12.8121047897
H         18.0737409013       28.9565867914       11.5200639634
H         18.5323717921       26.9492643804       13.7783696142
H         17.0769406463       27.1363385326       12.8222505589
H         18.6678582258       29.4517013633       14.4613342377
H         16.4695469309       30.1296358107       14.5391249398
H         19.3731295800       31.2006690258       12.6428791515
H         17.6715589832       31.4432973972       12.3544273942
H         20.1148558063       25.2919592204       13.0970120341
H         17.4095919089       26.9316487161       10.1561479733
H         20.9734973560       23.6862562221       11.4096642139
H         18.2754332999       25.3239387612        8.4686338032
H         19.3498327260       32.7842662439       16.0234400802
H         19.0627940848       31.0536238838       15.9346805131
H         20.0525053981       23.6930726189        9.0952680998
H         20.8944372796       30.8603646242       14.2179715633
H         22.3722047021       32.8382565449       13.7668997566
H         20.7290597801       33.1522593968       13.1872362116
H         21.2843631160       33.8818555114       14.7059822155
H         21.7324796103       32.3332840104       16.7776915620
H         21.4197724926       30.5901237867       16.6345861102
H         22.7799113949       31.3193996062       15.7637259056
H         16.6162495027       33.3214928589       17.5718427600
H         17.9790696200       35.3715616010       14.0163963133
H         17.2075679524       35.3102385095       18.9375008992
H         18.5665801230       37.3556935805       15.3938065428
H         18.1010670679       37.5651377514       19.0211348437
H         18.6512983184       38.3933413654       17.5865628166
    77
VM2 Rank=2      G=187.234           E=97.836            -TS=89.397              
C         23.0188760302       22.6125439998        7.1091040452
C         22.3861599670       23.8354133507        6.8424836742
C         23.6015823047       22.3895918475        8.3671361302
F         21.8240221641       24.0511991391        5.6354071311
C         22.3316959756       24.8357789983        7.8242696539
C         23.5456203694       23.3894754381        9.3531330616
C         22.9064650918       24.6180333165        9.0918058431
N         22.8507037936       25.6291334576       10.0918089050
C         22.5637721182       25.4439105773       11.4310615517
C         23.1262040432       27.0269049939        9.7810364885
O         22.6575783594       26.6557930869       12.0465727322
O         22.2777034313       24.3977420981       11.9876520723
C         22.9638292403       27.7426520910       11.1355079275
C         21.8599852619       28.8202663157       11.1245167991
N         21.0608905108       28.8592378524       12.2467065531
O         21.6681925940       29.5609552411       10.1743590540
C         19.7240662198       29.4682791951       12.2846894345
C         18.6372644414       28.3629961627       12.2065353203
C         19.5912235076       30.3868586308       13.5317782956
C         18.8204225920       27.4246472731       11.0191472788
O         19.7327342250       29.6157099526       14.7293628484
C         18.2473155030       31.1638984991       13.5442795783
C         19.2094261001       26.0875171546       11.2226120170
C         18.6100737806       27.8897134157        9.7081999335
N         18.2086326194       32.3369301684       14.4598631056
C         19.3792625606       25.2230381534       10.1284732836
C         18.7830158958       27.0271545184        8.6128443005
C         19.1915043122       33.4230138667       14.1976896070
S         17.8378795460       32.0240785016       16.0987702555
C         19.1631348441       25.6921077282        8.8232196779
C         19.1845356044       33.9700485454       12.7466269698
O         16.5898506760       31.2524180338       16.0561116895
O         19.0592055925       31.4910717580       16.7166599626
C         17.3917851213       33.6480344534       16.7567696321
C         17.8018873756       34.5476764442       12.3671161581
C         20.2673614779       35.0577817211       12.5871516089
C         16.1995896404       34.2744745781       16.3438413805
C         18.2434344013       34.3078280801       17.6646379408
C         15.8627977399       35.5463234390       16.8371882646
C         17.9016050144       35.5794754787       18.1554361733
C         16.7122286099       36.2000618200       17.7431014247
N         16.3794813432       37.4512306238       18.2263322357
H         23.0569781938       21.8434121942        6.3429760523
H         24.0954658763       21.4441436324        8.5783439963
H         21.8322219833       25.7718231088        7.5957954119
H         24.0031164806       23.2058339737       10.3221074586
H         24.1481418321       27.1401205937        9.3979705850
H         22.4078226310       27.4064272910        9.0431980828
H         23.9019292830       28.2286537108       11.4299385281
H         21.3024069966       28.2172456722       12.9920924067
H         19.6107539333       30.1086899058       11.3989082236
H         18.6410456171       27.7865627031       13.1404267553
H         17.6449883599       28.8246234316       12.1423838660
H         20.4130160788       31.1115698534       13.4677293150
H         19.7288546824       30.2452267541       15.4887762722
H         18.0356352855       31.5004845028       12.5224408711
H         17.4398576423       30.4659869220       13.8018498368
H         19.3841094437       25.7172573514       12.2294405354
H         18.3171634144       28.9221771401        9.5382349562
H         19.6815501469       24.1915547822       10.2928270359
H         18.6199668789       27.3930392424        7.6022926735
H         18.9924389598       34.2750780430       14.8597044211
H         20.2021683293       33.0719998856       14.4454927275
H         19.2924695233       25.0228572373        7.9762520046
H         19.4328893669       33.1587527689       12.0489432226
H         17.5174899271       35.3654871254       13.0418215478
H         17.8100106523       34.9404979243       11.3424351232
H         17.0203029125       33.7796731464       12.4211663840
H         20.0761103288       35.9094076784       13.2529854546
H         21.2623224029       34.6585668750       12.8227398480
H         20.2950922134       35.4337865693       11.5563053857
H         15.5389285335       33.7762952519       15.6380753040
H         19.1693096991       33.8372498063       17.9870450838
H         14.9422181466       36.0247522150       16.5142369918
H         18.5621496889       36.0838666859       18.8554406750
H         15.5226068602       37.9071659700       17.9326035661
H         16.9881552748       37.9309631262       18.8803733347
    77
VM2 Rank=3      G=187.295           E=97.805            -TS=89.490              
C         23.6120932578       23.4659968052        7.1492883935
C         22.6773442675       24.4953218305        6.9659720274
C         24.2698258719       23.3338913809        8.3829525947
F         22.0419486755       24.6221286981        5.7828533452
C         22.3958966492       25.3925916836        8.0067586085
C         23.9871004991       24.2299750489        9.4280329575
C         23.0450655498       25.2628648168        9.2501818839
N         22.7593684357       26.1696677495       10.3088840229
C         22.5686920027       25.8458653016       11.6392927862
C         22.6585035908       27.6057303137       10.0756998078
O         22.3521340278       27.0061731591       12.3211858729
O         22.5847350215       24.7347667064       12.1404270486
C         22.4134554058       28.1865605718       11.4790362998
C         21.1344005491       29.0432039654       11.5469911851
N         20.1440882374       28.5707883120       12.3804857574
O         20.9755735940       30.0382583653       10.8607349889
C         18.7173944560       28.8810739533       12.1989440320
C         17.9102443982       27.5597838276       12.2186777952
C         18.2106399336       29.9092662659       13.2482780469
C         18.4331772782       26.5364136663       11.2168698489
O         16.8276758040       30.1950009327       13.0267360952
C         19.0181256463       31.2338859985       13.1894620372
C         19.0936136438       25.3760257665       11.6615934766
C         18.2733445613       26.7528707828        9.8359172436
N         18.5002634694       32.3408433935       14.0449981191
C         19.5819800674       24.4390847086       10.7358655604
C         18.7640011002       25.8178886195        8.9092433183
C         19.1613637972       33.6531718365       13.7975265515
S         18.1978331538       31.9293066077       15.6838845979
C         19.4156114518       24.6587305038        9.3595943047
C         19.1227613192       34.1575348569       12.3295947000
O         16.8758870757       31.2894199861       15.6590980202
O         19.4018451309       31.2403618674       16.1636716047
C         18.0107894851       33.4991047911       16.5672253544
C         17.6772530264       34.2180165535       11.7843673140
C         19.7745424886       35.5535947878       12.2360441559
C         16.7894533587       34.2000176316       16.5143660992
C         19.0887893827       34.0411391975       17.2954305709
C         16.6500399968       35.4280494728       17.1828921623
C         18.9437695818       35.2695152591       17.9622670943
C         17.7257689721       35.9643001578       17.9070845363
N         17.5866057851       37.1728138660       18.5625897800
H         23.8244172972       22.7756517669        6.3379350838
H         24.9969535410       22.5388211506        8.5296773637
H         21.6625394122       26.1759817747        7.8440930838
H         24.5047878450       24.1189900903       10.3775513776
H         23.5899787354       27.9946622259        9.6453714112
H         21.8162990629       27.8287356747        9.4077508797
H         23.2569614267       28.8194723968       11.7808897887
H         20.3837877108       27.7350924934       12.8999054999
H         18.5819516447       29.3340295414       11.2064502214
H         17.9242382262       27.1417453498       13.2331128245
H         16.8570642215       27.7737218834       11.9962784889
H         18.3395936126       29.4587760079       14.2419266405
H         16.5293715916       30.7025207382       13.8181426906
H         20.0578888616       31.0207207005       13.4702785733
H         19.0273859540       31.5363721527       12.1370736427
H         19.2319509251       25.1991610915       12.7248362105
H         17.7691956476       27.6479398992        9.4813342659
H         20.0946469572       23.5463140215       11.0857249665
H         18.6375422764       25.9906615324        7.8434499235
H         18.6771823945       34.4360766372       14.3925719718
H         20.2080534326       33.6010206947       14.1277168987
H         19.7952088984       23.9340972261        8.6434921251
H         19.7142000658       33.4844922579       11.6941926713
H         17.2109730520       33.2243750665       11.7814130457
H         17.0524985486       34.8819501272       12.3953496202
H         17.6635562678       34.5922080285       10.7528777642
H         19.2265506862       36.2896717182       12.8386165333
H         20.8120981947       35.5265563708       12.5931890730
H         19.7888333535       35.9096003246       11.1978637485
H         15.9516126632       33.7948509301       15.9516825930
H         20.0384296344       33.5133358251       17.3418801608
H         15.7059257866       35.9640053828       17.1369916167
H         19.7789812919       35.6826039270       18.5213044373
H         16.7101002458       37.6816154512       18.5271871838
H         18.3592231266       37.5676055878       19.0875653415
    77
VM2 Rank=4      G=187.314           E=98.409            -TS=88.905              
C         23.6086375012       23.4283968082        7.0343802551
C         22.6018825317       24.3925140799        6.8801471076
C         24.3605602655       23.3899121208        8.2197556136
F         21.8762249994       24.4293285294        5.7436417413
C         22.3419277749       25.3174954334        7.9020986294
C         24.0997286242       24.3138369884        9.2461189219
C         23.0858675232       25.2813196403        9.0977642388
N         22.8225404812       26.2164938385       10.1374447891
C         22.7497263763       25.9422780787       11.4904835015
C         22.6163728008       27.6322235625        9.8546018776
O         22.5130113738       27.1175197337       12.1392736763
O         22.8702229422       24.8575829406       12.0335049206
C         22.4411586455       28.2605977847       11.2479142901
C         21.1218005574       29.0459224922       11.3791741858
N         20.2329434195       28.5655521466       12.3158895529
O         20.8475285940       29.9906633213       10.6590695052
C         18.7801416173       28.7854024242       12.2406841888
C         18.0589208764       27.4213306901       12.3711970401
C         18.2985994345       29.8227134853       13.2924515558
C         18.5630578309       26.3907109329       11.3671320601
O         16.8849003724       30.0115283181       13.1882188052
C         19.0088043738       31.1915858704       13.1165329202
C         19.3212109282       25.2863469467       11.7984619691
C         18.2869271304       26.5447772203        9.9961952212
N         18.4801489471       32.2816378456       13.9761391972
C         19.7913340242       24.3427094178       10.8700918961
C         18.7592607871       25.6032672918        9.0666123414
C         18.8933034041       33.6313658675       13.5239008139
S         18.3097645139       31.9572675709       15.6524970828
C         19.5088457141       24.4997902483        9.5042344739
C         17.6836950410       34.5679698283       13.2839810705
O         17.0015987849       31.2995873994       15.7670186956
O         19.5628799046       31.3035775275       16.0482455610
C         18.2256126457       33.5594997623       16.4970169905
C         18.1645045406       36.0128455173       13.0382022758
C         16.8261647446       34.0803042049       12.0950132232
C         16.9780128634       34.1415161590       16.8003126044
C         19.4076427049       34.2249118545       16.8808915345
C         16.9165992874       35.3848739390       17.4519375672
C         19.3408550168       35.4679665232       17.5324147540
C         18.0965843076       36.0511226803       17.8157065369
N         18.0334957936       37.2747529750       18.4546468137
H         23.8036848656       22.7160207830        6.2378689012
H         25.1436823920       22.6457603772        8.3436065682
H         21.5522865334       26.0490373671        7.7632086408
H         24.6905036651       24.2756216383       10.1579448935
H         23.4874041278       28.0550505770        9.3382527412
H         21.7145524095       27.7751215661        9.2450921146
H         23.2654340594       28.9529072756       11.4587762937
H         20.5642729185       27.7746708605       12.8547598622
H         18.5383574167       29.1912615739       11.2480662748
H         18.1775270127       27.0455065637       13.3952602607
H         16.9805353010       27.5649906725       12.2267920306
H         18.5426972383       29.4243282892       14.2867736103
H         16.6245335828       30.5521340879       13.9707919322
H         20.0804276181       31.0610538744       13.3167028121
H         18.9111327124       31.4776214234       12.0607189465
H         19.5496697520       25.1584097773       12.8531388603
H         17.7064864382       27.3964475606        9.6515409274
H         20.3796325905       23.4935291591       11.2093110410
H         18.5426787893       25.7277151244        8.0086138809
H         19.5851488673       34.0835038862       14.2447689819
H         19.4495046067       33.5637515730       12.5788121932
H         19.8741820592       23.7699967232        8.7859598076
H         17.0463051948       34.5764168404       14.1755515770
H         18.8078753125       36.0717748428       12.1508057375
H         17.3125515806       36.6877574268       12.8855769714
H         18.7344541188       36.3865374162       13.8989875442
H         17.4130313551       34.0539238232       11.1680296534
H         16.4370241766       33.0700460245       12.2774327351
H         15.9666243507       34.7433213698       11.9343796133
H         16.0564978397       33.6351756878       16.5228260479
H         20.3774814355       33.7812053637       16.6683343729
H         15.9511539013       35.8309850370       17.6745213274
H         20.2566706347       35.9781494870       17.8181797785
H         17.1382344291       37.7030856802       18.6626426585
H         18.8816343651       37.7626759966       18.7207588008
    77
VM2 Rank=5      G=187.360           E=97.289            -TS=90.072              
C         22.7937799602       24.7840058692        6.3294248042
C         21.8137140406       25.7698462950        6.5149427290
C         23.6885873462       24.4868647965        7.3700764579
F         20.9513422977       26.0550274746        5.5176665372
C         21.7220803855       26.4598041991        7.7327834947
C         23.5966762935       25.1749302343        8.5920429096
C         22.6102747094       26.1627730098        8.7851010663
N         22.5185663580       26.8596481747       10.0224865306
C         22.6154190768       26.3074594726       11.2862692389
C         22.3264426670       28.3044646958       10.0706379142
O         22.5115360493       27.3219115002       12.1907927717
O         22.7655213876       25.1316614609       11.5707363842
C         22.3679180500       28.6276908293       11.5741637829
C         21.1138944950       29.3847247078       12.0521907204
N         20.3702306171       28.7511637648       13.0239039559
O         20.7633413685       30.4458047463       11.5650664326
C         18.9355666590       29.0003500605       13.2381422513
C         18.1812879211       27.6491301022       13.1647188557
C         18.6803784078       29.7681595778       14.5659032573
C         18.4874579096       26.8703379746       11.8900472546
O         17.2753391329       29.9140963690       14.7795907980
C         19.3493954895       31.1705431708       14.5531485445
C         19.2343247171       25.6788281783       11.9445379797
C         18.0380815536       27.3464034101       10.6446795626
N         19.4179452842       31.8462054290       15.8797478023
C         19.5214887811       24.9672180852       10.7679013883
C         18.3276204534       26.6372751612        9.4669877670
C         20.1868146407       31.1457850951       16.9410761032
S         18.0539014921       32.7145884933       16.4355125585
C         19.0663831883       25.4450414500        9.5291083934
C         21.6198617757       30.7070907813       16.5370612536
O         17.0877484837       31.7161085605       16.9127202559
O         18.6099035989       33.7469276966       17.3190568537
C         17.4452744545       33.5830081537       14.9694926920
C         22.4881180414       31.9144588470       16.1156594811
C         22.2941826072       29.9609653549       17.7073478180
C         16.2774691794       33.1467131631       14.3126591057
C         18.1501877712       34.6928939061       14.4633297779
C         15.8220570852       33.8152362530       13.1636588037
C         17.6900709440       35.3583772096       13.3144347484
C         16.5264255025       34.9210636626       12.6632931322
N         16.0763898233       35.5764126235       11.5328978309
H         22.8580627267       24.2547338723        5.3830128329
H         24.4518046163       23.7249853162        7.2307014471
H         20.9504516138       27.2131533844        7.8553980698
H         24.2972779824       24.9379133707        9.3888288128
H         23.1320295428       28.8210885895        9.5337733569
H         21.3544253629       28.5769432592        9.6391128922
H         23.2421096590       29.2486962396       11.8051546045
H         20.7506600324       27.8699860763       13.3470223344
H         18.5605667330       29.6306038038       12.4192740733
H         18.4307121967       27.0476511524       14.0478597454
H         17.1005929099       27.8314376378       13.2207506202
H         19.1164135469       29.1689021222       15.3756216993
H         17.1514493905       30.3014687452       15.6781483541
H         20.3692392306       31.0661548784       14.1685057461
H         18.8337537815       31.7954212680       13.8141846658
H         19.5956203813       25.3032807858       12.8981171879
H         17.4649644373       28.2681384704       10.5903729985
H         20.1017316438       24.0489470848       10.8164394795
H         17.9774545655       27.0101048279        8.5077654738
H         20.2772604910       31.8079880656       17.8133130809
H         19.6244798827       30.2648705993       17.2785334225
H         19.2895403728       24.8943486877        8.6186701205
H         21.5618960830       30.0038519696       15.6951136676
H         23.4994314181       31.5911996827       15.8381833714
H         22.0569850823       32.4332874603       15.2504885931
H         22.5760552490       32.6408048716       16.9337465257
H         22.3940919454       30.6100154690       18.5869991931
H         21.7090207257       29.0795631415       17.9997338652
H         23.2972984355       29.6160986300       17.4252430278
H         15.7259043503       32.2881191276       14.6880830106
H         19.0555238155       35.0354782895       14.9590659292
H         14.9219181112       33.4724070038       12.6608437757
H         18.2389647283       36.2132137214       12.9289263742
H         15.2376448519       35.2654716960       11.0553180927
H         16.5806641973       36.3750151189       11.1638190879
    77
VM2 Rank=6      G=187.364           E=97.949            -TS=89.415              
C         23.0069422732       22.8610647768        6.7985247902
C         23.0568416858       22.3233189464        8.0928390107
C         22.7870368420       24.2368302543        6.6238835666
F         23.2723556250       21.0024502104        8.2623248376
C         22.8863590743       23.1509386681        9.2127793268
C         22.6169749926       25.0676811270        7.7443156496
C         22.6595792362       24.5313554617        9.0472209257
N         22.4883813737       25.3747601779       10.1810909834
C         21.7398970933       25.0931786383       11.3084710923
C         23.1426594586       26.6747343431       10.2718146419
O         21.8816342812       26.1373147928       12.1722104571
O         21.0671973113       24.0985490931       11.5189877120
C         22.7149221957       27.2055508537       11.6531956097
C         21.9626984905       28.5502780796       11.5819320678
N         20.8696753392       28.6611990444       12.4140331533
O         22.2751208785       29.4424789284       10.8108177544
C         19.7717609063       29.6155203403       12.2054222558
C         18.5497610092       28.8880185987       11.5836463315
C         19.4478284904       30.3566108318       13.5329699983
C         18.8983200731       28.0954877922       10.3288092462
O         19.0056595953       29.4229967569       14.5237955021
C         18.3901063796       31.4753209585       13.3337266568
C         19.2661591226       28.7634152884        9.1465318630
C         18.8657085943       26.6886031643       10.3445952207
N         18.3208539594       32.4769280957       14.4327175700
C         19.5953950062       28.0335738179        7.9921215300
C         19.1906882896       25.9577660107        9.1898412556
C         19.5558482316       33.2627057781       14.7005767649
S         17.3693526839       32.0658825804       15.7917831477
C         19.5534692905       26.6303740457        8.0124869181
C         20.1534322925       33.9777057003       13.4609895825
O         16.0634156016       31.6965479983       15.2323387098
O         18.1619258660       31.1278471731       16.5976615824
C         17.1165766436       33.6457200918       16.6340834493
C         19.1444432799       34.9708181417       12.8404464868
C         21.4464966537       34.7227230322       13.8534628890
C         17.7489438866       33.9060288208       17.8658369146
C         16.3043539207       34.6365604140       16.0485876398
C         17.5660024346       35.1442778497       18.5046511069
C         16.1252444239       35.8732264249       16.6912432899
C         16.7548448133       36.1286828652       17.9192228288
N         16.5781324008       37.3459740322       18.5490096802
H         23.1397064915       22.2132420113        5.9367527090
H         22.7479781780       24.6589032967        5.6225451009
H         22.9334327399       22.7142263649       10.2059465310
H         22.4427421272       26.1293046506        7.5927587542
H         24.2325540565       26.5616550853       10.2147596882
H         22.7940288335       27.3364748319        9.4685667591
H         23.5903972156       27.3464022221       12.2986691037
H         20.6942202941       27.8766483607       13.0302736552
H         20.1068524965       30.3753613737       11.4857665309
H         18.1072314851       28.2205033017       12.3339872772
H         17.7716157236       29.6193834471       11.3356850301
H         20.3870350445       30.8185954226       13.8632781543
H         18.8952078830       29.9190548218       15.3692226266
H         18.6099506144       31.9921647090       12.3920309219
H         17.4061415169       31.0083636445       13.1951106644
H         19.3027206205       29.8491638722        9.1245418823
H         18.5924260518       26.1592513947       11.2536468888
H         19.8804662215       28.5557411377        7.0823282251
H         19.1654223523       24.8708908975        9.2096087422
H         19.3498634698       34.0398090303       15.4472867441
H         20.3194755599       32.6083689305       15.1419143462
H         19.8039049780       26.0647978681        7.1185175102
H         20.4256687688       33.2300432287       12.7036695517
H         18.2351578048       34.4574821476       12.5038306086
H         18.8483225567       35.7380387736       13.5674997865
H         19.5798654314       35.4781666553       11.9701873487
H         22.1887091639       34.0286836639       14.2684971705
H         21.8980696491       35.2093650350       12.9793609234
H         21.2463333616       35.4966460915       14.6058958101
H         18.3828091829       33.1514110099       18.3256216704
H         15.8174012425       34.4477834352       15.0946474484
H         18.0561938325       35.3397666071       19.4545104375
H         15.4982590576       36.6338827571       16.2341330780
H         15.9947233575       38.0631489248       18.1322592827
H         17.0303230448       37.5390887317       19.4359302757
    77
VM2 Rank=7      G=187.371           E=97.691            -TS=89.680              
C         23.2786594647       23.8349937804        6.5882101014
C         24.2099474786       24.0656751457        7.6111617249
C         22.0717995335       24.5524341578        6.5701890418
F         25.3717350809       23.3802087952        7.6273098539
C         23.9419988640       25.0066598212        8.6166615708
C         21.8019179616       25.4961420416        7.5757328095
C         22.7314216244       25.7269494301        8.6100775478
N         22.4557813013       26.6845449644        9.6265742510
C         22.7021052603       26.5420220989       10.9796350048
C         21.8803748335       27.9869128823        9.3109155917
O         22.3334770352       27.7022943321       11.5927557877
O         23.1636287581       25.5679898687       11.5490652530
C         21.8493747347       28.7105248359       10.6682417743
C         20.4468943769       29.2359527638       11.0305135138
N         19.9195760661       28.7583960230       12.2105776646
O         19.8153417491       29.9784101520       10.2983267959
C         18.4751159737       28.6938745692       12.4869835492
C         18.0997834047       27.2282245001       12.8215225310
C         18.0636688544       29.6983960634       13.6003124292
C         18.5847992492       26.2379327890       11.7681135020
O         16.6805275635       29.5335812613       13.9200905010
C         18.3184682329       31.1697598959       13.1686649357
C         19.6043718596       25.3167764684       12.0721536429
C         18.0287722809       26.2495654829       10.4757081829
N         18.3558007732       32.1536785846       14.2846384340
C         20.0574703107       24.4126585935       11.0972190587
C         18.4839813710       25.3484575995        9.4987781373
C         19.4044694810       31.9461966949       15.3203053483
S         16.8538194162       32.7625879985       14.8254955686
C         19.4965340351       24.4273098314        9.8107206805
C         20.8436102119       31.7720009312       14.7673056839
O         16.2047571557       33.2795794081       13.6146181098
O         16.2400473144       31.7106656046       15.6468225980
C         17.3035290111       34.2149409819       15.8042071612
C         21.2944715927       33.0103714250       13.9596424089
C         21.8284910692       31.5171782993       15.9274004799
C         17.8144249139       35.3641560329       15.1696921821
C         17.1705618938       34.1984200153       17.2066877137
C         18.1849775601       36.4853692244       15.9312811819
C         17.5421346411       35.3226247459       17.9635962086
C         18.0492536350       36.4665581899       17.3279930519
N         18.4151240717       37.5700237157       18.0750984318
H         23.4938173060       23.1043354977        5.8137516608
H         21.3462641350       24.3773041865        5.7794558903
H         24.6793151416       25.1726593875        9.3964495813
H         20.8605922098       26.0381909990        7.5524965804
H         22.5091366639       28.5253652172        8.5906296332
H         20.8659125101       27.8695884510        8.9079426710
H         22.5349703972       29.5667175990       10.6573605565
H         20.5284222728       28.1375975664       12.7298187052
H         17.9273586582       28.9734914199       11.5759729328
H         18.5084788257       26.9670877512       13.8057565511
H         17.0097806523       27.1439607594       12.9166827190
H         18.6755514650       29.4680114761       14.4816310229
H         16.4807985641       30.1305296551       14.6802479622
H         19.2686322330       31.2224296226       12.6271265900
H         17.5520859316       31.4555559169       12.4359541723
H         20.0497879138       25.3017978188       13.0632412478
H         17.2446894681       26.9601269365       10.2281901419
H         20.8480107218       23.7058613540       11.3374763779
H         18.0506093834       25.3627945312        8.5019728964
H         19.4276408926       32.8026670491       16.0057199817
H         19.1472503999       31.0702904121       15.9307707866
H         19.8491561395       23.7286303010        9.0561065068
H         20.8792722518       30.8911032212       14.1122555110
H         22.3159029981       32.8792746695       13.5805530565
H         20.6403684697       33.1829188660       13.0959071122
H         21.2764903142       33.9146114718       14.5815904163
H         22.8467688750       31.3609956109       15.5486398177
H         21.8522311363       32.3668236813       16.6221416717
H         21.5433220829       30.6217763881       16.4945792408
H         17.9273962121       35.3842370523       14.0882046811
H         16.7825515527       33.3154242990       17.7090695710
H         18.5792124762       37.3685605225       15.4360939774
H         17.4374946548       35.3044073624       19.0450082027
H         18.7835818786       38.4000870059       17.6238579652
H         18.3213239056       37.5642999211       19.0848319564
    77
VM2 Rank=8      G=187.374           E=97.350            -TS=90.024              
C         22.0320694361       22.4771309414        8.0225891573
C         21.4280273885       23.6806899008        7.6309720597
C         22.8151511256       22.4377069112        9.1875286254
F         20.6739928880       23.7206850766        6.5131922571
C         21.6009234181       24.8438538093        8.3956716129
C         22.9873396345       23.6013019768        9.9566097215
C         22.3780432593       24.8119857940        9.5702371665
N         22.5539291645       25.9893563018       10.3503638080
C         22.5046449950       26.0758003372       11.7289648859
C         22.8383362511       27.2792764830        9.7327197641
O         22.7702600182       27.3670162201       12.0731792093
O         22.2704849719       25.1763865663       12.5178519100
C         22.9684107520       28.2390034607       10.9306624270
C         21.9476991697       29.3951166403       10.8971056930
N         21.3732689856       29.7113143251       12.1092301970
O         21.6282989405       29.9658536542        9.8672993934
C         20.1043369359       30.4377136342       12.2547774628
C         18.9569845759       29.4392002288       12.5678898769
C         20.2573807989       31.5640499367       13.3154243526
C         18.8757808082       28.2852170503       11.5751147710
O         20.5675521465       30.9964384820       14.5917432495
C         18.9910119476       32.4568176003       13.4066416398
C         19.2093173366       26.9778922359       11.9754286642
C         18.4733673313       28.5182943719       10.2474013998
N         19.1620448152       33.7112868112       14.1934423614
C         19.1343512407       25.9143075875       11.0608379238
C         18.4016108837       27.4561208500        9.3306985755
C         20.1772363065       34.6757309451       13.6971520976
S         19.0122109689       33.6457123994       15.8967638591
C         18.7274871657       26.1528933436        9.7387417431
C         20.0267277107       35.0801232872       12.2068829295
O         20.2815859211       33.1099185520       16.4061374499
O         18.5169514042       34.9753749215       16.2736394377
C         17.6448954338       32.4956479096       16.1855566476
C         18.6502951259       35.7262535360       11.9291278090
C         21.1530613574       36.0566016530       11.8079743857
C         16.3187443808       32.8986493331       15.9326739275
C         17.8953469549       31.1840202652       16.6357957656
C         15.2570962043       31.9991931042       16.1285672845
C         16.8303250838       30.2879863291       16.8284512387
C         15.5109198354       30.6934488080       16.5755979123
N         14.4654969273       29.8096284255       16.7643593471
H         21.8934734792       21.5811146084        7.4243302954
H         23.2878177227       21.5077450723        9.4943814142
H         21.1195184168       25.7619706765        8.0745106310
H         23.5986544508       23.5583950848       10.8545926022
H         23.7750044624       27.2338489486        9.1630710296
H         22.0147961156       27.5794367824        9.0722211132
H         23.9718825283       28.6804590402       10.9634460574
H         21.7093477904       29.1955920826       12.9136947387
H         19.8715008452       30.9234121742       11.2969546014
H         19.0871023462       29.0462434413       13.5843552388
H         17.9966191538       29.9675872600       12.5713481287
H         21.0969108864       32.1896534843       12.9847458117
H         20.7772997861       31.7395186325       15.2044995893
H         18.6885544991       32.7159877267       12.3850630505
H         18.1651414746       31.8596608107       13.8086088640
H         19.5303607006       26.7849216881       12.9957128166
H         18.2210869164       29.5247211035        9.9247633380
H         19.3949182168       24.9069435385       11.3764957816
H         18.0910251032       27.6431284492        8.3059002095
H         20.1185206859       35.5955171894       14.2956573454
H         21.1830607295       34.2654705414       13.8590419606
H         18.6671770868       25.3296818428        9.0311959643
H         20.1316970416       34.1878244479       11.5749694978
H         17.8310205438       35.0328294144       12.1560505906
H         18.5074927554       36.6267497478       12.5401763671
H         18.5586994131       36.0138549339       10.8740220935
H         22.1399785795       35.6034366325       11.9675517998
H         21.0785812059       36.3273386068       10.7468660750
H         21.1041687965       36.9813176917       12.3975390571
H         16.1135248680       33.9065481310       15.5794357624
H         18.9137584096       30.8561194685       16.8296477292
H         14.2368590112       32.3160950671       15.9302284112
H         17.0309724002       29.2770643044       17.1724729392
H         13.5092762659       30.0948399300       16.5841573160
H         14.6404708919       28.8643363747       17.0867596187
    77
VM2 Rank=9      G=187.448           E=97.388            -TS=90.060              
C         21.8782171971       23.6122168784        6.5498124122
C         21.3530208477       22.9104502003        7.6445981378
C         22.3197801060       24.9345557561        6.7170952374
F         20.9325557936       21.6384158540        7.4864673513
C         21.2643846951       23.5222357632        8.9040210025
C         22.2327360800       25.5488569188        7.9779116704
C         21.6993456050       24.8505058363        9.0801556930
N         21.6134543733       25.4740185300       10.3570633777
C         20.5525975791       25.3959075186       11.2397972577
C         22.7077877164       26.2769843541       10.8899647690
O         20.8943841926       26.0890600570       12.3618649693
O         19.4927824140       24.8174157488       11.0716029796
C         22.2066986549       26.7025277732       12.2830080958
C         22.1482920440       28.2326814777       12.4679661757
N         21.0352074068       28.7060600965       13.1284049880
O         22.9982613217       28.9855444775       12.0218159340
C         20.5438675118       30.0871124519       13.0258652227
C         19.3408683764       30.1487238020       12.0455978443
C         20.2230136174       30.6426168651       14.4420230945
C         19.6303572830       29.5025211691       10.6955058154
O         19.1834558366       29.8684649715       15.0481679070
C         19.8364433452       32.1453778515       14.4059867867
C         20.5514838984       30.0906483686        9.8096128623
C         18.9857002870       28.3070454259       10.3269322789
N         19.7793500351       32.8116859002       15.7381922658
C         20.8236356378       29.4920182405        8.5681254751
C         19.2536481277       27.7098124911        9.0840745042
C         21.0406961689       32.8418662179       16.5224764003
S         18.3575643774       32.6604251659       16.6782863662
C         20.1711408971       28.3036170880        8.2033012563
C         22.2694266165       33.4167207619       15.7695914004
O         18.4132551881       31.3338152130       17.3066534909
O         18.3047096286       33.8978847423       17.4664537438
C         17.0083271585       32.7672087661       15.4766901137
C         22.0212658450       34.8687097367       15.3012555946
C         23.5165307346       33.3656419269       16.6770009565
C         16.3020290575       31.6112646565       15.0884224762
C         16.6752263932       34.0080567499       14.8984307111
C         15.2764447227       31.6981641468       14.1319305137
C         15.6475741958       34.0897942532       13.9435759482
C         14.9477471351       32.9360216812       13.5584995590
N         13.9397318976       33.0183441159       12.6167973608
H         21.9431376148       23.1312024103        5.5780296326
H         22.7284253403       25.4828953286        5.8717057437
H         20.8589217854       22.9585008977        9.7389442067
H         22.5741945801       26.5741123111        8.0901902074
H         23.6232129359       25.6771237307       10.9678998300
H         22.8879308890       27.1510288799       10.2509839738
H         22.8583962475       26.2961189393       13.0659826161
H         20.3895016214       28.0076240464       13.4767033378
H         21.3467573444       30.7098440376       12.6074199198
H         18.4716171762       29.6652514518       12.5094793874
H         19.0507518495       31.1928377046       11.8805955998
H         21.1426903876       30.5374589324       15.0325267878
H         19.0934152846       30.1707746983       15.9820280357
H         20.5701919667       32.6657971013       13.7790458878
H         18.8812325278       32.2526617704       13.8803658080
H         21.0613895737       31.0092762155       10.0866716908
H         18.2786427754       27.8368344697       11.0053284005
H         21.5377872740       29.9506362074        7.8889511432
H         18.7534301774       26.7851515216        8.8064464559
H         20.8878692577       33.4559718759       17.4209119039
H         21.2768000226       31.8294498480       16.8767087837
H         20.3775254250       27.8420765130        7.2409456282
H         22.4819719380       32.7937405455       14.8902449688
H         21.1694900905       34.9255221591       14.6122022652
H         21.8084823561       35.5265072504       16.1537184324
H         22.8993604322       35.2661996105       14.7765621595
H         23.7288809462       32.3365760124       16.9944323238
H         24.4017455848       33.7399745078       16.1468433521
H         23.3774874612       33.9774856715       17.5777756042
H         16.5513058211       30.6453988580       15.5211125833
H         17.2171025003       34.9061216152       15.1858336524
H         14.7383239209       30.8022774597       13.8346300216
H         15.3968076429       35.0497125158       13.5004921250
H         13.6960054471       33.9089704498       12.1978041698
H         13.4296256125       32.1893292821       12.3327933187
    77
VM2 Rank=10     G=187.553           E=97.982            -TS=89.570              
C         23.4139576823       23.6137603334        6.8637419668
C         24.0503931866       23.4236208131        8.0989719091
C         22.5032761943       24.6706261114        6.7047343008
F         24.9286111112       22.4110888914        8.2519065767
C         23.7811254081       24.2812196750        9.1761430885
C         22.2330133033       25.5314306868        7.7819955757
C         22.8648512799       25.3407310193        9.0275488588
N         22.5892454194       26.2145972275       10.1167094578
C         22.3944474684       25.8485913097       11.4356835899
C         22.5086680254       27.6592279776        9.9333844041
O         22.1974380271       26.9880903330       12.1574428182
O         22.3930169426       24.7207809629       11.8982944834
C         22.2910538062       28.1959746791       11.3585685688
C         21.0423009422       29.0919127245       11.4685766862
N         20.0446930107       28.6246580285       12.2961869411
O         20.9099469103       30.1138556539       10.8170720616
C         18.6262692709       28.9788945921       12.1308746614
C         17.7840145424       27.6797399227       12.1067152085
C         18.1500925127       29.9835483559       13.2164843811
C         18.2845347969       26.6744129096       11.0755281655
O         16.7745469424       30.3129648262       13.0099971542
C         18.9925975903       31.2873889377       13.1991789992
C         18.8995943118       25.4773973765       11.4869601269
C         18.1523926729       26.9452225342        9.7012356470
N         18.5069816090       32.3783372750       14.0933239444
C         19.3712276836       24.5586777757       10.5347152474
C         18.6268941561       26.0286605961        8.7481784256
C         19.2022875712       33.6801584287       13.8875781360
S         18.1982383675       31.9201119103       15.7185939397
C         19.2342793797       24.8335415755        9.1651615718
C         19.1728850031       34.2345763305       12.4375923358
O         16.8597305639       31.3165330411       15.6772251548
O         19.3848705164       31.1839208168       16.1707091110
C         18.0551824073       33.4637868018       16.6546286470
C         17.7279211237       34.3518946976       11.9002486816
C         19.8615066175       35.6151386017       12.3885319586
C         16.8527821806       34.1981795457       16.6293917289
C         19.1490282817       33.9523665578       17.3968934062
C         16.7477379537       35.4063743840       17.3390833430
C         19.0383892584       35.1611154507       18.1049166643
C         17.8391574206       35.8893807091       18.0771358171
N         17.7338185472       37.0785096201       18.7731562555
H         23.6277614779       22.9448416625        6.0350270730
H         22.0067307547       24.8221807304        5.7493349903
H         24.2884018815       24.1183459821       10.1224055722
H         21.5199679612       26.3398750417        7.6463060515
H         23.4398278401       28.0486724665        9.5028359042
H         21.6604993310       27.9167362610        9.2856670612
H         23.1576025046       28.7885521754       11.6766117843
H         20.2623809360       27.7647076553       12.7848943182
H         18.5004563826       29.4696531544       11.1552436809
H         17.7828442958       27.2303395532       13.1077464660
H         16.7378768938       27.9286951811       11.8875290465
H         18.2700210710       29.4962709972       14.1937715754
H         16.4920782299       30.8009628266       13.8192978640
H         20.0270845840       31.0371583950       13.4687244528
H         19.0070262162       31.6247918402       12.1575170716
H         19.0163370360       25.2582058863       12.5448903348
H         17.6833561271       27.8687193439        9.3723254018
H         19.8493651551       23.6375484249       10.8589820281
H         18.5225068365       26.2439307569        7.6877999958
H         18.7410371026       34.4552121713       14.5104653171
H         20.2481716521       33.5889896306       14.2117986340
H         19.6025811694       24.1235599053        8.4287712937
H         19.7442322929       33.5678217811       11.7776554665
H         17.7212193747       34.7608570767       10.8819742876
H         17.2352026630       33.3716994659       11.8657025674
H         17.1229570343       35.0112837370       12.5355821701
H         20.8990228346       35.5484428580       12.7405514570
H         19.8822346357       36.0054573642       11.3628686748
H         19.3351962785       36.3448087394       13.0176392280
H         16.0030617851       33.8344352590       16.0563174400
H         20.0844135408       33.3983353193       17.4224436711
H         15.8180891616       35.9683781813       17.3143465225
H         19.8856887483       35.5329666592       18.6746117781
H         16.8710306182       37.6111998768       18.7578578921
H         18.5179377609       37.4348270330       19.3085006322
    77
VM2 Rank=11     G=187.571           E=98.638            -TS=88.933              
C         24.1649687287       23.8563427079        7.8005357479
C         22.9077363951       24.4069560232        7.5122158963
C         24.9139493981       24.3563293025        8.8780690960
F         22.1850507801       23.9259055534        6.4798041317
C         22.3946852144       25.4531852527        8.2930964096
C         24.4004484531       25.4024580833        9.6635723708
C         23.1357888839       25.9558268243        9.3803859628
N         22.6174280481       27.0149013383       10.1765689749
C         22.6471647461       27.0946228553       11.5561721001
C         21.9964548386       28.1886654368        9.5738435438
O         22.0824973724       28.2821638675       11.9146382878
O         23.0928334982       26.2698184718       12.3352099616
C         21.6064298963       29.0566046276       10.7834512076
C         20.0913000635       29.3315667368       10.8506837449
N         19.4795271924       28.9899443760       12.0368491548
O         19.4637389737       29.7841250310        9.9087142577
C         18.0313191019       28.7715486106       12.1857463237
C         17.7939109541       27.3155796374       12.6585314350
C         17.4089247554       29.8314623806       13.1373011893
C         18.4857091136       26.2857826542       11.7719565660
O         16.0377020440       29.5360427459       13.4053448900
C         17.5075004760       31.2691216691       12.5615655155
C         19.6014781040       25.5712374953       12.2465334812
C         18.0243922186       26.0546824947       10.4631660237
N         17.9329949752       32.2615895166       13.5812943081
C         20.2434236214       24.6301154604       11.4246148849
C         18.6669602137       25.1153139918        9.6394648474
C         18.8909987407       33.2819065690       13.0841965900
S         16.7257810495       32.8247568048       14.6554242041
C         19.7741627567       24.3994968055       10.1219716523
C         20.2858614221       32.7097088905       12.7135581751
O         15.8954785689       33.7809026468       13.9133194702
O         16.1464481298       31.6183772522       15.2610454434
C         17.6764624634       33.6216340869       15.9707547552
C         21.2244027674       33.8494310479       12.2657539173
C         20.9216376332       31.9380134409       13.8925590566
C         17.6370106170       35.0203535845       16.1346110405
C         18.4850726058       32.8458672713       16.8242328883
C         18.3979102934       35.6335398909       17.1445063950
C         19.2446660389       33.4640572232       17.8317365318
C         19.2021348889       34.8574737247       17.9935057165
N         19.9506539637       35.4635876160       18.9844938506
H         24.5549718805       23.0465631578        7.1905245211
H         25.8900758338       23.9342257004        9.1047680803
H         21.4159050727       25.8578592709        8.0557203665
H         24.9905743322       25.7827675139       10.4936787602
H         21.1104752726       27.9027959852        8.9921993607
H         22.7125613517       28.7133379178        8.9288949816
H         22.1202686142       30.0250150774       10.7453282699
H         20.0954238016       28.6146409001       12.7473420398
H         17.5487116671       28.8840171515       11.2047326326
H         18.1345601346       27.2131389266       13.6965097067
H         16.7161295000       27.1097301884       12.6742168943
H         17.9782955181       29.7913426983       14.0764793351
H         15.7841788982       30.1252214683       14.1570869171
H         18.2110514458       31.2581076816       11.7239746866
H         16.5420121653       31.5627448850       12.1277681624
H         19.9754522490       25.7466389357       13.2516940471
H         17.1682583607       26.6062760434       10.0840198833
H         21.1068786820       24.0836919781       11.7963419465
H         18.3054959721       24.9409829376        8.6291823411
H         18.4616889471       33.7957781144       12.2130566663
H         19.0558213750       34.0504627320       13.8494532104
H         20.2704342705       23.6704185406        9.4862507213
H         20.1838884301       32.0217380441       11.8655527062
H         22.2031930531       33.4549693695       11.9641497353
H         20.8035256470       34.3892826854       11.4077355894
H         21.3859464850       34.5718946239       13.0763745771
H         21.0324876658       32.5840484675       14.7730482700
H         20.3068667507       31.0762338425       14.1801575873
H         21.9149205770       31.5581518611       13.6219635180
H         17.0206606588       35.6308534831       15.4788999086
H         18.5272631244       31.7661900407       16.7011734928
H         18.3641408867       36.7127530230       17.2664043401
H         19.8678408787       32.8603840182       18.4858117562
H         20.5341804599       34.9102332452       19.6022060396
H         19.9253742840       36.4697308637       19.1083537192
    77
VM2 Rank=12     G=187.616           E=98.235            -TS=89.381              
C         23.1229010810       22.8910963179        6.7640782662
C         21.8262798645       23.3656983121        7.0095772954
C         24.2313233739       23.6513685387        7.1705179127
F         20.7599006107       22.6365262910        6.6213231460
C         21.6304603873       24.5936916661        7.6586651473
C         24.0373067229       24.8806624136        7.8234174093
C         22.7362949853       25.3594122047        8.0775318247
N         22.5418687727       26.6050721033        8.7382603968
C         23.2364677232       27.0676206152        9.8401852093
C         21.5508613450       27.5688835550        8.2742669885
O         22.7765133226       28.3179623755       10.1255519869
O         24.1078179086       26.4849774716       10.4626134003
C         21.7111926031       28.7555080833        9.2431745568
C         20.4170798640       29.0916378815       10.0122647793
N         20.5829435214       29.3819847057       11.3492091357
O         19.3130060116       29.0589707790        9.4944360993
C         19.5095162287       29.2994763703       12.3497429269
C         19.6566640682       27.9879803637       13.1683213172
C         19.4990404195       30.5912291045       13.2160693974
C         19.7820718319       26.7440680385       12.2955176676
O         20.7122927186       30.7107419710       13.9658996583
C         18.2796446453       30.6712557848       14.1735184993
C         20.9984755723       26.0390484160       12.2322000653
C         18.6842360085       26.2940436223       11.5395775681
N         18.2510289920       31.8663901714       15.0667723215
C         21.1137901943       24.8926395014       11.4285919332
C         18.7994164021       25.1499955591       10.7323680258
C         17.1907788235       31.8175156946       16.1129865134
S         18.5144660578       33.3815039894       14.3027625400
C         20.0130506127       24.4460914628       10.6807327387
C         17.2118890579       30.5661598805       17.0318731891
O         19.9752666672       33.4766671127       14.1813420046
O         17.6184803693       33.4121742322       13.1403792280
C         17.9944000573       34.6431841309       15.4933845874
C         18.5892666326       30.3772456596       17.7084607086
C         16.1134851751       30.6865980493       18.1095826469
C         16.7158337539       35.2286395187       15.4000921398
C         18.8596703597       35.0332554995       16.5349863285
C         16.3104755782       36.1927142104       16.3386327686
C         18.4490934240       35.9976202564       17.4708613951
C         17.1752260494       36.5782788963       17.3744114969
N         16.7732222022       37.5254091892       18.2968587792
H         23.2656151662       21.9393388471        6.2603316089
H         25.2388755523       23.2893531395        6.9802873519
H         20.6173606995       24.9374112955        7.8411688564
H         24.9038432063       25.4613068995        8.1297965672
H         21.7641816320       27.8732739688        7.2419067552
H         20.5417030786       27.1417161048        8.3361178506
H         22.0200919330       29.6565305121        8.6994144809
H         21.5371740680       29.3964218387       11.6888469455
H         18.5464065238       29.2564239448       11.8223596327
H         20.5308914302       28.0697143815       13.8266830327
H         18.7921021808       27.8637632436       13.8298838591
H         19.4322266961       31.4293760070       12.5089947545
H         20.7340925590       31.6414744683       14.2900497222
H         17.3631572168       30.6466845889       13.5690008651
H         18.2939084533       29.7622331182       14.7800993039
H         21.8575143722       26.3807081163       12.8036735581
H         17.7424436736       26.8348961711       11.5740885669
H         22.0569647578       24.3534703502       11.3833729943
H         17.9475802487       24.8081179931       10.1499926272
H         17.2857093832       32.6781594904       16.7849923951
H         16.2041041204       31.8920229580       15.6353057770
H         20.1012228267       23.5575003435       10.0606058247
H         16.9817913232       29.6710230876       16.4389433293
H         18.5846281913       29.4994615805       18.3670087004
H         19.3822353032       30.2277904075       16.9644309841
H         18.8553205831       31.2539042669       18.3127428981
H         15.1227261260       30.7942396026       17.6495518337
H         16.0900183346       29.7924230141       18.7457313247
H         16.2843929877       31.5572052404       18.7561621280
H         16.0360150179       34.9347510592       14.6038405880
H         19.8470213906       34.5854585017       16.6208550073
H         15.3230247665       36.6396854245       16.2618143877
H         19.1207416604       36.2928978596       18.2723638172
H         17.3917308484       37.8091566392       19.0487455188
H         15.8541249865       37.9494335234       18.2346739097
    77
VM2 Rank=13     G=187.628           E=97.467            -TS=90.162              
C         22.5000302085       24.9701895855        6.0821293568
C         23.3961895506       24.6239054698        7.1038589268
C         21.5406037845       25.9705332884        6.3065745950
F         24.3212717026       23.6660025911        6.8881742804
C         23.3382443045       25.2691297398        8.3482858971
C         21.4815645262       26.6187944586        7.5518889498
C         22.3753718842       26.2698232262        8.5845676285
N         22.3138401170       26.9291736620        9.8445891664
C         22.4301660960       26.3379025152       11.0890454776
C         22.1390937378       28.3738538863        9.9410549999
O         22.3584765592       27.3255919387       12.0257509800
O         22.5713063645       25.1522636432       11.3346503436
C         22.2311079591       28.6520021226       11.4512855563
C         21.0127086415       29.4275329830       11.9879717352
N         20.2836891655       28.7875858668       12.9665403876
O         20.6740503417       30.5089922699       11.5386905971
C         18.8602957941       29.0597864843       13.2238367662
C         18.0756434648       27.7271318524       13.1309965498
C         18.6541166376       29.7947858353       14.5782587119
C         18.3429910909       26.9738660757       11.8323944526
O         17.2581168731       29.9619824522       14.8318445008
C         19.3509532000       31.1835742378       14.5864047002
C         19.0526524118       25.7587047792       11.8465439773
C         17.8974880016       27.4982238407       10.6051341137
N         19.4677291292       31.8201468417       15.9288766453
C         19.3075513865       25.0721330733       10.6478438508
C         18.1553031031       26.8143389403        9.4053822210
C         20.2498093449       31.0753359663       16.9495510298
S         18.1362187812       32.6985162929       16.5446034955
C         18.8579934994       25.5990803302        9.4271090020
C         21.6627114662       30.6205652813       16.4954857962
O         17.1627341236       31.7057445849       17.0188209559
O         18.7354666949       33.6941439871       17.4419022187
C         17.5077124205       33.6202677298       15.1201251017
C         22.5437635782       31.8223300491       16.0847651557
C         22.3522061396       29.8287383242       17.6262331124
C         16.3146696795       33.2259460943       14.4823852566
C         18.2217699571       34.7301212014       14.6268757287
C         15.8433981067       33.9358912022       13.3650632228
C         17.7457432762       35.4371135470       13.5096939020
C         16.5569680842       35.0415494397       12.8775208905
N         16.0912788116       35.7377043098       11.7782897637
H         22.5514628333       24.4653575055        5.1216933617
H         20.8432995124       26.2426745746        5.5178860448
H         24.0449255495       24.9884394133        9.1235747582
H         20.7289090623       27.3855766976        7.7131090499
H         22.9320398038       28.8989273072        9.3936729628
H         21.1563093193       28.6673858401        9.5495414551
H         23.1282884449       29.2426114730       11.6737116584
H         20.6521953902       27.8893647633       13.2547869758
H         18.4788262778       29.7208253161       12.4327193806
H         18.3277797703       27.0988794671       13.9945065158
H         17.0003374981       27.9310177980       13.2112253172
H         19.0982174656       29.1647196731       15.3597118551
H         17.1647321099       30.3261204187       15.7437162026
H         20.3580339391       31.0700665733       14.1717644321
H         18.8289261685       31.8389983942       13.8790652870
H         19.4106804461       25.3456660831       12.7857365663
H         17.3529850798       28.4384173320       10.5818961175
H         19.8596506937       24.1355857402       10.6651623082
H         17.8088623632       27.2249306664        8.4603839181
H         20.3762922294       31.7108094748       17.8370573320
H         19.6788956712       30.1963086473       17.2773827005
H         19.0578006787       25.0683580583        8.4995542308
H         21.5686656532       29.9426647000       15.6361886728
H         23.5407612414       31.4875174908       15.7714942083
H         22.1006713194       32.3736889224       15.2461647598
H         22.6676688914       32.5233886048       16.9200736205
H         22.4880731491       30.4506003575       18.5205826018
H         21.7572694283       28.9509221632       17.9095359203
H         23.3404775850       29.4726180014       17.3080285675
H         15.7556240990       32.3679529597       14.8479890723
H         19.1464176401       35.0405351505       15.1079394807
H         14.9237526174       33.6253288766       12.8767901104
H         18.3017871976       36.2916894485       13.1339753358
H         16.6008269534       36.5378550143       11.4199576804
H         15.2331091971       35.4584629197       11.3158701271
    77
VM2 Rank=14     G=187.700           E=98.566            -TS=89.134              
C         24.1066673581       23.7268639205        7.0026597374
C         23.0576190461       23.2942436864        7.8261567765
C         24.7193483416       24.9656269370        7.2500288293
F         22.4667814271       22.1044691639        7.5915390950
C         22.6171227189       24.0918679450        8.8924161443
C         24.2777711533       25.7669747561        8.3169367919
C         23.2208794045       25.3390917852        9.1469703998
N         22.7666511589       26.1590933238       10.2206682410
C         22.3974825906       25.7342044537       11.4847883963
C         22.6048768740       27.6018145322       10.0666700850
O         22.0144174491       26.8321357405       12.1966548640
O         22.4017695908       24.5927577800       11.9128189311
C         22.2197373833       28.0750240139       11.4781101898
C         20.9937661258       29.0072756501       11.4962522543
N         19.9520894750       28.6033851367       12.3019422116
O         20.9205244774       30.0091440760       10.8051858546
C         18.5572341365       29.0203203059       12.0881213538
C         17.6633566633       27.7593270042       12.0045855750
C         18.0830996883       30.0288707457       13.1700834521
C         18.1761324359       26.7515011984       10.9822926207
O         16.7319349272       30.4204829626       12.9168440297
C         18.9824342186       31.2939929332       13.2018423264
C         18.7154397306       25.5217024299       11.4027593687
C         18.1416525167       27.0570921671        9.6093812312
N         18.5113021776       32.3945080884       14.0919618631
C         19.2069274143       24.6040691224       10.4600116481
C         18.6388030735       26.1427964595        8.6660122942
C         19.2690182687       33.6672897233       13.9295905996
S         18.1216123764       31.9307630460       15.6981986272
C         19.1688718790       24.9144073112        9.0910010422
C         19.3164980233       34.2402022378       12.4873019801
O         16.7600485716       31.3886149757       15.5989225595
O         19.2565253487       31.1363154124       16.1833173038
C         18.0129296873       33.4675486188       16.6500638237
C         17.8985323131       34.4264229465       11.8998425732
C         20.0648371551       35.5902074784       12.4822168589
C         16.8458644137       34.2551653989       16.5921434491
C         19.0995812213       33.8975204040       17.4377710750
C         16.7685799526       35.4579339724       17.3145062685
C         19.0167861558       35.1010969126       18.1582952490
C         17.8527116069       35.8824886041       18.0978505115
N         17.7747814696       37.0663866398       18.8062835139
H         24.4424421280       23.1032659848        6.1790286432
H         25.5355940123       25.3046990900        6.6166011296
H         21.8054570236       23.7336106281        9.5161915450
H         24.7688184808       26.7190427280        8.4967737857
H         23.5351732887       28.0824738730        9.7417550961
H         21.8034720351       27.8115392200        9.3454760374
H         23.0579883483       28.6215223389       11.9275390281
H         20.1175313827       27.7484942265       12.8193695227
H         18.4903202493       29.5319872100       11.1175047039
H         17.5961211454       27.2961573051       12.9970210280
H         16.6403153491       28.0548686984       11.7391424841
H         18.1447575346       29.5239802736       14.1438401665
H         16.4402803097       30.9105687394       13.7216243322
H         19.9938643839       30.9947327638       13.5066660473
H         19.0517121313       31.6426853341       12.1660767527
H         18.7567132438       25.2761410556       12.4605244805
H         17.7338175218       28.0070458284        9.2743055027
H         19.6195622316       23.6547225514       10.7923512010
H         18.6109015175       26.3854149264        7.6067123457
H         18.8188774166       34.4539620861       14.5460018742
H         20.2974024254       33.5268954092       14.2901653168
H         19.5487781511       24.2048028905        8.3601811747
H         19.8825603815       33.5575615536       11.8392139981
H         17.9466112465       34.8479157128       10.8878080205
H         17.3660317989       33.4689056132       11.8338288402
H         17.2993669797       35.1033634674       12.5220813307
H         19.5474451461       36.3341947290       13.1018851616
H         21.0849290750       35.4744626512       12.8705738636
H         20.1398654255       35.9917887610       11.4634581864
H         16.0022932707       33.9368890037       15.9840018288
H         20.0080272481       33.3019928491       17.4889796902
H         15.8661937294       36.0611724053       17.2644064353
H         19.8584089153       35.4276115618       18.7631120536
H         16.9375243757       37.6372602686       18.7675611559
H         18.5539195548       37.3806720472       19.3742340634
    77
VM2 Rank=15     G=187.725           E=99.131            -TS=88.594              
C         24.1449037448       23.5539783215        7.0337611938
C         23.1051859982       23.1397309352        7.8782141946
C         24.7456007688       24.8070466867        7.2337147682
F         22.5259015431       21.9362438155        7.6891880149
C         22.6620281304       23.9698416294        8.9182591164
C         24.3013459078       25.6408864467        8.2742746988
C         23.2535167931       25.2317667779        9.1250958321
N         22.7968743627       26.0844118250       10.1722479565
C         22.4374942292       25.7004126422       11.4523000050
C         22.6229162278       27.5199236782        9.9706050612
O         22.0526715649       26.8197207409       12.1291347648
O         22.4503497959       24.5740918647       11.9185361141
C         22.2564322392       28.0388319411       11.3708124770
C         21.0373288605       28.9801129161       11.3751801828
N         20.0076175293       28.6147080651       12.2138285512
O         20.9582083588       29.9551051910       10.6472911888
C         18.6107280098       29.0258624124       12.0017723848
C         17.7213700775       27.7616804294       11.9160655122
C         18.1357371198       30.0312981129       13.0854876075
C         18.2451458756       26.7492280624       10.9036355239
O         16.7779765097       30.4104995697       12.8454974623
C         19.0247160450       31.3034801877       13.1105068875
C         18.7542300038       25.5100829413       11.3341377847
C         18.2519245094       27.0591072599        9.5311683949
N         18.5344990890       32.3860682542       14.0016367604
C         19.2563939950       24.5876267513       10.4018351898
C         18.7606738616       26.1402680516        8.5984726752
C         19.1570487431       33.7010731421       13.7186365062
S         18.1247131513       31.9623083664       15.6131949890
C         19.2602551290       24.9026412272        9.0333913169
C         18.1051431178       34.8023138745       13.4380407789
O         16.7389318783       31.4839958469       15.5249912036
O         19.2275866185       31.1141979232       16.0808002598
C         18.1485252797       33.4915984746       16.5869456053
C         18.7817340954       36.1870892167       13.3758870655
C         17.3388841467       34.5222509263       12.1260842307
C         19.3535400851       33.9578343400       17.1507723107
C         16.9586095540       34.2134869884       16.8109819013
C         19.3710259271       35.1446397474       17.9026374864
C         16.9814090929       35.3998578070       17.5635387109
C         18.1868457937       35.8687791808       18.1072524529
N         18.2069762365       37.0369174287       18.8451848785
H         24.4828087353       22.9052283188        6.2306853252
H         25.5547387961       25.1320609810        6.5840096914
H         21.8575514611       23.6250999742        9.5588006730
H         24.7835785025       26.6035799530        8.4174776840
H         23.5439683865       27.9958865030        9.6141314642
H         21.8081376348       27.6986582865        9.2560414265
H         23.1037114032       28.5925830265       11.7936564567
H         20.1777478426       27.7795211963       12.7610876098
H         18.5398555752       29.5396843088       11.0326800542
H         17.6472772421       27.3035945003       12.9103508684
H         16.6998099547       28.0533067608       11.6408052622
H         18.2096295314       29.5293132576       14.0599190342
H         16.4937921497       30.9214557859       13.6396389828
H         20.0406667913       31.0177854820       13.4134879084
H         19.0896718998       31.6778781041       12.0800910496
H         18.7635009190       25.2607962751       12.3917933512
H         17.8677061804       28.0160511087        9.1882263363
H         19.6446377665       23.6308371410       10.7419801606
H         18.7650413299       26.3864370335        7.5396390204
H         19.8103756724       34.0034098338       14.5459626860
H         19.8064354971       33.6338083064       12.8349907787
H         19.6487484640       24.1894328805        8.3106646090
H         17.3742503987       34.8253013240       14.2544371395
H         18.0407914218       36.9765128105       13.1957702531
H         19.2887550820       36.4168587665       14.3222389787
H         19.5261377868       36.2296034373       12.5703272684
H         18.0217993953       34.4909553827       11.2675698996
H         16.8124651788       33.5600255677       12.1743778497
H         16.5898500986       35.3014426857       11.9363038516
H         20.2769544014       33.4034298817       17.0004781538
H         16.0182164189       33.8604899080       16.3942977340
H         20.3053266962       35.5014892829       18.3273818872
H         16.0614566423       35.9552205098       17.7244815846
H         17.3555986896       37.5662889829       18.9973237294
H         19.0740412491       37.3825437862       19.2413754225
    77
VM2 Rank=16     G=187.738           E=98.894            -TS=88.845              
C         23.1028803514       22.8064902868        6.7600263282
C         21.8254608624       23.3632694871        6.9179900436
C         24.2225990365       23.4729152216        7.2834105846
F         20.7481381802       22.7242548163        6.4173539862
C         21.6599613704       24.5802718233        7.5955881646
C         24.0586605861       24.6909578126        7.9650147045
C         22.7764545792       25.2519103443        8.1312797317
N         22.6125803262       26.4859943689        8.8212924912
C         23.2414418886       26.8613783630        9.9935650053
C         21.7328047056       27.5328258620        8.3149236906
O         22.8452548784       28.1311825340       10.2885061290
O         24.0154304176       26.1980385868       10.6621948307
C         21.8892710910       28.6715669936        9.3403272275
C         20.5601644237       29.0697156949       10.0143027345
N         20.6326004398       29.3048802327       11.3702865971
O         19.5032697746       29.1288216964        9.4079256275
C         19.4764153170       29.2630439672       12.2767300638
C         19.4680613160       27.9185657933       13.0535222020
C         19.4786737246       30.5216834289       13.1899883509
C         19.5806354733       26.6981513158       12.1464499814
O         20.6329363821       30.5349789800       14.0372606128
C         18.1929651542       30.6513207629       14.0493770470
C         20.7481421865       25.9122781219       12.1528249395
C         18.5206352141       26.3510380699       11.2890605129
N         18.1894103759       31.8102928654       14.9785790805
C         20.8517572653       24.7876898098       11.3174153198
C         18.6245506061       25.2289176881       10.4501544491
C         17.1706823462       31.7061194327       16.0499362245
S         18.6357040857       33.3476339090       14.3606009184
C         19.7884615934       24.4440260515       10.4679286207
C         17.7989139504       31.7720467273       17.4636266911
O         20.1026763169       33.3599069022       14.4298450423
O         17.8984231626       33.4807186525       13.0983560054
C         17.9892840139       34.5882885042       15.5140840654
C         16.6962567213       31.8910580725       18.5356409769
C         18.6838231720       30.5364116058       17.7416321417
C         16.6676752572       35.0612940675       15.3836853079
C         18.8095092516       35.1088081440       16.5355055081
C         16.1670009662       36.0200752363       16.2804721454
C         18.3040316813       36.0673472826       17.4299359116
C         16.9823917688       36.5217976179       17.3061276335
N         16.4870097855       37.4630328667       18.1882723706
H         23.2222037275       21.8639130637        6.2334530189
H         25.2156321797       23.0469763293        7.1614884740
H         20.6608173795       24.9885978932        7.7087729787
H         24.9339942324       25.1986639905        8.3624218598
H         22.0545710226       27.8561651930        7.3170045697
H         20.6954499201       27.1765020386        8.2749091291
H         22.3015989065       29.5672847508        8.8601110787
H         21.5540630030       29.2437136154       11.7865431257
H         18.5597086429       29.3042172867       11.6721541952
H         20.2891895981       27.9175373928       13.7816344850
H         18.5460556981       27.8343695336       13.6395686437
H         19.5229181064       31.3879560695       12.5157073868
H         20.6771551304       31.4421076539       14.4201361502
H         17.3272673308       30.7185443172       13.3770951934
H         18.0818972887       29.7318718126       14.6362141494
H         21.5785137647       26.1740926889       12.8033656481
H         17.6175550683       26.9549834651       11.2694928488
H         21.7572364087       24.1857294982       11.3264794269
H         17.8022329603       24.9667768457        9.7892878069
H         16.4116837278       32.4896136729       15.9375580881
H         16.6293206229       30.7534222548       15.9719118461
H         19.8673666442       23.5723886642        9.8229854932
H         18.4337218723       32.6627551051       17.5380103897
H         17.1332324734       31.9582129333       19.5402140466
H         16.0913997276       32.7932355810       18.3753327298
H         16.0259768347       31.0220823066       18.5141281153
H         19.5039236787       30.4665819657       17.0150553535
H         19.1310833357       30.5927275776       18.7421315102
H         18.0996185980       29.6093143416       17.6824682584
H         16.0272955407       34.6805703177       14.5914719011
H         19.8354500602       34.7642089507       16.6417332544
H         15.1448021353       36.3740122777       16.1779504273
H         18.9400308727       36.4575215000       18.2198155293
H         17.0697797948       37.8304868513       18.9323097324
H         15.5330398829       37.7966845813       18.1054599219
    77
VM2 Rank=17     G=187.836           E=98.236            -TS=89.600              
C         23.8885968241       24.0160987481        6.6179800830
C         23.2787229310       23.5192941326        7.7785299119
C         24.0956455403       25.3975990386        6.4783306310
F         23.0784154073       22.1924177736        7.9161552058
C         22.8736763698       24.3937746184        8.7975513836
C         23.6886341248       26.2754025366        7.4977372474
C         23.0711303557       25.7826683916        8.6661641866
N         22.6488264256       26.6764761171        9.6933810928
C         22.7608454216       26.4780203112       11.0584735236
C         21.9909032064       27.9428163569        9.3848843279
O         22.2318901213       27.5692752584       11.6817587106
O         23.2391100680       25.5130205252       11.6295390514
C         21.8536277498       28.6207947956       10.7579884404
C         20.4500244963       29.1972768049       11.0203927762
N         19.8456530126       28.7800161381       12.1859078847
O         19.8846695267       29.9337569494       10.2302394099
C         18.3866658135       28.7769851208       12.3837047710
C         17.9232971124       27.3217772776       12.6436736825
C         17.9645005543       29.7668574999       13.5048846607
C         18.4542948486       26.3412023646       11.6032638686
O         16.5613288592       29.6562534084       13.7522620940
C         18.3058213538       31.2349881658       13.1252657091
C         19.3626354971       25.3330239568       11.9752982763
C         18.0645489256       26.4559076809       10.2560024695
N         18.3429983774       32.1860673818       14.2693197182
C         19.8689036389       24.4444199060       11.0129294776
C         18.5768983127       25.5730624485        9.2910480114
C         19.3390634317       31.9028306845       15.3384811567
S         16.8484251901       32.8463105882       14.7691193241
C         19.4771254887       24.5648386551        9.6698822509
C         20.7899937848       31.6782621535       14.8369583204
O         16.2742598434       33.4295490206       13.5505261570
O         16.1545024487       31.7989597174       15.5303172027
C         17.3207160805       34.2456864510       15.8122747396
C         21.3276768329       32.9164941633       14.0841046413
C         21.7152068652       31.3466860616       16.0264067824
C         17.1288420235       34.1918003252       17.2069742339
C         17.9076887985       35.3896581358       15.2368476836
C         17.5177342126       35.2740150734       18.0146756542
C         18.2952376863       36.4687856969       16.0490858140
C         18.1007386938       36.4129197849       17.4378351879
N         18.4835237444       37.4749497811       18.2348442456
H         24.1998173649       23.3323866880        5.8333370212
H         24.5713721298       25.7882519713        5.5819351450
H         22.4056138770       23.9837535168        9.6859261990
H         23.8643775324       27.3401282217        7.3742286305
H         22.5931816417       28.5619640934        8.7097614524
H         21.0060965161       27.7502093938        8.9381979622
H         22.5706091528       29.4473936121       10.8358024631
H         20.4017087515       28.1520271211       12.7536043849
H         17.9023534234       29.1130562670       11.4561368609
H         18.2401278739       27.0178270118       13.6492172867
H         16.8265709956       27.2839462618       12.6483572137
H         18.5213303132       29.4856708007       14.4076868438
H         16.3516788752       30.2387565271       14.5209768932
H         19.2782678373       31.2556088920       12.6217008851
H         17.5835183145       31.5764768272       12.3718871171
H         19.6791030971       25.2375787397       13.0104691492
H         17.3693449634       27.2352659240        9.9557255755
H         20.5663736137       23.6651684744       11.3095612486
H         18.2741338465       25.6688450033        8.2513960847
H         19.3730515933       32.7384342946       16.0487370630
H         19.0188832884       31.0233984061       15.9130245399
H         19.8690327424       23.8780478569        8.9238157506
H         20.8125235163       30.8150999956       14.1582551436
H         20.7168819425       33.1426745420       13.2012595784
H         21.3253694451       33.8030578522       14.7312470552
H         22.3565363479       32.7492439701       13.7410424301
H         21.3678475482       30.4499401512       16.5555070028
H         22.7398726861       31.1546025187       15.6830367081
H         21.7489556498       32.1748273422       16.7462462079
H         16.6817231879       33.3121836494       17.6641183353
H         18.0663564258       35.4380886955       14.1620176801
H         17.3674685755       35.2270722915       19.0898268424
H         18.7482850504       37.3480933459       15.5993915844
H         18.3457483740       37.4430548486       19.2390319763
H         18.9048079747       38.3018542685       17.8260252259
    77
VM2 Rank=18     G=187.857           E=99.254            -TS=88.604              
C         23.3255521819       24.0581257807        6.2906156519
C         24.3691427760       24.7947375257        6.8702221539
C         22.1183333243       23.8921178110        6.9886060264
F         25.5296323556       24.9541234253        6.2011419661
C         24.2141670737       25.3668656364        8.1420554845
C         21.9615766785       24.4638065011        8.2626170790
C         23.0070601275       25.2035657118        8.8491191179
N         22.8407348733       25.7903848526       10.1338590198
C         22.2951305641       25.1835980869       11.2491316265
C         23.2172684928       27.1752909890       10.3921977156
O         22.2817010449       26.1039547574       12.2544139934
O         21.9004251679       24.0343711165       11.3462642546
C         22.7598151912       27.4120194878       11.8431386386
C         21.6719618438       28.4998471463       11.9546296051
N         20.5417942683       28.1403583797       12.6527343383
O         21.7752048913       29.5958092056       11.4289684616
C         19.2804020796       28.8907528443       12.6161877099
C         18.0871537748       27.9025133061       12.6095484423
C         19.2283667684       29.9314264195       13.7699117018
C         18.1521998887       26.9337753568       11.4357591507
O         19.1598489203       29.2727513236       15.0384015979
C         18.0376965059       30.9135974410       13.6078827185
C         17.7620097862       27.3540789007       10.1512271719
C         18.6214679242       25.6198977747       11.6202141683
N         18.1624592358       32.1794529492       14.3808746227
C         17.8362687111       26.4694354670        9.0623924582
C         18.6952628223       24.7343197599       10.5325069681
C         19.3366823039       33.0400880382       14.0700332588
S         17.6683334019       32.1297305635       16.0162675644
C         18.3012957481       25.1584502564        9.2531987897
C         19.5293002769       33.3663364260       12.5659005129
O         16.3002014662       31.5993395491       15.9740831584
O         18.7393941947       31.4571977270       16.7633751775
C         17.5100801597       33.8721452048       16.4727043314
C         18.3056440449       34.1137044439       11.9884345191
C         20.8019604452       34.2163194480       12.3690013878
C         16.4704945231       34.6530904657       15.9307698161
C         18.4377152578       34.4658686692       17.3512798114
C         16.3596139430       36.0127630261       16.2675766687
C         18.3219747015       35.8259714695       17.6852362198
C         17.2840387206       36.6007177758       17.1446865739
N         17.1736335398       37.9382989801       17.4738303668
H         23.4540863826       23.6189055735        5.3054540316
H         21.3058486691       23.3225496988        6.5438424391
H         25.0363477335       25.9292816690        8.5733545641
H         21.0233200093       24.3314338418        8.7934068155
H         24.3032291730       27.3043260069       10.3075357743
H         22.7063629788       27.8475230779        9.6900433345
H         23.6048742754       27.7218718294       12.4699237962
H         20.5435023060       27.2166321024       13.0660019025
H         19.2505257346       29.4481010569       11.6690559507
H         18.0642454807       27.3476180026       13.5563132586
H         17.1437149817       28.4591233992       12.5641573838
H         20.1628159411       30.5036851224       13.7068181114
H         19.2269076249       29.9677353520       15.7351271269
H         17.9329116569       31.1549963340       12.5434853107
H         17.1115976920       30.3948699145       13.8884589732
H         17.4041466516       28.3684153935        9.9963289201
H         18.9340444165       25.2850604291       12.6056960637
H         17.5338340104       26.8000206690        8.0718907303
H         19.0618601190       23.7215446317       10.6817491327
H         19.2458939494       33.9993464826       14.5949640207
H         20.2501848075       32.5657600753       14.4531576935
H         18.3581841299       24.4735045672        8.4108899829
H         19.6731984565       32.4330839526       12.0041154523
H         18.1336504314       35.0583485126       12.5203420139
H         18.4543863343       34.3448432093       10.9259878697
H         17.3933978563       33.5100726706       12.0716809373
H         20.7273852737       35.1734301741       12.9014356739
H         21.6881916126       33.6868725379       12.7421636751
H         20.9671530630       34.4321164310       11.3055608088
H         15.7533626903       34.2057656677       15.2463810484
H         19.2479499684       33.8751780815       17.7722761454
H         15.5559980786       36.6101208019       15.8456430896
H         19.0402413149       36.2787694193       18.3633234157
H         16.4274062904       38.5054889127       17.0867493288
H         17.8380081559       38.3711819382       18.1059835513
    77
VM2 Rank=19     G=187.857           E=99.166            -TS=88.692              
C         23.7230151991       23.4263609619        6.8253818184
C         24.0572867686       24.7817025341        6.6943152904
C         23.0490900562       22.9846669516        7.9747692673
F         24.7090993052       25.2077975035        5.5927569571
C         23.7200845446       25.6981100784        7.7018964263
C         22.7115456611       23.9008874007        8.9851815227
C         23.0400264337       25.2661412785        8.8587741661
N         22.6869016888       26.1968949961        9.8796428661
C         22.7527975760       25.9891349235       11.2465743954
C         22.1649825465       27.5230251929        9.5612188351
O         22.3233165244       27.1281415447       11.8609930571
O         23.1217259870       24.9821828448       11.8263007521
C         22.0786211005       28.2139450636       10.9319001889
C         20.7429678302       28.9432450058       11.1685822210
N         20.0557706216       28.5717793042       12.3030423002
O         20.2903514226       29.7556191289       10.3799923337
C         18.5971184183       28.7095086845       12.4408455179
C         17.9834079979       27.3166508280       12.7235496351
C         18.2176122319       29.7708695603       13.5083932860
C         18.4385155965       26.2651487238       11.7175813813
O         16.7955442077       29.8813087803       13.6101198974
C         18.8154192460       31.1614557522       13.1645143839
C         19.2583159865       25.1971627472       12.1265074095
C         18.0696890299       26.3732209698       10.3639888485
N         18.3583204800       32.2683795060       14.0432911373
C         19.6978831758       24.2436338397       11.1939293368
C         18.5152550316       25.4245394288        9.4289047526
C         18.6194486773       33.6113354699       13.4730313058
S         18.4537441826       32.0257879167       15.7393847049
C         19.3274681865       24.3576953254        9.8442574379
C         17.3350057200       34.4712281097       13.3794949361
O         17.2127286891       31.3173590569       16.0784703863
O         19.7837369367       31.4502408461       15.9720544309
C         18.4141677591       33.6649647988       16.5133457901
C         17.6883725651       35.9237084739       12.9991321431
C         16.3384820671       33.8784852052       12.3585083935
C         17.1979498047       34.2055330137       16.9779097639
C         19.6041154189       34.4020595779       16.6808235178
C         17.1706073107       35.4774959802       17.5743098665
C         19.5714766100       35.6734642759       17.2779693830
C         18.3554490230       36.2142967851       17.7221631922
N         18.3255823806       37.4658316310       18.3071967638
H         23.9878880712       22.7237371107        6.0404431490
H         22.7891106079       21.9344517471        8.0834838284
H         23.9988425434       26.7391703293        7.5767859327
H         22.1913681006       23.5420836683        9.8681561932
H         22.8354321423       28.0772645796        8.8940268686
H         21.1715904693       27.4302520530        9.1018432154
H         22.8813034625       28.9561649099       11.0222065628
H         20.5218835840       27.8794602078       12.8770124864
H         18.1856432310       29.0569890012       11.4827055603
H         18.2447514248       27.0070781543       13.7432462096
H         16.8886449263       27.3900065034       12.7009988436
H         18.6295319406       29.4370701749       14.4706148693
H         16.6224547459       30.4497299486       14.3971782899
H         19.9105701339       31.0945847521       13.2068216790
H         18.5468300851       31.3849889770       12.1233388129
H         19.5584071154       25.1059124459       13.1669299473
H         17.4428431595       27.1979527568       10.0356159713
H         20.3280813696       23.4194827706       11.5185162947
H         18.2293728835       25.5152346180        8.3840209470
H         19.3843990441       34.1356932219       14.0583678799
H         19.0299384500       33.5218665926       12.4578762276
H         19.6682517943       23.6211371021        9.1209928150
H         16.8393416971       34.4942544237       14.3567463152
H         18.1866066242       35.9684008073       12.0220776098
H         16.7852791044       36.5454048131       12.9487119314
H         18.3583881285       36.3708189697       13.7452003972
H         16.7798256844       33.8332950867       11.3547291352
H         16.0408396252       32.8607221460       12.6429306883
H         15.4273197615       34.4874226898       12.3020449912
H         16.2729234659       33.6443681412       16.8684035528
H         20.5526130417       33.9917335901       16.3422514019
H         16.2278340777       35.8909112467       17.9220303177
H         20.4919506110       36.2385814882       17.3964448746
H         17.4508225910       37.8639142447       18.6305386431
H         19.1774489897       38.0046699678       18.4176602051
    77
VM2 Rank=20     G=187.858           E=99.609            -TS=88.249              
C         22.8774911573       23.9300348372        6.5672679532
C         22.4349968568       25.2484023937        6.7491991160
C         23.2788388192       23.1702045282        7.6780163583
F         22.0439002152       25.9782153341        5.6842877788
C         22.3915913851       25.8119220663        8.0329406682
C         23.2327167180       23.7317272027        8.9655224500
C         22.7851254392       25.0545048892        9.1533625860
N         22.7343636026       25.6204896680       10.4574008119
C         22.2442102265       25.0113362546       11.5972129663
C         23.2407826996       26.9614607158       10.7274339886
O         22.3909292570       25.8884125812       12.6306925760
O         21.7627971866       23.8956497933       11.6922001229
C         22.9765608396       27.1547156344       12.2305935949
C         22.0486996933       28.3540873620       12.5034433898
N         20.7414513857       28.0401197327       12.8025538571
O         22.4152331618       29.5105515248       12.3829073996
C         19.6204982490       28.9536282823       12.5428267454
C         18.3682495099       28.1295654849       12.1489052567
C         19.3923126157       29.8973926114       13.7559394620
C         18.6379330136       27.1986371352       10.9730428393
O         19.0743509994       29.1254084616       14.9130030962
C         18.2800332252       30.9437138370       13.4937320843
C         18.7431298333       27.7180477719        9.6698281281
C         18.8052116811       25.8169648687       11.1816053012
N         18.3786951549       32.1722422172       14.3268098219
C         19.0078157804       26.8650453806        8.5853900303
C         19.0704095902       24.9635352576       10.0979035147
C         19.5640706063       33.0414821596       14.0989807601
S         17.8423955033       32.0668979021       15.9473309779
C         19.1696357836       25.4868943971        8.7993049762
C         19.7825153763       33.4796587152       12.6277191755
O         16.5620648579       31.3492500546       15.8868919298
O         18.9586310583       31.5965881622       16.7768559922
C         17.4082535141       33.7812981361       16.3245502865
C         18.5597769798       34.2496671093       12.0785182234
C         21.0460748881       34.3588864548       12.5209268627
C         16.3146774789       34.3910648884       15.6790122366
C         18.1731376629       34.5258230426       17.2442140577
C         15.9889845085       35.7300242705       15.9538903482
C         17.8428429511       35.8644422308       17.5160443207
C         16.7515716482       36.4680313389       16.8722133445
N         16.4300388864       37.7849753112       17.1405246101
H         22.9080660833       23.5013210879        5.5696742677
H         23.6238655726       22.1480128122        7.5422554499
H         22.0344594581       26.8300141881        8.1506335641
H         23.5465478102       23.1343713372        9.8179418401
H         24.3145137664       27.0167108915       10.5079580876
H         22.7000239926       27.7097311024       10.1337510149
H         23.9175252224       27.3277649047       12.7671824799
H         20.5372214977       27.0508462676       12.8718166421
H         19.8902134924       29.5819821368       11.6816862048
H         18.0189854007       27.5521639885       13.0145605316
H         17.5455100573       28.8058404133       11.8876114527
H         20.3389659909       30.4274272517       13.9219922101
H         19.7803147183       28.4489878924       14.9758892237
H         18.3040286732       31.2214518448       12.4339169127
H         17.3058999040       30.4630891710       13.6534890874
H         18.6214826178       28.7840947607        9.4977979561
H         18.7334196136       25.4024135428       12.1836339926
H         19.0894900444       27.2716102956        7.5804520073
H         19.2050421498       23.8977857171       10.2660934943
H         19.4687530969       33.9567859213       14.6973764020
H         20.4679798871       32.5327066730       14.4598054383
H         19.3787326629       24.8266076014        7.9612870956
H         19.9525399076       32.5910147156       12.0047845289
H         18.3570765239       35.1466879361       12.6778815111
H         18.7298898065       34.5655750829       11.0414245002
H         17.6573673629       33.6258759605       12.0909473328
H         21.2316735195       34.6520431543       11.4796089264
H         20.9447766697       35.2746624612       13.1177414562
H         21.9316823591       33.8165768562       12.8768281515
H         15.7222906863       33.8269271833       14.9624101159
H         19.0231891031       34.0687539360       17.7452878146
H         15.1447327252       36.1947118602       15.4519605729
H         18.4362963223       36.4337648513       18.2262560835
H         16.9754993537       38.3250972884       17.8031884239
H         15.6428931638       38.2284873458       16.6800139199
    77
VM2 Rank=21     G=187.868           E=98.436            -TS=89.432              
C         22.5915644068       22.7145473216        6.6910698860
C         23.5365272704       23.7479654633        6.6140827865
C         21.3624611687       22.9410037995        7.3310246008
F         24.7159804761       23.5333354096        5.9954587527
C         23.2619350470       25.0045974001        7.1742231095
C         21.0850780106       24.1991984379        7.8919272632
C         22.0340489986       25.2393960203        7.8236565875
N         21.7502999993       26.5140023261        8.3908279511
C         22.6219994057       27.3021604312        9.1187469186
C         20.4487488156       27.1504368830        8.2257778705
O         21.9746107706       28.4603625497        9.4283734934
O         23.7675513112       27.0351320812        9.4390308704
C         20.6107293612       28.5074379609        8.9361058012
C         19.5865286156       28.7284383118       10.0678458707
N         20.0909335886       29.2926937502       11.2195630866
O         18.4191329098       28.3856963590        9.9786869410
C         19.4498473249       29.1843119263       12.5377485891
C         20.1781702482       28.1075817940       13.3876085390
C         19.3856936297       30.5863116901       13.2081658209
C         20.3455719470       26.7777511711       12.6605303472
O         20.7012787294       31.0894469170       13.4623784218
C         18.5574359311       30.5944395576       14.5211390777
C         19.2228973636       25.9813997273       12.3694244096
C         21.6232290261       26.3392437490       12.2655742865
N         18.5099690235       31.9046413906       15.2340133521
C         19.3755318577       24.7592849127       11.6935159287
C         21.7777040678       25.1152926160       11.5937948197
C         17.8877506693       31.8379150547       16.5865949853
S         18.1192544551       33.2706179747       14.2695773849
C         20.6538762072       24.3238518561       11.3096695568
C         18.5196893085       30.8123097232       17.5661228250
O         19.3893527397       33.6368114631       13.6288819460
O         16.9230365680       32.8993483955       13.5040143273
C         17.7017847445       34.6006327635       15.4257158642
C         20.0406432567       31.0386839306       17.7276134114
C         17.8292027207       30.9062260476       18.9433899888
C         16.3554608966       34.8858300867       15.7294693184
C         18.7239675385       35.3467419158       16.0455900179
C         16.0383787857       35.9059132810       16.6424341503
C         18.4011988049       36.3655369637       16.9578997994
C         17.0593829171       36.6464951709       17.2575616884
N         16.7445610827       37.6479754160       18.1561693536
H         22.8121762000       21.7444821584        6.2548843005
H         20.6259978089       22.1434072449        7.3927912141
H         24.0061325841       25.7918077798        7.0983865352
H         20.1313776694       24.3573116155        8.3877180462
H         20.2186722542       27.2882725722        7.1618277397
H         19.6650707451       26.5472232205        8.7020017341
H         20.4996022003       29.3303821854        8.2196149905
H         21.0690944460       29.5549986026       11.1973162692
H         18.4137191273       28.8483147539       12.3925234820
H         21.1606746629       28.4911993986       13.6907536767
H         19.6243530796       27.9303078293       14.3163344307
H         18.8849179556       31.2449421981       12.4854348957
H         20.5862258931       32.0491677218       13.6560625431
H         17.5346681853       30.2703850878       14.2867675417
H         18.9965300433       29.8377897554       15.1762936174
H         18.2305190394       26.3134699711       12.6620084575
H         22.4983353443       26.9486458087       12.4754251663
H         18.5037466089       24.1495693611       11.4701859066
H         22.7675627081       24.7833831742       11.2899531796
H         17.9681155688       32.8103424331       17.0858333171
H         16.8159882090       31.6187030585       16.4839790169
H         20.7736870336       23.3760619313       10.7909314003
H         18.3500354363       29.7940466490       17.1917722161
H         20.4706485069       30.3178565020       18.4345199356
H         20.5659216926       30.9172917997       16.7715456736
H         20.2514499396       32.0486280222       18.1018424225
H         16.7508892001       30.7211661424       18.8549961027
H         18.2391280169       30.1617190299       19.6379812882
H         17.9680987697       31.8989446849       19.3911060623
H         15.5561923400       34.3158800292       15.2616375246
H         19.7669468334       35.1332425810       15.8233947156
H         14.9984026398       36.1202970601       16.8731552130
H         19.1943299438       36.9361449626       17.4333525104
H         15.7774404255       37.8583998476       18.3770839249
H         17.4762558691       38.1888396625       18.6039293537
    77
VM2 Rank=22     G=187.871           E=98.634            -TS=89.237              
C         23.7478095702       23.5019777650        6.9346709213
C         24.1944185676       24.8310062735        6.9230826881
C         22.9402316283       23.0492119855        7.9897672596
F         24.9744428229       25.2671991940        5.9125654913
C         23.8370976133       25.7104603356        7.9563399902
C         22.5822852044       23.9283466894        9.0257869113
C         23.0235900021       25.2673360830        9.0189890586
N         22.6502616071       26.1614334122       10.0650053662
C         22.5762991122       25.8683380868       11.4157431022
C         22.2599646630       27.5416390087        9.7909891032
O         22.1775917789       26.9992273666       12.0648794408
O         22.8160638547       24.8027470730       11.9571848876
C         22.0949490384       28.1537213430       11.1915893092
C         20.7956448903       28.9638475701       11.3567567284
N         19.9687522727       28.5588074904       12.3811387895
O         20.4858407804       29.8685861297       10.6003764960
C         18.5173530601       28.8010366034       12.3874281008
C         17.7825879862       27.4494720049       12.5591769964
C         18.1120357777       29.8539257924       13.4545310152
C         18.2485749847       26.4044974813       11.5516844008
O         16.6999823321       30.0722747130       13.4161054182
C         18.8432569407       31.2042398603       13.2257250589
C         18.9753868855       25.2779313663       11.9789420858
C         17.9847148361       26.5766525454       10.1804031386
N         18.3978336399       32.3308348306       14.0962349416
C         19.4264729266       24.3300208371       11.0460882205
C         18.4415284653       25.6329136353        9.2457541391
C         18.9562512169       33.6548318579       13.7017087545
S         18.3428518248       31.9889556425       15.7776257357
C         19.1603597015       24.5076740669        9.6787848404
C         18.6894493710       34.0846259639       12.2337963693
O         17.0600579332       31.2984612897       15.9655329890
O         19.6311269541       31.3709134846       16.1136116143
C         18.2099340006       33.5918131367       16.6099443162
C         17.1807470237       34.0598154340       11.8967259223
C         19.2555799448       35.4996034253       11.9890847950
C         16.9627874833       34.2416562509       16.6997627109
C         19.3532521889       34.2101087217       17.1546524480
C         16.8625739374       35.4947265421       17.3276209469
C         19.2472416492       35.4632216598       17.7816078390
C         18.0033530436       36.1069701848       17.8689134702
N         17.9024624855       37.3399368630       18.4846881888
H         24.0292092384       22.8279093301        6.1306720044
H         22.5925907510       22.0190426154        8.0057713712
H         24.2040656004       26.7310263559        7.9251352183
H         21.9582000914       23.5614496703        9.8350159990
H         23.0301350094       28.0795811595        9.2258845424
H         21.3107928641       27.5563685160        9.2384514428
H         22.9343334212       28.8281991185       11.4010368694
H         20.3225307390       27.7895035269       12.9370233165
H         18.2265008341       29.2066479032       11.4080519520
H         17.9301040208       27.0847314956       13.5834607264
H         16.7021354035       27.6053064749       12.4462366894
H         18.3976130735       29.4565585383       14.4381294958
H         16.4899510614       30.6055020930       14.2189016549
H         19.9203286486       31.0454723696       13.3679689418
H         18.6947369254       31.4544123583       12.1699915227
H         19.1944417423       25.1367632740       13.0339098806
H         17.4306965388       27.4468562229        9.8386538282
H         19.9849037406       23.4607736900       11.3842984735
H         18.2367642093       25.7728370842        8.1873401685
H         18.5238851268       34.4459881092       14.3250598002
H         20.0400425453       33.6609759662       13.8824196016
H         19.5098134377       23.7752842898        8.9554304599
H         19.2171766857       33.4057105023       11.5504321107
H         17.0055861128       34.3822767542       10.8625496813
H         16.7657862129       33.0491619352       12.0022854175
H         16.6169417808       34.7270000724       12.5611193076
H         18.7631342335       36.2416167204       12.6310465047
H         20.3329424069       35.5321071821       12.1965453588
H         19.1080866076       35.8045415597       10.9450417063
H         16.0739042767       33.7773553361       16.2789766810
H         20.3229303227       33.7222420103       17.0893671833
H         15.8980721375       35.9909679773       17.3923238968
H         20.1326587847       35.9351486478       18.1988175695
H         17.0075362773       37.8122240219       18.5513822060
H         18.7220521015       37.7895308792       18.8778016101
    77
VM2 Rank=23     G=187.880           E=98.721            -TS=89.159              
C         22.7982568304       23.8440627691        6.7726652961
C         21.5325032490       24.1514254403        7.2928965496
C         23.9483430065       24.1153104568        7.5318501033
F         20.4261909509       23.8939289680        6.5651309178
C         21.4100121572       24.7274232737        8.5658175666
C         23.8272641534       24.6936578364        8.8072090522
C         22.5572419345       25.0028280689        9.3339782249
N         22.4356093014       25.5996800806       10.6193857158
C         21.5285456856       25.2537411594       11.6030444940
C         23.2759797550       26.7222368022       11.0196487752
O         21.7163131639       26.1010243974       12.6540429388
O         20.7073325393       24.3535803851       11.5670188953
C         22.7211540242       27.1180817801       12.4001982736
C         22.1348774216       28.5447135868       12.4190392806
N         20.8582337736       28.6560531272       12.9207028344
O         22.7362795875       29.5129752339       11.9844634185
C         20.0102743015       29.8434802978       12.7574527629
C         18.5487607635       29.4042063509       12.4857399597
C         20.1652013706       30.7955265087       13.9766841676
C         18.4385992340       28.4980278529       11.2662599848
O         19.6284364487       30.1881955418       15.1553405334
C         19.4981728677       32.1729959775       13.7214972396
C         18.4886920356       29.0468709434        9.9719625578
C         18.3055953653       27.1057403313       11.4219032115
N         19.8669254178       33.2371326944       14.6979115234
C         18.4031895634       28.2134301104        8.8442243733
C         18.2183095532       26.2717216992       10.2951561321
C         21.3066640604       33.5961687127       14.7789084172
S         19.0291500510       33.3132502643       16.1877281915
C         18.2659132919       26.8254691921        9.0055890342
C         21.9795592074       33.9361194188       13.4226573590
O         19.5966762126       32.2598027061       17.0398509710
O         19.0750188761       34.7317616841       16.5633160102
C         17.3078548764       32.9602375425       15.7544803398
C         21.2863563956       35.1299440218       12.7273211312
C         23.4741607358       34.2529159650       13.6393111597
C         16.7390209946       31.7046150604       16.0470567232
C         16.5327142326       33.9337168574       15.0938002753
C         15.4107926163       31.4285242914       15.6811576063
C         15.2043933171       33.6530848679       14.7314520467
C         14.6420046328       32.4010465541       15.0236092497
N         13.3364260442       32.1262911872       14.6635367021
H         22.8850874683       23.3980805035        5.7859795298
H         24.9318115442       23.8780655506        7.1331468046
H         20.4225122363       24.9589435568        8.9500025169
H         24.7249654455       24.8947575326        9.3856205122
H         24.3243305474       26.4108105490       11.1038517921
H         23.1881755168       27.5429593627       10.2953264256
H         23.5088950077       27.0726607550       13.1620265046
H         20.4370016342       27.8057770964       13.2723232448
H         20.3610248017       30.3866104556       11.8683755143
H         18.1472522021       28.8949848419       13.3713466862
H         17.9155713385       30.2859980720       12.3338281992
H         21.2434629749       30.9551212264       14.1089123561
H         19.8672396612       30.7627363994       15.9197449961
H         19.7814320226       32.5024027826       12.7147716159
H         18.4113273190       32.0394310058       13.6854202199
H         18.5973278000       30.1200738867        9.8403533873
H         18.2741136709       26.6680839696       12.4161123894
H         18.4433304003       28.6431367100        7.8464486745
H         18.1185833828       25.1965034959       10.4228699524
H         21.4198793913       34.4723572558       15.4324299761
H         21.8613053139       32.7789392580       15.2593199664
H         18.1995040441       26.1801917105        8.1329734347
H         21.9269919698       33.0613731076       12.7599428773
H         20.2320625931       34.9118811143       12.5166989523
H         21.3244688587       36.0283738680       13.3566175611
H         21.7740241217       35.3634215830       11.7723265529
H         23.9920012928       33.4024582533       14.1013418187
H         23.9712214506       34.4659176521       12.6841473818
H         23.6048034882       35.1262151112       14.2914722586
H         17.3263900696       30.9407735683       16.5508807069
H         16.9626707943       34.9043300090       14.8575670315
H         14.9795247204       30.4571277626       15.9069560604
H         14.6125884709       34.4079572620       14.2209699594
H         12.7740369526       32.8237531332       14.1886940261
H         12.9225927919       31.2241519162       14.8710530509
    77
VM2 Rank=24     G=187.902           E=99.074            -TS=88.828              
C         23.4498205196       22.9184174193        7.0946851702
C         22.8040579975       24.1412885333        6.8613273174
C         23.9332339910       22.6199434711        8.3788917218
F         22.3369008338       24.4293073942        5.6290903595
C         22.6382103533       25.0668016299        7.9022422944
C         23.7655023858       23.5446191408        9.4238505619
C         23.1130393602       24.7726755222        9.1954192728
N         22.9435123835       25.7071146835       10.2552031150
C         22.5448380443       25.4191152062       11.5467404249
C         23.2085268741       27.1289777493       10.0700863871
O         22.5502131943       26.5849661891       12.2517590067
O         22.2405584695       24.3292930177       12.0003598647
C         22.8926737588       27.7429554138       11.4474359662
C         21.7480130843       28.7765315924       11.4039789340
N         20.8598044500       28.7186104597       12.4562641147
O         21.6023609500       29.5642736026       10.4839392637
C         19.5005096325       29.2760748061       12.4185349928
C         18.4711754547       28.1410262800       12.1700838639
C         19.2197468129       30.0936828660       13.7111833369
C         18.7807909738       27.3120128136       10.9289430617
O         19.2972696588       29.2370014623       14.8545552685
C         17.8440723695       30.8074972333       13.6654022840
C         19.2130495154       25.9785465449       11.0539956910
C         18.6448033027       27.8754971195        9.6471304706
N         17.7927918131       32.0902356354       14.4189300661
C         19.5001730090       25.2149029764        9.9104538916
C         18.9347711127       27.1139170469        8.5027282655
C         16.8858231784       33.0873123978       13.7934919853
S         17.7459491703       31.9901161235       16.1301878122
C         19.3583406127       25.7818276312        8.6341361765
C         17.4903690350       33.7531191428       12.5298899899
O         16.4650167408       31.3711562432       16.4904907964
O         19.0328060277       31.4041254755       16.5261825601
C         17.8236127988       33.7114939008       16.6836829986
C         16.4667565625       34.7196339416       11.8982108397
C         18.7949170535       34.5124089223       12.8617686298
C         19.0162391126       34.4465865678       16.5361053229
C         16.6912199284       34.3339869446       17.2456877782
C         19.0732983301       35.7900246012       16.9435799287
C         16.7538881282       35.6776450974       17.6524318032
C         17.9432486257       36.4072201996       17.5015726925
N         18.0010943903       37.7290570011       17.9003657184
H         23.5745011169       22.2075450382        6.2828461379
H         24.4365701045       21.6741597757        8.5647616215
H         22.1306386056       26.0041725784        7.6983555809
H         24.1464276150       23.3031369248       10.4130653315
H         24.2601728519       27.2899880375        9.8017194766
H         22.5578347170       27.5449448756        9.2903849451
H         23.7775852814       28.2421168406       11.8605673785
H         21.0667939721       28.0430722354       13.1820878707
H         19.4371477561       29.9758198948       11.5735383185
H         18.4331408683       27.4895595635       13.0524484789
H         17.4663931171       28.5680910497       12.0700120289
H         20.0000416893       30.8653623340       13.7738519881
H         19.3700194827       29.8334072179       15.6375520681
H         17.6162161299       30.9950827219       12.6100156227
H         17.0645453889       30.1243723112       14.0294410865
H         19.3305544459       25.5331339180       12.0384459107
H         18.3191605613       28.9064050835        9.5383604786
H         19.8355101322       24.1857851953       10.0144785329
H         18.8290457274       27.5556913219        7.5151419907
H         15.9308064599       32.6072837181       13.5385051289
H         16.6441757345       33.8964163243       14.4921110773
H         19.5787554594       25.1907030800        7.7486997456
H         17.7230347714       32.9823895190       11.7832237143
H         16.8711517413       35.1758501972       10.9854764695
H         15.5442616902       34.1908658283       11.6258889590
H         16.2032726495       35.5280456674       12.5926444235
H         18.6175251746       35.2956860663       13.6100709485
H         19.5598908502       33.8317633037       13.2562552812
H         19.2085358674       34.9890938139       11.9640032138
H         19.8949292143       33.9768988220       16.1003441152
H         15.7634563586       33.7790294874       17.3632168950
H         19.9955024359       36.3520851586       16.8243422481
H         15.8770972897       36.1529492537       18.0837458512
H         17.1887894089       38.1828814259       18.3034929638
H         18.8561745379       38.2636114030       17.7937397518
    77
VM2 Rank=25     G=187.906           E=99.144            -TS=88.762              
C         23.8930100022       24.2261621552        6.5339101638
C         22.5853599093       24.1334580815        7.0326919127
C         24.8996340838       24.8087169494        7.3213562154
F         21.6160141302       23.5764084146        6.2777391142
C         22.2787282052       24.6188568701        8.3123250240
C         24.5936275086       25.2966545704        8.6035357615
C         23.2813718536       25.2039566989        9.1087291959
N         22.9690691785       25.7087961360       10.4011643273
C         22.1942528197       25.0855339720       11.3608836509
C         23.4277820236       27.0228998646       10.8360882045
O         22.1028902995       25.9282343502       12.4282746222
O         21.6831677127       23.9808534317       11.2946179507
C         22.7503254206       27.2089365588       12.2060354715
C         21.7516733347       28.3845236564       12.2188265972
N         20.4859484569       28.0852052127       12.6687495874
O         22.0392386791       29.5012305709       11.8208741243
C         19.3204850095       28.9585488362       12.4830408681
C         18.0641655164       28.0971451448       12.1997250562
C         19.1604146926       29.9227006586       13.6921644967
C         18.2443769064       27.2035219327       10.9792991204
O         18.8154009744       29.1941258713       14.8744434345
C         18.1068518320       31.0277173378       13.4137009539
C         18.1261764254       27.7431552148        9.6855353714
C         18.5489685180       25.8382751627       11.1334873176
N         18.2076959869       32.2231037940       14.2948183771
C         18.3067695218       26.9262319293        8.5569202302
C         18.7283361184       25.0203241245       10.0058377467
C         19.4892966342       32.9793184052       14.2522124071
S         17.4366635997       32.1194736920       15.8166345506
C         18.6059659729       25.5637990255        8.7168351896
C         19.9672153201       33.3782181916       12.8314920310
O         16.0546119005       31.7340669604       15.5063647799
O         18.2988262440       31.2957545405       16.6744253388
C         17.3577578418       33.8362384673       16.3786932377
C         18.9328226413       34.2795912240       12.1195045523
C         21.3248572974       34.1065547737       12.9165054846
C         16.5002630257       34.7512953041       15.7370667139
C         18.1696583784       34.2757846376       17.4428971313
C         16.4543364973       36.0908756980       16.1588074718
C         18.1195017619       35.6164654221       17.8610616847
C         17.2628117444       36.5251023369       17.2205948880
N         17.2166760204       37.8431838210       17.6331296421
H         24.1228088684       23.8479926892        5.5418571819
H         25.9150402007       24.8822130391        6.9392473707
H         21.2613480156       24.5395541433        8.6798262626
H         25.3824565042       25.7416782654        9.2040515806
H         24.5192491539       27.0352271591       10.9443264094
H         23.1156726993       27.7942815167       10.1194892402
H         23.4974052957       27.3990076823       12.9862443002
H         20.3352434036       27.1381260892       12.9918236187
H         19.5043085887       29.5755723037       11.5919276032
H         17.8295562455       27.4881534284       13.0822665713
H         17.1953516294       28.7472737666       12.0433838913
H         20.1381283220       30.4013925469       13.8320214853
H         18.8218795645       29.8326562588       15.6262175249
H         18.2088908440       31.3453786141       12.3692540811
H         17.1041416709       30.5878864440       13.4948874145
H         17.8973336817       28.7974365858        9.5549630095
H         18.6512955840       25.4104744919       12.1272217509
H         18.2150310622       27.3489862029        7.5595730810
H         18.9668110743       23.9669993674       10.1323798903
H         19.3941426048       33.9080425079       14.8287412418
H         20.2773164186       32.3925877228       14.7431664908
H         18.7459755858       24.9312785018        7.8435673116
H         20.1230626040       32.4722939270       12.2295841485
H         17.9701268395       33.7668015896       12.0022234906
H         18.7557543099       35.2015792972       12.6882241433
H         19.2828565673       34.5606595296       11.1180966042
H         21.2443285628       35.0309507740       13.5031176325
H         22.0828711986       33.4682035648       13.3886289514
H         21.6898294595       34.3710182010       11.9156986916
H         15.8745237339       34.4234171754       14.9101982737
H         18.8398078357       33.5805333503       17.9430557485
H         15.7914169541       36.7921363214       15.6593716458
H         18.7479144376       35.9500618490       18.6823707063
H         16.6013081771       38.5064337564       17.1750757709
H         17.7982504333       38.1653773073       18.3988720831
    77
VM2 Rank=26     G=187.924           E=98.736            -TS=89.188              
C         21.7270152763       23.5171329412        7.2735249397
C         21.5128845211       24.9029176334        7.2477431351
C         22.1660429140       22.9019079910        8.4571000292
F         21.0865020424       25.4952977707        6.1133269552
C         21.7348402003       25.6770965448        8.3961331093
C         22.3855825084       23.6752699160        9.6098427028
C         22.1675553892       25.0672684118        9.5898480888
N         22.3859236338       25.8488543249       10.7583956373
C         21.9886612547       25.5315883129       12.0438426937
C         23.1068514351       27.1157997175       10.7050075893
O         22.4078057205       26.5351300747       12.8660589504
O         21.3747355530       24.5431946435       12.4068186052
C         23.1091492975       27.5958479458       12.1665207644
C         22.4281054915       28.9686035648       12.3253929763
N         21.1473936946       28.9422823972       12.8309833136
O         22.9463763089       30.0076910203       11.9539836442
C         20.1538855872       29.9877737391       12.5505676955
C         18.7460379507       29.3439522176       12.4598030960
C         20.2549781571       31.1286764164       13.6008336293
C         18.7029860541       28.1859625814       11.4701819394
O         20.0064475057       30.6036213907       14.9022413212
C         19.2920938787       32.3041727181       13.2984997091
C         18.7149864781       28.4377898616       10.0861356852
C         18.6733821845       26.8563482744       11.9302866274
N         19.5604124297       33.5456254115       14.0780866930
C         18.6926239227       27.3720972585        9.1710259261
C         18.6517516614       25.7902757015       11.0159207887
C         20.8819349181       34.1918185665       13.8736231847
S         18.9383712105       33.6988486527       15.6676747200
C         18.6594708630       26.0477708581        9.6361522671
C         21.2654993481       34.4621391764       12.3947040686
O         19.9240743109       33.1460801318       16.6044736335
O         18.5205222791       35.1049059529       15.7400235184
C         17.4079894074       32.7296320554       15.6863252536
C         20.2359404921       35.3813016408       11.6986853868
C         22.6692220679       35.0987703730       12.3208177273
C         17.3381697959       31.5093161124       16.3867636658
C         16.2743737614       33.1902775052       14.9870927204
C         16.1522066159       30.7557035795       16.3784037006
C         15.0900596369       32.4340520865       14.9828913623
C         15.0275161156       31.2158785655       15.6766553648
N         13.8626381257       30.4723259619       15.6686071802
H         21.5528802850       22.9249807763        6.3796800981
H         22.3349980943       21.8280435365        8.4820202975
H         21.5517869961       26.7460412205        8.3552392448
H         22.7265057398       23.1880251205       10.5199391512
H         24.1304637729       26.9598929457       10.3416343775
H         22.5862359439       27.8328195423       10.0571882506
H         24.1369739301       27.6844452797       12.5393748687
H         20.8057288848       28.0282360827       13.1010879518
H         20.3869395986       30.4202094296       11.5668498459
H         18.4309817855       29.0016021737       13.4540831470
H         18.0106997373       30.0981404617       12.1554965159
H         21.2845144638       31.5076103322       13.5552389534
H         20.5969403669       29.8267850525       14.9845645323
H         19.3650983238       32.5319862523       12.2287201051
H         18.2619653587       31.9654063420       13.4519139663
H         18.7436691739       29.4603989048        9.7197279225
H         18.6704313944       26.6466803812       12.9966430161
H         18.7032167927       27.5719867375        8.1024830877
H         18.6354856453       24.7649304102       11.3773178683
H         20.8908971305       35.1561019073       14.4006280517
H         21.6628306662       33.5765800164       14.3409039496
H         18.6467502907       25.2223136727        8.9287469992
H         21.3135758304       33.5085658098       11.8513622293
H         19.2363154937       34.9294204511       11.6945752587
H         20.1643968177       36.3500186355       12.2096722450
H         20.5202284124       35.5678765062       10.6552803305
H         23.4208925868       34.4437479859       12.7800810989
H         22.9677039053       35.2679513365       11.2782089764
H         22.6953909120       36.0645975953       12.8418818589
H         18.2067667165       31.1403358253       16.9271488910
H         16.3155408935       34.1312234372       14.4434019815
H         16.1085951385       29.8122882738       16.9155042898
H         14.2210516865       32.7939296524       14.4389167949
H         13.8103329960       29.5896487454       16.1648124501
H         13.0464138345       30.7968564204       15.1620940709
    77
VM2 Rank=27     G=187.989           E=98.335            -TS=89.654              
C         23.6798695298       23.7498605698        6.7214602619
C         23.7535260917       25.1254914168        6.4605144250
C         23.2302091286       23.3030369121        7.9738709191
F         24.1897798588       25.5574342657        5.2592857866
C         23.3781822528       26.0564921447        7.4408558519
C         22.8549348732       24.2340398316        8.9570970935
C         22.9217087945       25.6188255272        8.7007984233
N         22.5297682790       26.5624815737        9.6952489544
C         22.7892691820       26.4887074490       11.0528813282
C         21.7475739318       27.7491085700        9.3602325402
O         22.2397898744       27.5892524382       11.6412378135
O         23.3949265187       25.6119232712       11.6449267301
C         21.6984026566       28.5322125927       10.6823460169
C         20.2906775728       29.0413349781       11.0433312426
N         19.8351808662       28.6892004289       12.2948713228
O         19.5996988735       29.6706992687       10.2605082621
C         18.4063622222       28.6086895875       12.6412509373
C         18.0742549033       27.1509230662       13.0470198650
C         18.0273239707       29.6523158790       13.7284318056
C         18.5729071825       26.1303423639       12.0293346005
O         16.6668340538       29.4717845160       14.1268939761
C         18.2242604607       31.1056345433       13.2135796066
C         19.5821207655       25.2139583243       12.3780270572
C         18.0519593379       26.1187795494       10.7221722189
N         18.3083143970       32.1420183651       14.2782886148
C         20.0597313767       24.2916561290       11.4329121779
C         18.5350167295       25.2024616117        9.7734836161
C         19.4243443178       32.0055044396       15.2536532591
S         16.8281552336       32.7417854197       14.8856592054
C         19.5375843703       24.2867215758       10.1294223634
C         20.8298869196       31.8361279510       14.6189054377
O         16.0946832874       33.1928301892       13.6968030406
O         16.2903693398       31.7132791313       15.7861415649
C         17.3017193173       34.2437096981       15.7741777251
C         21.1996160902       33.0448179792       13.7292598329
C         21.8911300751       31.6562408846       15.7244140303
C         17.7446980615       35.3758147247       15.0625353517
C         17.2554798953       34.2837543237       17.1817173481
C         18.1339454060       36.5360683707       15.7529970956
C         17.6453938805       35.4468194282       17.8673258913
C         18.0846484768       36.5735225711       17.1550467872
N         18.4687616446       37.7153381395       17.8320796188
H         23.9723813540       23.0360263770        5.9567083364
H         23.1729496547       22.2375558007        8.1832320947
H         23.4533904870       27.1147112718        7.2134959699
H         22.5102817422       23.8712944244        9.9207472360
H         22.2276082073       28.3479164423        8.5774034516
H         20.7402757303       27.4509640283        9.0394033720
H         22.3597299482       29.4051952292       10.6195579250
H         20.4877033103       28.1482463736       12.8493351301
H         17.8110196440       28.8422413716       11.7474441025
H         18.5060793702       26.9453770399       14.0345220954
H         16.9884016672       27.0435460874       13.1638800961
H         18.6890587096       29.4772105075       14.5861154936
H         16.4934307337       30.0964129200       14.8711867042
H         19.1374270840       31.1489181275       12.6102492005
H         17.4077388719       31.3420473208       12.5183674163
H         19.9999045862       25.2168134527       13.3811654736
H         17.2777189101       26.8268734805       10.4392778121
H         20.8364679028       23.5842016616       11.7117998135
H         18.1310903433       25.2011196345        8.7642490386
H         19.4698572516       32.8935033161       15.8964841204
H         19.2269881671       31.1540462508       15.9185450537
H         19.9080386211       23.5747430037        9.3961859519
H         20.8456419395       30.9267370766       14.0033288885
H         22.1981045435       32.9176715947       13.2921405525
H         20.4886764585       33.1633611762       12.9021238351
H         21.1991456684       33.9763723083       14.3097763159
H         22.8872106110       31.5041236552       15.2891843426
H         21.9378678708       32.5375358119       16.3773000389
H         21.6634695091       30.7823330063       16.3482837282
H         17.7905953372       35.3525021132       13.9761968107
H         16.9205715828       33.4146321626       17.7430415557
H         18.4755043176       37.4058269453       15.1984540371
H         17.6077629304       35.4721772139       18.9529936903
H         18.7885521797       38.5333416637       17.3251381798
H         18.4372243669       37.7503879653       18.8450796535
    77
VM2 Rank=28     G=187.992           E=98.809            -TS=89.183              
C         21.9467764957       24.1553789206        6.6701854462
C         21.9267006902       23.3039978593        7.7845444833
C         21.9978637158       25.5461056885        6.8568872940
F         21.8811680340       21.9675401858        7.6065128553
C         21.9553870924       23.8334128625        9.0834473234
C         22.0278964149       26.0783724953        8.1569934249
C         22.0013695124       25.2273637481        9.2803153331
N         22.0292380209       25.7695366787       10.5958579657
C         21.2630942123       25.3573003965       11.6702514545
C         22.9387656214       26.8516673937       10.9560371099
O         21.6172656471       26.1152164590       12.7467308579
O         20.4174787490       24.4795630212       11.6833392476
C         22.6604096729       27.0800488450       12.4516535724
C         22.2365843083       28.5308440962       12.7496273667
N         20.8907025629       28.7233236923       12.9677826373
O         23.0177042975       29.4661882096       12.7140556342
C         20.2113678439       29.9983728867       12.7004650714
C         18.7830818307       29.7140949166       12.1676282981
C         20.2432379035       30.9059997737       13.9612062876
C         18.7911781697       28.7599952120       10.9794103125
O         19.5768839642       30.2516891938       15.0377274412
C         19.6198483563       32.3013289193       13.7066497816
C         19.2252364873       29.2058885997        9.7177354943
C         18.3911899908       27.4201924013       11.1387416369
N         19.8926813300       33.3092404987       14.7699686618
C         19.2561000122       28.3230299142        8.6254734761
C         18.4219853798       26.5367988039       10.0470898815
C         21.3152830202       33.6641302702       15.0064766180
S         18.9132988857       33.3442321703       16.1759999599
C         18.8536989370       26.9880129031        8.7900413033
C         22.1145926483       34.0747473168       13.7416121949
O         19.5041781567       32.4430671530       17.1727612475
O         18.7484388117       34.7784820058       16.4454018596
C         17.2843159118       32.7523269869       15.6487929864
C         21.4850735897       35.3022249262       13.0442654002
C         23.5792310916       34.3812733717       14.1185521709
C         16.4737012736       33.5606734990       14.8267873938
C         16.8178881661       31.4830985233       16.0439852336
C         15.2169190248       33.0996138886       14.3996839457
C         15.5610932839       31.0255858260       15.6131071946
C         14.7595583428       31.8318553570       14.7905467287
N         13.5245325401       31.3791841299       14.3666674138
H         21.9234579079       23.7372207926        5.6679339974
H         22.0122165742       26.2107200826        5.9964589747
H         21.9424946362       23.1560761947        9.9321663365
H         22.0570450908       27.1567151110        8.2859406308
H         23.9809317841       26.5500577560       10.7915559547
H         22.7151338304       27.7549567196       10.3738230989
H         23.5574804165       26.8625531142       13.0443279063
H         20.3275940120       27.8817368369       12.9672801640
H         20.7661612666       30.5164759852       11.9049828852
H         18.1615584140       29.3054502720       12.9749593787
H         18.3042636168       30.6532317304       11.8660944805
H         21.3008090912       31.0443760958       14.2221529983
H         19.9761077700       29.3587062180       15.0841534387
H         20.0099057787       32.6747586151       12.7526719550
H         18.5420810685       32.1837528739       13.5516525330
H         19.5419928726       30.2367996002        9.5847250260
H         18.0601874485       27.0601204561       12.1092417617
H         19.5936860548       28.6724452875        7.6530720016
H         18.1183268219       25.5009786849       10.1777459795
H         21.3587514134       34.5039266593       15.7139459195
H         21.8230728102       32.8214007891       15.4949696750
H         18.8825282608       26.3025240366        7.9466705360
H         22.1314821402       33.2349684391       13.0335796247
H         20.4572156158       35.0944215980       12.7220923041
H         21.4569493389       36.1670648024       13.7194706489
H         22.0612662015       35.5849149313       12.1540903077
H         23.6406857924       35.2197291120       14.8244087042
H         24.0545019537       33.5084331064       14.5846489398
H         24.1655441718       34.6438066058       13.2285730983
H         16.8222323273       34.5427715147       14.5158474429
H         17.4348939303       30.8476039961       16.6749158750
H         14.5988452128       33.7270062812       13.7633215298
H         15.2115296236       30.0427062015       15.9166931444
H         12.9395726135       31.9556178246       13.7719884765
H         13.1873543971       30.4639776777       14.6437623950
    77
VM2 Rank=29     G=187.999           E=99.772            -TS=88.227              
C         23.2608333355       24.2172509756        6.4913368306
C         23.2397869334       23.2884228656        7.5420356651
C         23.0085462575       25.5731753534        6.7549363099
F         23.4851347099       21.9859419364        7.2905745306
C         22.9666995034       23.7055842973        8.8533922964
C         22.7359896328       25.9932904529        8.0678385685
C         22.7077754407       25.0628890500        9.1262047144
N         22.4287139143       25.4907921140       10.4542852578
C         21.5962855316       24.8619211436       11.3611723586
C         23.0507974259       26.6835361684       11.0183701077
O         21.6268842512       25.5808064614       12.5191807615
O         20.9415788632       23.8488065444       11.1863008604
C         22.4928352978       26.7434720954       12.4507866904
C         21.7466662077       28.0625315557       12.7280025142
N         20.3720097104       27.9806081640       12.7224769199
O         22.3215761137       29.1294316294       12.8603437847
C         19.5058419141       29.1193348965       12.3885974397
C         18.2618708851       28.6079531722       11.6183411740
C         19.1621122627       29.9374527428       13.6638328458
C         18.6435861910       27.7830223264       10.3952792065
O         18.4667880098       29.1085274895       14.5940239430
C         18.3237391310       31.2021448960       13.3501649329
C         19.1483839689       28.4164788727        9.2450451886
C         18.5199771381       26.3812808344       10.4140446703
N         18.4288574669       32.2811775808       14.3688026459
C         19.5226786631       27.6575033775        8.1237285568
C         18.8940875673       25.6217286218        9.2932476845
C         19.7593215860       32.9283571366       14.5225021457
S         17.5315905673       32.0882381229       15.8118884446
C         19.3945843036       26.2595443427        8.1474697177
C         20.3699110111       33.4904458131       13.2127021986
O         16.1987625048       31.6429772961       15.3838449008
O         18.3409750421       31.3162155100       16.7627679789
C         17.3076930491       33.7965096417       16.3611299088
C         19.4414208035       34.5396970363       12.5595398284
C         21.7493620567       34.1190979807       13.5007025618
C         17.9563631360       34.2644537844       17.5210481467
C         16.5011719037       34.6780887084       15.6149488445
C         17.7950283131       35.5993105002       17.9297143421
C         16.3436196346       36.0120289755       16.0275443824
C         16.9893469670       36.4742274194       17.1846632353
N         16.8338127943       37.7867421141       17.5881869051
H         23.4722584256       23.8856810711        5.4787828861
H         23.0218931903       26.2971294086        5.9437868816
H         22.9582571337       22.9705385093        9.6527316665
H         22.5319129453       27.0438489563        8.2550814084
H         24.1432341060       26.5803617805       11.0263148088
H         22.7645436772       27.5768440435       10.4483457194
H         23.3058442171       26.6561399771       13.1820093078
H         19.9945133722       27.0494949546       12.5964922459
H         20.0657340869       29.7820277826       11.7129502414
H         17.6291821881       28.0147904103       12.2910941582
H         17.6469011746       29.4579228037       11.2990838959
H         20.1187977737       30.2509618861       14.1011011624
H         19.0207935631       28.3063515705       14.6915336726
H         18.6324920416       31.5933955282       12.3742096529
H         17.2739848016       30.9028157594       13.2322195278
H         19.2536650183       29.4977810902        9.2215721170
H         18.1383045415       25.8776664535       11.2982197368
H         19.9135680862       28.1519904204        7.2381017098
H         18.8027162589       24.5385079681        9.3160312861
H         19.6809598693       33.7662703122       15.2272641623
H         20.4651351225       32.2163851504       14.9708322164
H         19.6889838414       25.6707997858        7.2821872220
H         20.5307230562       32.6671227453       12.5035429451
H         19.2556121409       35.3801484323       13.2407812655
H         19.8885627087       34.9398590705       11.6407176844
H         18.4713337235       34.1023667334       12.2925330784
H         21.6647678648       34.9589994722       14.2024904319
H         22.4337137115       33.3792471840       13.9358353575
H         22.2086260174       34.4943858545       12.5771395590
H         18.5861645820       33.5957444141       18.1030733486
H         16.0017631913       34.3283497778       14.7144125591
H         18.2977612386       35.9546628917       18.8250916662
H         15.7208346707       36.6871590026       15.4470563849
H         17.2964120554       38.1285714082       18.4233745735
H         16.2531111396       38.4253008067       17.0558343679
    77
VM2 Rank=30     G=188.005           E=97.474            -TS=90.530              
C         20.7200278119       24.6383145715        7.2132316124
C         20.5043684980       25.9825404490        7.5506375201
C         21.5303531178       23.8352423743        8.0323501011
F         19.7204154820       26.7533083380        6.7689944714
C         21.0939308297       26.5292709467        8.6999707282
C         22.1192250722       24.3800769855        9.1862537213
C         21.9031055150       25.7291037311        9.5295803156
N         22.4939740616       26.2776093491       10.7004713712
C         22.4983895240       25.7075412900       11.9592299876
C         23.1959905965       27.5555710115       10.6745090054
O         23.1577579947       26.5587298930       12.7957523103
O         22.0106302683       24.6410305368       12.2908431354
C         23.5889419856       27.7822165752       12.1445487295
C         22.9109505784       29.0373963179       12.7261557916
N         21.8387596008       28.8079601204       13.5609133743
O         23.2350131189       30.1667079525       12.4008221389
C         20.7310315923       29.7619998568       13.6946974498
C         19.4115798674       28.9911632683       13.9471951709
C         21.0495927527       30.8328774698       14.7775681709
C         19.0570221652       28.0717744698       12.7871131681
O         21.1216034126       30.2214721450       16.0641647577
C         20.0154575501       31.9865479997       14.8229851117
C         19.2791216574       26.6855654545       12.8787440762
C         18.5128129830       28.6083818693       11.6060503137
N         19.7163900829       32.6083391845       13.4993905257
C         18.9580488568       25.8443190587       11.8005666290
C         18.1918057839       27.7679543295       10.5272981861
C         20.9146052607       33.2263869568       12.8615913941
S         18.2616806426       33.5189080735       13.3925199514
C         18.4120585023       26.3848217864       10.6256995495
C         20.8046077201       33.4711554175       11.3336399905
O         18.5601424872       34.8451430633       13.9466170824
O         17.7589487971       33.3278868692       12.0274933087
C         17.0796019498       32.6632120254       14.4651057910
C         22.0977300811       34.1347866689       10.8148243613
C         20.5503640825       32.1584880437       10.5582753489
C         16.4063530401       31.5153093961       14.0013557404
C         16.8395900184       33.1238668286       15.7752402556
C         15.5098797109       30.8336937713       14.8412235325
C         15.9404770322       32.4393265223       16.6105038609
C         15.2759883863       31.2938328865       16.1460355440
N         14.3946715292       30.6211661420       16.9708364146
H         20.2594119079       24.2228166061        6.3215540728
H         21.7006797302       22.7926176714        7.7749687840
H         20.9014055557       27.5679082271        8.9498271829
H         22.7442214843       23.7499115411        9.8141724289
H         22.5406967717       28.3579539985       10.3117046124
H         24.0872318544       27.4870461035       10.0380643203
H         24.6740941125       27.9100536482       12.2411614119
H         21.6508399509       27.8352821728       13.7685405589
H         20.6282440863       30.2824793077       12.7335768781
H         19.4864565772       28.4190502586       14.8807233965
H         18.5901339424       29.6993171012       14.0971425241
H         22.0338837214       31.2594721526       14.5463573367
H         21.7236221496       29.4552162863       15.9533922421
H         19.1123057050       31.5618187704       15.2722283380
H         20.3778439465       32.7556299045       15.5179502778
H         19.7024450070       26.2577122902       13.7835521316
H         18.3390494340       29.6776509428       11.5243268431
H         19.1377160106       24.7745201185       11.8743576457
H         17.7737819576       28.1877533269        9.6158165032
H         21.1321823052       34.1822837426       13.3579118431
H         21.7974357752       32.5932164221       13.0028964526
H         18.1672062660       25.7338240361        9.7901684627
H         19.9794261340       34.1672666048       11.1324225933
H         22.2848668107       35.0857949766       11.3298552316
H         22.9677878294       33.4840668506       10.9741931234
H         22.0252009638       34.3460157595        9.7402239781
H         19.6094952038       31.6903699536       10.8707039499
H         20.4804578218       32.3497992078        9.4801201422
H         21.3622882404       31.4384814643       10.7227821641
H         16.5826776637       31.1486461638       12.9928845156
H         17.3530985770       34.0071880212       16.1475185288
H         14.9974614069       29.9469091443       14.4782492875
H         15.7614831846       32.7979520954       17.6204772709
H         14.2207840400       30.9464385223       17.9153664973
H         13.9115154845       29.7920504653       16.6433635350
