    77
VM2 Rank=1      G=189.019           E=105.712           -TS=83.307              
C         21.7967341314       28.1177724770        5.4723740167
C         20.6684698840       27.8319550795        6.2552284055
C         23.0756095163       28.0783750000        6.0519450988
C         20.8112103816       27.5074457157        7.6122246433
F         19.4389004968       27.8710109837        5.7016006588
C         23.2201872660       27.7538988274        7.4119382959
C         22.0890458445       27.4647175159        8.2007910407
N         22.2328438477       27.1475100168        9.5791482976
C         23.0638340025       27.9560736338       10.4630585430
C         21.6066403624       26.1156853284       10.2519651081
C         22.8375380715       27.3272131162       11.8496710425
O         21.9719275117       26.1968659985       11.5630054329
O         20.8674658202       25.2691246794        9.7803231476
C         22.2100803206       28.3150012572       12.8537499001
O         22.6697387707       29.4247872543       13.0657609571
N         21.0463141346       27.8931331439       13.4574614687
C         20.0738510068       28.8206566799       14.0498318499
C         18.6481865141       28.2323762763       13.8971409367
C         20.4619537982       29.1526923998       15.5202485121
C         18.3001978553       27.9210665447       12.4469958677
C         19.5606748275       30.2278203953       16.1722352731
O         20.4196221971       27.9706438043       16.3172431844
C         18.1322981101       26.5895358898       12.0247369057
C         18.1532629589       28.9640803775       11.5143985097
N         19.4740308269       31.5026518302       15.4104729401
C         17.8085452973       26.3054897769       10.6877295934
C         17.8302320340       28.6814142042       10.1771555546
S         18.1321074570       32.4926002106       15.7865682349
C         20.7664170335       32.1908209933       15.1623531760
C         17.6514461359       27.3516028909        9.7648877936
O         18.1201161715       32.6794865897       17.2418129537
C         16.7497055701       31.4871802771       15.2035570004
O         18.2299649575       33.6383156276       14.8736762719
C         21.4064580527       32.7073151170       16.4244653532
C         15.9664964062       30.7516331225       16.1140743345
C         16.4811946787       31.3953292066       13.8241633157
S         22.5875422036       31.8257621360       17.3818748628
C         21.1501556017       33.9522472000       16.9390365553
C         14.9319486516       29.9254342474       15.6459657210
C         15.4549022969       30.5635533539       13.3524303442
C         22.7018650203       33.1753530266       18.5079006696
C         21.8862625025       34.2142299471       18.1302855210
C         14.6777580248       29.8270176931       14.2676597617
O         15.2553924393       30.4976141185       11.9906583385
C         14.5808710076       29.3935060353       11.3571946075
H         21.6781890592       28.3684631030        4.4221039940
H         23.9532244488       28.2985595187        5.4488021589
H         19.9275285934       27.2912771499        8.2027645930
H         24.2152518511       27.7226485504        7.8476402071
H         22.7414216331       29.0054936154       10.4359020530
H         24.1203103292       27.8839715852       10.1770378336
H         23.7868889094       26.9793324114       12.2748150615
H         20.7233750338       26.9723438004       13.1843846776
H         20.1117242523       29.7565958261       13.4750016130
H         18.5548157775       27.3279523668       14.5114673597
H         17.9099125148       28.9379242815       14.2913395124
H         21.4930784074       29.5300598439       15.5154452301
H         18.5627599134       29.7911679969       16.2957108866
H         19.9329635330       30.4289141325       17.1854538873
H         20.9312655868       27.3011343599       15.8155518409
H         18.2508056137       25.7727278855       12.7315104244
H         18.2818089156       29.9962325390       11.8269573410
H         17.6825134401       25.2745401347       10.3667453072
H         17.7118064809       29.4929984773        9.4638002502
H         21.4721721587       31.5168839146       14.6609182861
H         20.6170211602       33.0318477257       14.4722236463
H         17.3977180407       27.1314988831        8.7309190094
H         16.1667717648       30.8126826283       17.1814842767
H         17.0830933393       31.9544206610       13.1129110378
H         20.4592869527       34.6627866469       16.4977628434
H         14.3302833244       29.3562633622       16.3506520644
H         23.3618544958       33.1110777448       19.3635538059
H         21.8065708914       35.1455852117       18.6809676655
H         13.8759900927       29.1822010834       13.9222275198
H         15.0716634339       28.4452261330       11.6137830512
H         13.5290807993       29.3471329894       11.6661251341
H         14.6124906987       29.5115460985       10.2668590853
    77
VM2 Rank=2      G=189.168           E=105.683           -TS=83.485              
C         24.0675548643       25.8867624949        5.6415110617
C         23.0769886472       26.8711840498        5.7703070255
C         24.6526509007       25.3325647930        6.7915479902
C         22.6677954093       27.3049649330        7.0399287070
F         22.5107955192       27.4021431524        4.6670976241
C         24.2419732282       25.7635143041        8.0646310305
C         23.2438348847       26.7491597187        8.1990214916
N         22.8279754992       27.1839212439        9.4883343970
C         22.6528879696       28.5986364402        9.7963350969
C         22.5658855763       26.3787925104       10.5809557420
C         22.2476191369       28.6012604576       11.2805785025
O         22.2246243639       27.1906738930       11.6214623106
O         22.6212096380       25.1622622039       10.6339595735
C         20.8939982817       29.2983897166       11.5178601085
O         20.6997288844       30.4666158274       11.2288956815
N         19.8879733785       28.4960814661       12.0108860646
C         18.4563745804       28.7825078821       11.8271054812
C         17.7559344628       27.5110708534       11.2879853395
C         17.8056731327       29.3188645326       13.1324541953
C         18.4245381521       26.9596313266       10.0336556649
C         18.4983000600       30.6167752639       13.6254970747
O         16.4153805997       29.5784164157       12.9253602065
C         18.3357811206       27.6620380795        8.8178296984
C         19.1497606276       25.7545602480       10.0830387168
N         17.8436863283       31.2781740569       14.7852573001
C         18.9609347145       27.1635974509        7.6626421976
C         19.7729793569       25.2540087846        8.9278699342
S         17.5004497386       30.3087046540       16.1559476255
C         18.2545214833       32.6907031686       14.9776369421
C         19.6770143491       25.9572071908        7.7169298348
O         16.2430347229       29.6405114775       15.7962827254
C         17.1162812376       31.4580983539       17.5000988653
O         18.7264245397       29.5684229083       16.4742457031
C         19.5416894095       32.8660231789       15.7479252601
C         18.0139945714       31.6316212697       18.5719167181
C         15.9061634673       32.1789963467       17.4868163985
S         21.0699784154       32.0613174676       15.4112605659
C         19.6532981045       33.7509603107       16.7902315660
C         17.7114918404       32.5303580989       19.6072714146
C         15.6002630351       33.0790345484       18.5188760270
C         21.8366656993       32.9142444418       16.7468112761
C         20.9570753552       33.7692105658       17.3636646870
C         16.5087539773       33.2555924543       19.5817266014
O         14.4045215480       33.7617688094       18.4396181339
C         13.9755391877       34.7186526554       19.4277314383
H         24.3787455606       25.5567583742        4.6544967589
H         25.4223752610       24.5703139184        6.6972051380
H         21.8931130779       28.0614352525        7.1146100822
H         24.7039152810       25.3285495165        8.9474492387
H         21.8614523333       29.0348365267        9.1730884585
H         23.5918265323       29.1457522603        9.6441306922
H         23.0026270349       29.1224801871       11.8818411784
H         20.1590550780       27.5413371866       12.2122407385
H         18.3511878089       29.5656546054       11.0627797821
H         17.7343339088       26.7472927441       12.0755289590
H         16.7065626430       27.7412096596       11.0637230440
H         17.9225914327       28.5437045487       13.9023184120
H         19.5339585178       30.3677930463       13.8845173158
H         18.5387956350       31.3133577271       12.7777598318
H         16.0352104222       29.7355485209       13.8218128650
H         17.7824312097       28.5961206273        8.7693605490
H         19.2340562965       25.2048954558       11.0166883365
H         18.8887510200       27.7107649188        6.7260518718
H         20.3348838980       24.3242243599        8.9734322533
H         18.3657068986       33.1823206111       14.0022224494
H         17.4563340687       33.2364715349       15.4964434610
H         20.1606874918       25.5701306277        6.8234804442
H         18.9510346725       31.0798052681       18.5963116910
H         15.2024702422       32.0457950998       16.6693844622
H         18.8379860199       34.3665195327       17.1553413903
H         18.4108901561       32.6672642411       20.4285802057
H         22.8785618263       32.7331653271       16.9779599629
H         21.2233118896       34.4001918693       18.2050582236
H         16.2936326022       33.9470262929       20.3902865170
H         14.6901422062       35.5488094116       19.4994345026
H         12.9969305282       35.1311041917       19.1514315498
H         13.8819688108       34.2433694452       20.4127740418
    77
VM2 Rank=3      G=189.176           E=105.681           -TS=83.495              
C         24.0022754169       25.9020671803        5.6388399364
C         23.0375159619       26.9097783274        5.7825498669
C         24.5715997885       25.3147871950        6.7803446136
C         22.6384703360       27.3340146474        7.0586086628
F         22.4864202915       27.4725857017        4.6875136272
C         24.1710011544       25.7361861776        8.0598200261
C         23.1987117708       26.7452375606        8.2091319142
N         22.7929797254       27.1702929115        9.5048835505
C         22.6547244487       28.5840594308        9.8351543834
C         22.5085341381       26.3551093396       10.5843763724
C         22.2473275849       28.5737905003       11.3187803008
O         22.1872444390       27.1590791543       11.6373146903
O         22.5319898835       25.1368637854       10.6181467350
C         20.9118294127       29.3019493134       11.5653589508
O         20.7485647182       30.4793503026       11.2950712195
N         19.8843156716       28.5182250347       12.0437912406
C         18.4610117311       28.8446490535       11.8621958646
C         17.7286542434       27.6002119436       11.3028756517
C         17.8218803459       29.3780682777       13.1744557613
C         18.3844953409       27.0509901868       10.0408722850
C         18.5477418348       30.6492887344       13.6887152964
O         16.4394715245       29.6776305095       12.9687813971
C         19.0786967245       25.8271999421       10.0725035069
C         18.3151683546       27.7738453703        8.8358179158
N         17.9077702798       31.3125195891       14.8556667701
C         19.6903051279       25.3285069137        8.9103457486
C         18.9287624740       27.2772118713        7.6736767662
S         17.5368752535       30.3342520178       16.2127682049
C         18.3598947288       32.7093980632       15.0692689178
C         19.6137882081       26.0522624778        7.7101801344
O         16.2697127165       29.6939952821       15.8369515659
C         17.1574918676       31.4772889413       17.5636693711
O         18.7459890969       29.5682168204       16.5341456379
C         19.6504232941       32.8343993572       15.8436550305
C         18.0427018039       31.6174543277       18.6508898607
C         15.9629833717       32.2245508205       17.5373614503
S         21.1608998702       32.0075118785       15.4814236270
C         19.7821635629       33.6872138024       16.9100959889
C         17.7449960330       32.5104659397       19.6922598527
C         15.6640421296       33.1218304779       18.5814075403
C         21.9469631351       32.8053071924       16.8395868811
C         21.0865795483       33.6611737342       17.4817639763
C         16.5589846986       33.2613373941       19.6538779547
O         14.5148747807       33.8845673427       18.5983890145
C         13.5231731771       33.8432751757       17.5537119368
H         24.3057638322       25.5796544738        4.6469309233
H         25.3213156383       24.5343295580        6.6744531455
H         21.8836168734       28.1090849226        7.1447508167
H         24.6205750256       25.2755060062        8.9359535329
H         21.8760658275       29.0508514902        9.2180071747
H         23.6080038390       29.1085557235        9.6927813579
H         23.0146009711       29.0657538723       11.9290991668
H         20.1301032277       27.5536099306       12.2299933018
H         18.3777689309       29.6417017170       11.1096279783
H         17.6861452424       26.8252281023       12.0785312933
H         16.6859145839       27.8608717464       11.0810898810
H         17.9164188946       28.5884133207       13.9325792197
H         19.5751887434       30.3680833420       13.9474745780
H         18.6105579441       31.3564156483       12.8511214024
H         16.0609592450       29.8258713409       13.8673982389
H         19.1478201178       25.2614332247       10.9977437250
H         17.7858799798       28.7223742082        8.8011280770
H         20.2282275818       24.3840826967        8.9421943418
H         18.8716627081       27.8402020411        6.7454601849
H         18.4876251965       33.2115839552       14.1012785884
H         17.5777628153       33.2715514368       15.5948530434
H         20.0884116192       25.6665405167        6.8113076363
H         18.9663026571       31.0437759648       18.6827867066
H         15.2824027674       32.1024901574       16.7003201951
H         18.9809032898       34.3101703585       17.2933675555
H         18.4334344791       32.6227278167       20.5264452029
H         22.9849720669       32.5954720725       17.0638145590
H         21.3672375918       34.2624003761       18.3400950228
H         16.3292438526       33.9539203442       20.4588598095
H         13.9603174546       34.1405936428       16.5917074844
H         13.1027870017       32.8338136728       17.4574195183
H         12.7037251500       34.5350499796       17.7863757346
    77
VM2 Rank=4      G=189.205           E=105.608           -TS=83.597              
C         23.8784593920       25.9141685028        5.5625622302
C         22.9414334334       26.9496565780        5.6915629445
C         24.3931095122       25.2931347401        6.7121308040
C         22.5158470227       27.3681500946        6.9609261176
F         22.4428151486       27.5450387857        4.5886295220
C         23.9657778182       25.7087931740        7.9848163792
C         23.0210797550       26.7457704243        8.1192106769
N         22.5883033200       27.1650908737        9.4080722435
C         22.4832664356       28.5777222914        9.7550078657
C         22.2455022251       26.3441689256       10.4660543104
C         22.0311864036       28.5594194295       11.2255574176
O         21.9167516063       27.1429695863       11.5206151281
O         22.2302354957       25.1254296192       10.4822576037
C         20.7126937418       29.3266157535       11.4436947467
O         20.5942748064       30.5118584824       11.1844714574
N         19.6477739640       28.5701329814       11.8824073864
C         18.2412919016       28.9438951967       11.6648446080
C         17.4876310436       27.7318662726       11.0641543926
C         17.5805901094       29.4769945354       12.9664721872
C         18.1639034108       27.1809948034        9.8136830806
C         18.3294440930       30.7173741908       13.5218742153
O         16.2145343554       29.8226607506       12.7253925930
C         18.8169326580       25.9347687069        9.8462034975
C         18.1551835276       27.9242844465        8.6191388649
N         17.6757912318       31.3750369680       14.6839838395
C         19.4476862258       25.4343218437        8.6950852706
C         18.7880175325       27.4258481653        7.4681392809
S         17.2207038572       30.3817485369       16.0045105795
C         18.1470121864       32.7591790336       14.9355123696
C         19.4316726843       26.1786815933        7.5052347820
O         15.9194179938       29.8391992069       15.5931623462
C         16.9227189511       31.5023828778       17.3941991025
O         18.3741766653       29.5274057604       16.3078049387
C         19.4078012874       32.8517703512       15.7621173760
C         15.7549290618       32.2889908623       17.4329702910
C         17.8549655559       31.5943568012       18.4466297757
S         20.8712149046       31.9001323821       15.5392513968
C         19.5410457279       33.7543597797       16.7867229085
C         15.5337469799       33.1712256599       18.5026274377
C         17.6412888295       32.4793065612       19.5139924177
C         21.6358761913       32.7208072552       16.8960805619
C         20.8053757170       33.6707705541       17.4373299962
C         16.4754724956       33.2705708349       19.5403783948
O         18.6048851174       32.5386069145       20.4988070683
C         18.5481796231       33.4623389124       21.6027195928
H         24.2028207400       25.5964345307        4.5757623848
H         25.1211957212       24.4910270041        6.6177107120
H         21.7831632152       28.1653890640        7.0353681593
H         24.3731023835       25.2218258619        8.8673702044
H         21.7380601952       29.0767547241        9.1219873291
H         23.4558836743       29.0745472996        9.6487679684
H         22.7950310979       29.0175892820       11.8657457445
H         19.8576767301       27.5960052448       12.0629224421
H         18.2050167152       29.7546646557       10.9232880144
H         17.3974612047       26.9471128347       11.8257846487
H         16.4607478153       28.0288014482       10.8156026410
H         17.6284005697       28.6731759292       13.7139974536
H         19.3418658394       30.4035719236       13.8017400906
H         18.4334186665       31.4377661605       12.6998472191
H         15.8155942552       29.9836488911       13.6129845816
H         18.8392027648       25.3528191956       10.7636883428
H         17.6581488526       28.8900881825        8.5840250327
H         19.9535927185       24.4723924167        8.7276904655
H         18.7778072080       28.0047040180        6.5480168308
H         18.3209437803       33.2729373544       13.9809178875
H         17.3544136664       33.3268259629       15.4394838001
H         19.9210853120       25.7915420918        6.6149436828
H         15.0240147351       32.2198069183       16.6303701532
H         18.7607790847       30.9941416917       18.4291328677
H         18.7649857347       34.4489540251       17.0901141249
H         14.6332580486       33.7804153511       18.5268043914
H         22.6406636790       32.4513798067       17.1952721622
H         21.0783023918       34.2974775615       18.2797731054
H         16.2888101757       33.9609979744       20.3568209233
H         19.4293691348       33.3354360931       22.2441662054
H         18.5332069422       34.4982993959       21.2400984462
H         17.6522719477       33.2849472610       22.2115624414
    77
VM2 Rank=5      G=189.223           E=104.918           -TS=84.305              
C         23.7884863499       25.9167001554        5.5634123456
C         22.8940991320       26.9879196400        5.7028546894
C         24.2621392475       25.2514067309        6.7058179226
C         22.4704407458       27.3981933264        6.9755397711
F         22.4347968614       27.6259802622        4.6067331464
C         23.8365828992       25.6588609934        7.9817491684
C         22.9345110987       26.7317776586        8.1265344608
N         22.5034247707       27.1428037594        9.4186461435
C         22.4526960976       28.5513391098        9.7933180639
C         22.1135940980       26.3158456288       10.4554450679
C         21.9817755678       28.5224284743       11.2577715109
O         21.8048523104       27.1063685871       11.5222282253
O         22.0477321554       25.0987166556       10.4464746991
C         20.6937094749       29.3396224434       11.4761730548
O         20.6276951617       30.5335202165       11.2389515628
N         19.5930548884       28.6199941500       11.8878526796
C         18.2061369234       29.0558762106       11.6605032468
C         17.4110487937       27.8880278726       11.0266035716
C         17.5507990262       29.5907815908       12.9640943737
C         18.0799627545       27.3341232218        9.7735193166
C         18.3430756626       30.7877143290       13.5537332166
O         16.2036713514       29.9981258696       12.7123387255
C         18.6793093727       26.0608850826        9.7884448854
C         18.1181877387       28.1007913401        8.5944265070
N         17.7004418893       31.4477315427       14.7204576958
C         19.3033042062       25.5571636708        8.6350735905
C         18.7443595513       27.5989931459        7.4412475280
S         17.1782140194       30.4492479496       16.0115301151
C         18.2164592487       32.8090895803       15.0048853115
C         19.3342517314       26.3251247996        7.4606194588
O         15.8519334865       29.9915996223       15.5777564113
C         16.9416364104       31.5492100275       17.4297136900
O         18.2799262390       29.5243394155       16.2999762791
C         19.4677223296       32.8450769505       15.8503854328
C         15.8074858593       32.3820308215       17.4981848060
C         17.8896023638       31.5766125222       18.4725434738
S         20.8701594471       31.7947056531       15.6851572678
C         19.6417132135       33.7693317595       16.8492020955
C         15.6324519830       33.2469551783       18.5899994237
C         17.7170683272       32.4470972660       19.5663196343
C         21.6680202974       32.6149282452       17.0229624589
C         20.8911922366       33.6324930876       17.5191094787
C         16.5880982535       33.2796055502       19.6186013154
O         18.6250977877       32.5264280221       20.6016472822
C         19.8190786365       31.7224318807       20.6684608956
H         24.1116737381       25.6056200530        4.5741100649
H         24.9571251601       24.4214123448        6.6033318946
H         21.7708985027       28.2239135820        7.0578654205
H         24.2120156875       25.1374044286        8.8587226181
H         21.7368405307       29.0936161244        9.1619991130
H         23.4463344324       29.0092003310        9.7087326554
H         22.7559163401       28.9352698557       11.9161675031
H         19.7601853122       27.6347018617       12.0516749179
H         18.2130397724       29.8816314075       10.9347991826
H         17.2789041619       27.0929708345       11.7712301005
H         16.4005218765       28.2319805106       10.7717215582
H         17.5548297152       28.7712044829       13.6958448349
H         19.3381438920       30.4273761982       13.8398765410
H         18.4873269834       31.5195614394       12.7480708690
H         15.7999859181       30.1636228798       13.5969266969
H         18.6649904406       25.4602979553       10.6939990304
H         17.6628060196       29.0873113615        8.5730241683
H         19.7676680868       24.5741508125        8.6541182345
H         18.7705538456       28.1959850633        6.5331083083
H         18.4215346179       33.3337822382       14.0624983294
H         17.4365374430       33.3945447579       15.5083642139
H         19.8184485821       25.9353857717        6.5686125007
H         15.0669804068       32.3618023599       16.7016751080
H         18.7619733969       30.9333010603       18.4135111055
H         18.9065214114       34.5206755069       17.1170595197
H         14.7587867817       33.8926065852       18.6387267367
H         22.6513407145       32.2962509235       17.3442771798
H         21.1926099648       34.2718893287       18.3421003740
H         16.4548542483       33.9516246484       20.4618431462
H         19.5662706948       30.6545736895       20.6931448911
H         20.4657508652       31.9146272514       19.8029396185
H         20.3832770524       31.9628625706       21.5783501279
    77
VM2 Rank=6      G=189.317           E=104.647           -TS=84.670              
C         20.6809759727       27.4865666109        5.6684197405
C         20.5267099762       28.5535780160        6.5652812927
C         21.2891134041       26.2965900247        6.0997426045
C         20.9758547854       28.4390064246        7.8890857908
F         19.9389782143       29.6961714394        6.1546082123
C         21.7364387997       26.1783776881        7.4267867005
C         21.5789579574       27.2459035275        8.3332727605
N         22.0269122575       27.1236295378        9.6785420576
C         22.7674919865       28.1944808809       10.3369147289
C         21.8580742006       26.0271638178       10.5036008855
C         23.0382029336       27.6390355992       11.7458005308
O         22.4506419631       26.3127507821       11.6979457756
O         21.2909877453       24.9811092437       10.2395779901
C         22.4205297666       28.5255069978       12.8444224357
O         22.8465401910       29.6360454944       13.1129374566
N         21.2849276086       28.0270983904       13.4429674493
C         20.2474573366       28.8946854739       14.0143649091
C         18.8564137880       28.2631429420       13.7536563923
C         20.5423430095       29.1844104254       15.5142084740
C         18.6155010820       27.9894468890       12.2741838857
C         19.5638539707       30.1980185201       16.1532104276
O         20.5042426870       27.9715544579       16.2635772966
C         18.5595124127       26.6683736516       11.7933926253
C         18.4655430098       29.0583304293       11.3720196924
N         19.4704354875       31.4987329666       15.4373304408
C         18.3483589882       26.4196141567       10.4270981871
C         18.2518043966       28.8107789807       10.0062717466
S         18.0710548912       32.4216109873       15.7726576584
C         20.7465912229       32.2442536208       15.2924766004
C         18.1921082765       27.4904994414        9.5333438325
O         17.9658079781       32.5426526699       17.2311154734
C         16.7661576445       31.3935694081       15.0641257437
O         18.1780916629       33.6101173366       14.9173111192
C         21.2919692150       32.7324897059       16.6091331613
C         15.9608139313       30.5883077646       15.8926402850
C         16.5828212521       31.3554849197       13.6683602372
S         22.4498170996       31.8573388262       17.6002113793
C         20.9572429670       33.9449811988       17.1551785257
C         14.9892078328       29.7467075120       15.3271800294
C         15.6199130813       30.5088049351       13.0995234016
C         22.4454733923       33.1633026664       18.7820892867
C         21.6124735663       34.1855331651       18.3970998302
C         14.8204125848       29.7024902293       13.9330405037
O         15.5038534064       30.4981438751       11.7265440609
C         14.9093860639       29.4016083696       11.0057483819
H         20.3305341072       27.5837396059        4.6448741399
H         21.4129003085       25.4668730798        5.4079325907
H         20.8359755694       29.2747977571        8.5668727959
H         22.2068348110       25.2524178718        7.7479744784
H         22.1665671038       29.1116817014       10.3855705883
H         23.7074360768       28.3926330726        9.8064902486
H         24.1170103420       27.5731671306       11.9330279020
H         21.0091630804       27.1005284942       13.1412079889
H         20.2806422522       29.8536676063       13.4783793783
H         18.7579749962       27.3355112028       14.3315543693
H         18.0696219324       28.9291993029       14.1219984111
H         21.5565804119       29.6002157895       15.5792529754
H         18.5784607915       29.7199348464       16.2008159703
H         19.8694212313       30.3713369846       17.1935173870
H         21.0763169217       27.3449628876       15.7717231604
H         18.6821457481       25.8319971149       12.4762221516
H         18.5084755011       30.0828817010       11.7297339644
H         18.3128792519       25.3966718262       10.0606526374
H         18.1313782828       29.6415676100        9.3156876322
H         21.5061126633       31.6182108880       14.8078097660
H         20.6038043748       33.1065465213       14.6276530275
H         18.0318130080       27.2976021432        8.4755709078
H         16.0955925441       30.6075022110       16.9718373157
H         17.2026840613       31.9687048344       13.0199100368
H         20.2653726835       34.6466465586       16.7014482133
H         14.3704318992       29.1236797319       15.9686526974
H         23.0570576490       33.0889151631       19.6721969967
H         21.4643207381       35.0900766857       18.9775114102
H         14.0667172083       29.0448026653       13.5119295805
H         15.0009649377       29.5704299074        9.9255269515
H         15.4188938531       28.4599743584       11.2500498905
H         13.8436287049       29.3050376270       11.2480104426
    77
VM2 Rank=7      G=189.366           E=104.705           -TS=84.660              
C         20.6254125776       27.7792764205        5.5647045073
C         21.1845880907       26.5618817351        5.9795515568
C         20.4887924025       28.8319498852        6.4837243588
C         21.6055439918       26.3891767999        7.3066458837
F         21.3202158891       25.5509565797        5.0966293357
C         20.9109574032       28.6614815477        7.8130757803
C         21.4668681309       27.4374805194        8.2374088449
N         21.8899162508       27.2666432150        9.5859450397
C         22.6387122638       28.3032972305       10.2884155569
C         21.6926179818       26.1472774897       10.3733000238
C         22.9104286924       27.6856112663       11.6709833654
O         22.2790766102       26.3818784323       11.5816098404
O         21.1081748896       25.1216106460       10.0699044987
C         22.3423622375       28.5479362540       12.8145183187
O         22.8021550242       29.6378188279       13.1106068614
N         21.2090052289       28.0564282165       13.4225769723
C         20.2001579255       28.9305928471       14.0336806339
C         18.7900607529       28.3520769250       13.7531362421
C         20.5093429011       29.1525719708       15.5419050869
C         18.5410680361       28.1406939786       12.2647743916
C         19.5644306347       30.1702095823       16.2236121553
O         20.4363509923       27.9133182803       16.2439719211
C         18.4346740567       26.8407584564       11.7371480907
C         18.4380148078       29.2459964398       11.4007318951
N         19.5112517647       31.5006305216       15.5600917888
C         18.2211101696       26.6491756130       10.3620395342
C         18.2227662632       29.0556563857       10.0261608115
S         18.1404251018       32.4518066574       15.9321538848
C         20.8097532481       32.2117335222       15.4438293677
C         18.1137716708       27.7564176654        9.5061554724
O         18.0364567143       32.5166743983       17.3942809490
C         16.8059889338       31.4941079214       15.1814008135
O         18.2854168894       33.6703282748       15.1260431747
C         21.3698340050       32.6293189271       16.7784937964
C         15.9733952807       30.6824714777       15.9760554183
C         16.6257929836       31.5168059096       13.7848753501
S         22.5014755124       31.6803260247       17.7311402647
C         21.0712270095       33.8277000379       17.3743635765
C         14.9775737062       29.8947964973       15.3760842948
C         15.6385137796       30.7239117641       13.1813487172
C         22.5360906805       32.9362067541       18.9656280993
C         21.7336053147       33.9975610882       18.6241499337
C         14.8116234175       29.9109273122       13.9809923995
O         15.5264261077       30.7708986669       11.8087922914
C         14.8985736748       29.7236210345       11.0443589000
H         20.3013019016       27.9042763783        4.5355267699
H         20.0551469008       29.7776248106        6.1676339652
H         22.0390994184       25.4392842721        7.6048083414
H         20.7899231407       29.4821312334        8.5144316573
H         22.0404434812       29.2190370265       10.3797384287
H         23.5776935496       28.5219712989        9.7643830022
H         23.9892430003       27.5754429526       11.8360608307
H         20.9050632961       27.1477442368       13.0943774934
H         20.2598461183       29.9089388059       13.5363994308
H         18.6639884616       27.4071259974       14.2965679696
H         18.0243864136       29.0278588044       14.1472487034
H         21.5362014381       29.5341549867       15.6179117267
H         18.5644318902       29.7219900314       16.2547749032
H         19.8767972629       30.2922329265       17.2691623224
H         20.9887447343       27.2894273892       15.7268266800
H         18.5208256926       25.9765223098       12.3902122076
H         18.5197123553       30.2547451623       11.7948161403
H         18.1468502353       25.6421039997        9.9592369154
H         18.1391157690       29.9145897592        9.3654475815
H         21.5495374564       31.5826036251       14.9333249359
H         20.6937286864       33.1041479306       14.8144991970
H         17.9529530891       27.6076531476        8.4413403558
H         16.1055263194       30.6548132930       17.0553959255
H         17.2666477507       32.1351767702       13.1622317302
H         20.4002768363       34.5675390094       16.9508621319
H         14.3376800658       29.2666923774       15.9913547126
H         23.1454194041       32.8072705928       19.8510408356
H         21.6124167373       34.8814734134       19.2414333306
H         14.0389676412       29.2943279214       13.5329369614
H         14.9988773665       29.9316354458        9.9717780882
H         15.3762315990       28.7568891182       11.2522850459
H         13.8295007533       29.6526536398       11.2808072845
    77
VM2 Rank=8      G=189.371           E=105.791           -TS=83.579              
C         23.8755655924       26.0902018705        5.4667930860
C         24.3523735035       25.3958849501        6.5882117390
C         22.9814649058       27.1593238423        5.6376592240
C         23.9400596688       25.7618162830        7.8783118141
F         25.2143634511       24.3709657526        6.4257473712
C         22.5680782692       27.5282294073        6.9290052889
C         23.0392952606       26.8295944659        8.0589752743
N         22.6185473822       27.2051985838        9.3656720959
C         22.5543189707       28.6039566636        9.7737602307
C         22.2553118972       26.3498429860       10.3892242715
C         22.1279026467       28.5340653152       11.2503453908
O         21.9552836019       27.1114329194       11.4792883921
O         22.2032176674       25.1325459405       10.3526706933
C         20.8511785030       29.3487947807       11.5338984090
O         20.7820547222       30.5491101494       11.3326725558
N         19.7614933428       28.6207615503       11.9596251824
C         18.3697754270       29.0616318031       11.7750779135
C         17.5604683288       27.9104849900       11.1287138480
C         17.7444535963       29.5631883089       13.1062026646
C         18.2089589946       27.3812569792        9.8543259293
C         18.5499803217       30.7459457426       13.7058464347
O         16.3916641661       29.9743959948       12.8965471770
C         18.7914366396       26.1003755718        9.8296359482
C         18.2484802287       28.1794964821        8.6963995386
N         17.9363621548       31.3855231042       14.8998380673
C         19.4008171067       25.6208489783        8.6583134955
C         18.8605974631       27.7020707101        7.5255120063
S         17.4676559474       30.3601859877       16.1903162456
C         18.4828836195       32.7311898105       15.2027354045
C         19.4348567962       26.4210675998        7.5057124548
O         16.1639109532       29.8403344436       15.7580204224
C         17.1492438191       31.4472914994       17.6018162876
O         18.6101657026       29.4877737321       16.4829255578
C         19.7623016572       32.7174918861       16.0050155494
C         18.0234528146       31.4580670694       18.7067874868
C         16.0130916068       32.2810219466       17.6045462104
S         21.2142079126       31.7985163132       15.6256297871
C         19.9340589681       33.5004567816       17.1183071197
C         17.7738255624       32.3083899232       19.7954439235
C         15.7624816941       33.1355089918       18.6961395667
C         22.0279566670       32.4620354132       17.0386203893
C         21.2201348200       33.3456537863       17.7107814697
C         16.6466098294       33.1457625125       19.7864554452
O         14.6719306539       33.9787702753       18.7436136174
C         13.6977271633       34.0715379020       17.6858590201
H         24.1994585101       25.7999766581        4.4714121285
H         22.6082834043       27.7004926754        4.7715122975
H         24.3248249281       25.2131560937        8.7328328926
H         21.8693157262       28.3520784594        7.0448715847
H         21.8089038212       29.1452233634        9.1766669096
H         23.5359149944       29.0832130722        9.6693978511
H         22.9245433028       28.9245457929       11.8954231557
H         19.9313203764       27.6308166412       12.0894309031
H         18.3605870435       29.9057913753       11.0709067018
H         17.4369622947       27.1002064637       11.8582591372
H         16.5475013271       28.2634948678       10.8969234949
H         17.7665698944       28.7261490692       13.8176255670
H         19.5492107292       30.3758313671       13.9633199027
H         18.6802278915       31.4938358325       12.9126047122
H         16.0068277156       30.0984397792       13.7961524325
H         18.7761050947       25.4754123345       10.7185164839
H         17.8061238128       29.1721030071        8.7055480498
H         19.8527088607       24.6319360367        8.6468733358
H         18.8883801141       28.3237870689        6.6342343290
H         18.6667073150       33.2774873745       14.2682435878
H         17.7320203516       33.3175874747       15.7471067179
H         19.9094147831       26.0504797928        6.6004608620
H         18.9020949311       30.8169302731       18.7164325587
H         15.3399579772       32.2586334400       16.7530101415
H         19.1733148705       34.1610866515       17.5205794626
H         18.4541882019       32.3207035271       20.6435998092
H         23.0422484247       32.1626382264       17.2695811246
H         21.5261314585       33.8778412621       18.6052734345
H         16.4542037966       33.8053143216       20.6281313070
H         14.1716360369       34.3911872638       16.7487476141
H         13.2065427156       33.1031548407       17.5246752864
H         12.9270767195       34.8072031940       17.9486802383
    77
VM2 Rank=9      G=189.378           E=106.140           -TS=83.238              
C         24.1692191135       25.7874464597        6.4517642317
C         23.4970857821       27.0161112188        6.3803872731
C         24.2624184822       25.1152854363        7.6810451567
C         22.9171655440       27.5762126782        7.5282339205
F         23.4049585977       27.6632589470        5.2004444169
C         23.6797285315       25.6733330626        8.8317631597
C         22.9970554930       26.9047614159        8.7643649662
N         22.4094944172       27.4711316558        9.9311012048
C         22.5167072247       28.8959545120       10.2226746288
C         21.7122484815       26.7936968852       10.9147910678
C         21.8629553959       29.0338311214       11.6078292745
O         21.3708121460       27.6961406898       11.8772702160
O         21.4348821120       25.6070433024       10.9414248231
C         20.7537569436       30.1021072873       11.6427928643
O         20.9406082201       31.2517174423       11.2828346535
N         19.5117017260       29.6561994307       12.0389243676
C         18.2509935987       30.3179292490       11.6646398388
C         17.3896618613       29.3225122281       10.8474353620
C         17.5095264560       30.8736822628       12.9132089032
C         18.1464714943       28.6972309559        9.6806150140
C         18.3358814897       31.9549104068       13.6584423342
O         16.2509490846       31.4311816543       12.5318320911
C         18.4840186323       27.3310534026        9.7011519558
C         18.5254032754       29.4848993246        8.5782164444
N         18.1726950317       31.8817231344       15.1331412479
C         19.1829763048       26.7565843460        8.6266218996
C         19.2273588280       28.9121569296        7.5044662060
S         16.8060544434       32.6487145429       15.8158423562
C         19.4475360960       31.9962357119       15.8792002472
C         19.5515211219       27.5462825538        7.5263139979
O         17.0279030888       34.0979216027       15.7522560252
C         16.7894705976       32.0364627622       17.5154412216
O         15.6497720918       32.0137301843       15.1711323728
C         20.3613902809       30.8328407242       15.5924764154
C         16.9270899300       32.9243782887       18.5998816537
C         16.6712128881       30.6533421868       17.7547029749
S         19.8728794722       29.1437403028       15.6220765066
C         21.6888588378       30.9818528877       15.2847704224
C         16.9398281856       32.4314186124       19.9145970929
C         16.6930100482       30.1571921315       19.0725034308
C         21.5099785170       28.6501734459       15.2006110296
C         22.3424921052       29.7347940609       15.0673491693
C         16.8232466366       31.0509631345       20.1473973870
O         16.5968676245       28.8113738256       19.3590861476
C         16.5841537666       27.7884876015       18.3439440265
H         24.6159598108       25.3610471550        5.5581421454
H         24.7853295339       24.1638779841        7.7427439792
H         22.3976943831       28.5255292370        7.4455883162
H         23.7638511247       25.1442978803        9.7777171741
H         21.9677504057       29.4811342781        9.4731801005
H         23.5675189737       29.2110480997       10.2481660161
H         22.6187431083       29.3104795592       12.3517517973
H         19.4744853219       28.6846434734       12.3214743699
H         18.4776055841       31.1724064208       11.0115695365
H         17.0123605484       28.5395523656       11.5171648825
H         16.5023363747       29.8409137902       10.4625014968
H         17.3479195208       30.0280564316       13.5963301374
H         19.3921970250       31.8209932239       13.3986452247
H         18.0631680214       32.9529126335       13.2895430821
H         15.7724279565       31.6273465475       13.3737764331
H         18.2061826042       26.7122021251       10.5501391288
H         18.2753644550       30.5422180001        8.5546937556
H         19.4415821320       25.7006808967        8.6491415491
H         19.5156556042       29.5255752434        6.6545534064
H         19.9468968596       32.9408822512       15.6242324304
H         19.2733675616       32.0090519636       16.9617473914
H         20.0901557813       27.1008780952        6.6935957524
H         17.0251984945       33.9931842042       18.4235552117
H         16.5732009151       29.9787651122       16.9096320464
H         22.1947613808       31.9388180699       15.2167551449
H         17.0443194542       33.1170720851       20.7521951271
H         21.7443867435       27.5997661555       15.0844998304
H         23.3954312817       29.6558853522       14.8185249508
H         16.8385216725       30.6692366316       21.1645235455
H         15.7142986126       27.9058281084       17.6848215487
H         17.4988108413       27.8326792213       17.7382866018
H         16.5286671846       26.7969070746       18.8106520467
    77
VM2 Rank=10     G=189.391           E=105.010           -TS=84.381              
C         23.7398004368       26.0959633006        5.4448252740
C         24.0157682572       25.2721429299        6.5458071439
C         22.9945469130       27.2723746702        5.6244972058
C         23.5503262347       25.6153734022        7.8240189465
F         24.7348717391       24.1435669388        6.3752608649
C         22.5283666949       27.6186259222        6.9040830482
C         22.7974582420       26.7908349139        8.0128345952
N         22.3235991570       27.1438229629        9.3076119104
C         22.4227230548       28.5094274574        9.8100851004
C         21.7568447820       26.2902934901       10.2357932600
C         21.8658025404       28.4130828943       11.2410307908
O         21.4750815341       27.0198693994       11.3523029705
O         21.5366741014       25.0983083483       10.1071010824
C         20.6973471470       29.3874261962       11.4852685690
O         20.8150287011       30.5947181924       11.3641907027
N         19.4842171668       28.8026085045       11.7766623534
C         18.1889998920       29.4521853206       11.5203901701
C         17.2843933570       28.4736704635       10.7316349853
C         17.5287418571       29.9561812083       12.8335666921
C         17.9582268721       27.9362015256        9.4739582624
C         18.4382963752       30.9686966525       13.5789205741
O         16.2705757689       30.5739573360       12.5517886603
C         18.3550505753       26.5881087439        9.3983185107
C         18.2075377500       28.7908728549        8.3844982619
N         17.8172458743       31.6071664617       14.7691009104
C         18.9881623319       26.0988833245        8.2437122782
C         18.8436238707       28.3033036379        7.2306909559
S         17.0768892577       30.5828146669       15.9263270820
C         18.4968024421       32.8488548979       15.2128115383
C         19.2318344411       26.9559642252        7.1592616240
O         15.7318569008       30.3618800585       15.3797839430
C         16.9009418850       31.5739396619       17.4309379487
O         18.0181520328       29.4866360223       16.1809576074
C         19.6817353192       32.6280980452       16.1233131353
C         15.8911235978       32.5521405398       17.5201995111
C         17.7718605657       31.3708197955       18.5204913704
S         20.9327667073       31.4052576463       15.9310346782
C         19.9151800556       33.4244705175       17.2157650172
C         15.7651913353       33.3319878431       18.6807038058
C         17.6490345407       32.1556064469       19.6836253479
C         21.7456191543       31.9787383333       17.3834337207
C         21.0860851118       33.0493120828       17.9347495431
C         16.6453709557       33.1342000577       19.7570438800
O         18.4881856322       32.0100934652       20.7686895789
C         19.5520588380       31.0395186413       20.8199165887
H         24.1034855640       25.8225046296        4.4584813170
H         22.7772332454       27.9142211904        4.7741166736
H         23.7789914591       24.9651244732        8.6631644316
H         21.9457887865       28.5275525446        7.0260606607
H         21.8150765429       29.1894224688        9.1989335627
H         23.4674307970       28.8450790522        9.8156675676
H         22.6513959499       28.6424683058       11.9714120839
H         19.5013533752       27.7926063016       11.8493049863
H         18.3584029754       30.3307157771       10.8816221011
H         16.9870862140       27.6460796553       11.3879450181
H         16.3542325646       28.9840754826       10.4510514253
H         17.3709049419       29.0821285346       13.4803305420
H         19.3527552080       30.4445188110       13.8804734393
H         18.7356213689       31.7413556230       12.8577427286
H         15.8356571329       30.7156792941       13.4256435555
H         18.1767570552       25.9177905848       10.2348647439
H         17.9097425023       29.8348621702        8.4338465769
H         19.2960029507       25.0572724549        8.1930414447
H         19.0339098567       28.9687453363        6.3924420167
H         18.8350339908       33.4207277806       14.3387355154
H         17.7736982059       33.4932373356       15.7289674578
H         19.7246203582       26.5773358827        6.2671734472
H         15.2097619046       32.7103524947       16.6871937836
H         18.5486487034       30.6162985085       18.4452385854
H         19.2750808727       34.2470808832       17.5163609724
H         14.9881411846       34.0899301344       18.7458731870
H         22.6515766133       31.4939822479       17.7239789871
H         21.4176757503       33.5622938109       18.8313495466
H         16.5505812151       33.7401694091       20.6538361480
H         19.1526035718       30.0214323788       20.7262282532
H         20.2754187930       31.2130948640       20.0131506623
H         20.0821658357       31.1136027764       21.7777909105
    77
VM2 Rank=11     G=189.474           E=105.784           -TS=83.690              
C         21.4414260556       28.0854778280        5.3894177901
C         22.7335468012       28.0289127697        5.9326914575
C         20.3293250241       27.8269710703        6.2072465878
C         22.9216666181       27.7162717907        7.2876172072
F         23.8025067103       28.2762459721        5.1478503275
C         20.5158634526       27.5131313620        7.5641652119
C         21.8113923229       27.4541014211        8.1132215182
N         21.9941244174       27.1469610537        9.4889872608
C         22.8523008266       27.9600996554       10.3420437961
C         21.3890892875       26.1186915423       10.1859141813
C         22.6803608560       27.3300095935       11.7359829733
O         21.7956040185       26.2060365800       11.4844465809
O         20.6358605393       25.2699111336        9.7413042542
C         22.1046346067       28.3190415258       12.7693540155
O         22.5675055954       29.4331444198       12.9495030788
N         20.9791233107       27.8930362226       13.4388673943
C         20.0270785535       28.8200038088       14.0643199750
C         18.6011437341       28.2180666444       13.9847466588
C         20.4796144669       29.1753165817       15.5105527445
C         18.1946674059       27.8758570469       12.5569424723
C         19.6001355733       30.2528336732       16.1878692682
O         20.4833555467       28.0042683537       16.3246758884
C         18.0144072232       26.5352867303       12.1699572126
C         18.0086453387       28.8984781882       11.6088289290
N         19.4710451260       31.5167873198       15.4140470971
C         17.6411911187       26.2220144868       10.8525846652
C         17.6364917401       28.5865310152       10.2910117617
S         18.1381095062       32.5015069917       15.8332345047
C         20.7461647732       32.2111033853       15.1020413466
C         17.4473454166       27.2476735311        9.9139763208
O         18.1851519434       32.7075046753       17.2851847734
C         16.7409625643       31.4781279937       15.3210208368
O         18.1886030989       33.6358199563       14.9024310217
C         21.4354501150       32.7485455074       16.3289709930
C         16.0002526299       30.7510220021       16.2729295187
C         16.4184563676       31.3635303507       13.9549422587
S         22.6641062167       31.8885552488       17.2452336198
C         21.1907181269       33.9976535244       16.8390311958
C         14.9540373260       29.9107948778       15.8588448602
C         15.3804303195       30.5176623052       13.5369896147
C         22.8150474219       33.2529470717       18.3488890514
C         21.9750327376       34.2803980112       17.9942227503
C         14.6458610516       29.7897935391       14.4934079812
O         15.1275769760       30.4294837231       12.1853640367
C         14.4345871388       29.3123895153       11.5961350074
H         21.3051231958       28.3285454954        4.3395153228
H         19.3255064735       27.8700973176        5.7914831298
H         23.9302074615       27.6735933376        7.6868638389
H         19.6502734980       27.3169275752        8.1901423209
H         22.5219876910       29.0072927958       10.3269405907
H         23.8981363003       27.8952564274       10.0177520791
H         23.6445582149       26.9735867442       12.1185103524
H         20.6486736406       26.9686476484       13.1875790582
H         20.0299639202       29.7485356202       13.4763824664
H         18.5422020703       27.3248215917       14.6193498912
H         17.8746026125       28.9252956998       14.3971845538
H         21.5063865663       29.5601489595       15.4532426986
H         18.6117333424       29.8112459699       16.3606364356
H         20.0150410220       30.4697918889       17.1810569142
H         20.9767409558       27.3316332126       15.8090109795
H         18.1625402990       25.7340025005       12.8888092914
H         18.1457285941       29.9373888578       11.8942941749
H         17.5063535884       25.1841893512       10.5585015517
H         17.4885987771       29.3825459603        9.5657444885
H         21.4350668638       31.5358568939       14.5793854771
H         20.5608627510       33.0419895377       14.4083475224
H         17.1557958914       27.0044385486        8.8954357339
H         16.2425178315       30.8295070145       17.3304505204
H         16.9875338976       31.9157185787       13.2119788610
H         20.4754006627       34.6970113271       16.4193801990
H         14.3852175883       29.3482070534       16.5953775372
H         23.5117134294       33.2046769311       19.1760442029
H         21.9110254441       35.2178520150       18.5365393043
H         13.8358472225       29.1342574668       14.1899371217
H         14.9404100425       28.3706113958       11.8474272834
H         13.3961674287       29.2656179055       11.9473580077
H         14.4222195271       29.4137138457       10.5037340701
    77
VM2 Rank=12     G=189.479           E=105.915           -TS=83.564              
C         23.9470391956       26.0735680511        5.4746714591
C         24.4074650175       25.3766393026        6.6013049977
C         23.0537057718       27.1449174438        5.6352887837
C         23.9795336050       25.7421720749        7.8864238736
F         25.2686953873       24.3495641807        6.4487257947
C         22.6247014513       27.5134301866        6.9216428800
C         23.0794133821       26.8121880009        8.0567467649
N         22.6428080149       27.1873499262        9.3583558775
C         22.5773005117       28.5857634507        9.7674208694
C         22.2637374558       26.3317349609       10.3759265744
C         22.1305119106       28.5152679077       11.2379485338
O         21.9515287209       27.0927881707       11.4629392696
O         22.2087211369       25.1146371761       10.3371076098
C         20.8518068544       29.3325573542       11.5047577918
O         20.7881104270       30.5332134464       11.3037600543
N         19.7547761194       28.6065630119       11.9148170551
C         18.3666932391       29.0508965191       11.7120772004
C         17.5635171846       27.9024049542       11.0534640442
C         17.7244922500       29.5523086245       13.0352004792
C         18.2273829752       27.3738776248        9.7867408118
C         18.5249307122       30.7318831727       13.6478121172
O         16.3759555699       29.9678062080       12.8072859108
C         18.8083547453       26.0922168001        9.7677802885
C         18.2825653904       28.1734947344        8.6304109444
N         17.8965486843       31.3701411730       14.8347576136
C         19.4317441027       25.6132840085        8.6036089304
C         18.9086736889       27.6966529186        7.4667067804
S         17.4058649000       30.3431716606       16.1158066248
C         18.4401294244       32.7145835200       15.1479068546
C         19.4813403949       26.4148630031        7.4525177867
O         16.1033989171       29.8342213385       15.6669227044
C         17.0845357915       31.4248858893       17.5307351024
O         18.5390795092       29.4608711868       16.4153010701
C         19.7080615529       32.6984382269       15.9682413316
C         17.9511338079       31.4269455434       18.6414919613
C         15.9539378430       32.2651190657       17.5330306821
S         21.1601353895       31.7692628434       15.6151928029
C         19.8677523286       33.4860465269       17.0800598456
C         17.6983394639       32.2742289468       19.7320970206
C         15.6980429147       33.1142905548       18.6203167259
C         21.9568262608       32.4358385631       17.0364436972
C         21.1441311935       33.3273157214       17.6921509360
C         16.5760210397       33.1189332659       19.7227269034
O         14.5806074241       33.9200127274       18.5543626524
C         14.2099483389       34.8416500328       19.5980119878
H         24.2829489609       25.7836315572        4.4831965557
H         22.6931765562       27.6881078727        4.7650581331
H         24.3517317022       25.1914478961        8.7451730422
H         21.9266957248       28.3390099683        7.0294834867
H         21.8418512098       29.1301812320        9.1609114920
H         23.5617325604       29.0620576209        9.6771693184
H         22.9190461556       28.9033038697       11.8943600897
H         19.9205660182       27.6161317301       12.0460993644
H         18.3689526363       29.8959244474       11.0088904823
H         17.4289405984       27.0912365798       11.7800578361
H         16.5543434445       28.2578085272       10.8091240885
H         17.7342718715       28.7141598422       13.7455895740
H         19.5197287431       30.3588926014       13.9179686780
H         18.6675462392       31.4811391844       12.8579978711
H         15.9797822972       30.0956468998       13.7014735116
H         18.7809782073       25.4661809074       10.6556172483
H         17.8414892652       29.1667026402        8.6352468083
H         19.8823765568       24.6237560992        8.5966118469
H         18.9485140543       28.3194318417        6.5766288684
H         18.6375390401       33.2625084498       14.2171594474
H         17.6819017563       33.3004069858       15.6827173296
H         19.9667010847       26.0447187596        6.5528302840
H         18.8266448700       30.7816082603       18.6542685302
H         15.2740104223       32.2646335602       16.6851971775
H         19.1046765940       34.1525751024       17.4678871829
H         18.3742000599       32.2785391855       20.5839441275
H         22.9659406394       32.1320940992       17.2838200441
H         21.4398649716       33.8623573490       18.5883846166
H         16.3985571031       33.7681069556       20.5743190802
H         15.0004442079       35.5866851813       19.7561154164
H         13.2893584182       35.3713064159       19.3221297478
H         14.0297930955       34.3082800474       20.5403587565
    77
VM2 Rank=13     G=189.486           E=104.381           -TS=85.105              
C         20.5216453116       28.6144194882        6.2429382271
C         20.3256308259       29.4076719585        7.3826471374
C         21.2746363428       27.4328907495        6.3378593843
C         20.8769957235       29.0280821312        8.6150929751
F         19.5981255283       30.5403272469        7.2958405295
C         21.8240274879       27.0482856691        7.5729543903
C         21.6253607733       27.8392215824        8.7223077928
N         22.1733442913       27.4451587847        9.9753408422
C         22.8392777107       28.4026618689       10.8516131503
C         22.1699440537       26.1696326691       10.5094104366
C         23.2443732189       27.5596387337       12.0727936703
O         22.7917439468       26.2265500798       11.7216826858
O         21.7071501972       25.1583079653       10.0110247823
C         22.6040029684       28.0882770292       13.3699431974
O         22.9396265926       29.1412283655       13.8849777276
N         21.5437516606       27.3561521465       13.8578533909
C         20.4386738148       27.9877709203       14.5895857117
C         19.1098346284       27.2667766276       14.2538877649
C         20.7519173583       28.0607443997       16.1128342054
C         18.8387859228       27.2249398089       12.7544831422
C         19.7000669539       28.8574346470       16.9266512290
O         20.8614325053       26.7450173708       16.6526876247
C         18.9057521573       26.0075630436       12.0521466062
C         18.5341613441       28.4071521560       12.0550978199
N         19.3234998120       30.1707473293       16.3322766314
C         18.6632796092       25.9727898542       10.6687830213
C         18.2864506372       28.3728983410       10.6736142019
S         17.8522227017       30.8541665766       16.8965250407
C         20.4654454318       31.1131383433       16.1871306691
C         18.3526251191       27.1550923294        9.9788868537
O         16.9669105313       29.7074083032       17.1348981642
C         17.1480857467       31.7004303535       15.4660185235
O         18.1744484417       31.7608923846       18.0051274635
C         20.2396110671       32.1554387949       15.1261990215
C         16.9301750651       33.0913176836       15.4841527188
C         16.8199266660       30.9612987040       14.3144757217
S         20.1340873775       31.8225530071       13.4032801102
C         20.1568092181       33.4960872718       15.4003286841
C         16.4154999474       33.7374164000       14.3483031566
C         16.3188197224       31.6036018873       13.1730592628
C         19.9191095024       33.5386517624       13.0727290269
C         19.9663893306       34.2819791866       14.2271128002
C         16.1166198386       32.9980704453       13.1912683120
O         16.0509772714       30.8245596231       12.0674881392
C         15.6987456441       31.3735559763       10.7836880526
H         20.0913638600       28.9157600825        5.2921834394
H         21.4311350466       26.8150796816        5.4568596110
H         20.7022343228       29.6535699825        9.4844553060
H         22.4052137105       26.1315415565        7.6330653069
H         22.1540858663       29.2095620958       11.1420197227
H         23.7228626445       28.8248549860       10.3564952441
H         24.3332205207       27.5720026806       12.2050902341
H         21.3428752098       26.5001288819       13.3552142694
H         20.3513398789       29.0174766069       14.2192418788
H         19.1285898658       26.2493813672       14.6646807614
H         18.2773625184       27.7765466848       14.7531822137
H         21.7229227147       28.5598956768       16.2270308105
H         18.8165634723       28.2124789929       17.0109681031
H         20.0789087010       29.0054959351       17.9464156059
H         21.4681001669       26.2673415302       16.0475139756
H         19.1477596976       25.0865895627       12.5757098812
H         18.4890931829       29.3556448709       12.5799390332
H         18.7238669119       25.0301524642       10.1305420969
H         18.0474126758       29.2905213029       10.1421757136
H         20.6721982679       31.6013362232       17.1493568199
H         21.3821131608       30.5854054127       15.9019493606
H         18.1695834108       27.1284554554        8.9076345122
H         17.1744174377       33.6714367124       16.3709022449
H         16.9680310776       29.8858448645       14.3003250851
H         20.2175097380       33.9192023117       16.3972423650
H         16.2580888405       34.8131266880       14.3606272825
H         19.7805869345       33.8794249864       12.0548698552
H         19.8652412843       35.3617426010       14.2496291725
H         15.7279951759       33.5157633455       12.3202309589
H         14.7587549066       31.9365541527       10.8467162279
H         16.4904757435       32.0404407061       10.4185036841
H         15.5657190728       30.5647363726       10.0542201297
    77
VM2 Rank=14     G=189.489           E=106.694           -TS=82.796              
C         21.9036143322       27.8107950779        5.2741310504
C         23.1500348608       27.8409584484        5.9167766409
C         20.7458806980       27.5172157954        6.0126710071
C         23.2470412777       27.5808260174        7.2922249819
F         24.2632142348       28.1213436520        5.2082239439
C         20.8412751496       27.2558082408        7.3900052499
C         22.0906480206       27.2847501893        8.0400813891
N         22.1810319548       27.0311385090        9.4369152809
C         22.9708594622       27.8858187772       10.3162034352
C         21.5386587207       26.0231665513       10.1311810196
C         22.7303343439       27.2909450444       11.7149471000
O         21.8580743816       26.1609434189       11.4493267683
O         20.8184465154       25.1530739494        9.6728903609
C         22.1103957305       28.3059892322       12.6956950831
O         22.6067954741       29.3971416090       12.9206575293
N         20.9131777757       27.9304426753       13.2630253291
C         19.9652371223       28.8908538661       13.8425209538
C         18.5194358685       28.3803751934       13.6186467709
C         20.3127918983       29.1642933618       15.3346209895
C         18.2142394450       28.1504360553       12.1444154958
C         19.4379766843       30.2616754652       15.9850432911
O         20.1860062043       27.9642494778       16.0949950026
C         18.1213558238       26.8443047909       11.6293890299
C         18.0405973839       29.2472596632       11.2809480726
N         19.4303885694       31.5573161044       15.2542251515
C         17.8465203977       26.6380093445       10.2673620994
C         17.7632137424       29.0424266853        9.9195171321
S         18.1247900388       32.5975416057       15.6226345714
C         20.7594733584       32.1921904525       15.0636497256
C         17.6614236277       27.7370450854        9.4133377439
O         18.0725865196       32.7267109365       17.0832699499
C         16.7146915793       31.6859020124       14.9560965998
O         18.3104617441       33.7733790467       14.7631420964
C         21.3822161951       32.6472905758       16.3577503172
C         16.4510042817       31.7035355503       13.5728568158
C         15.8963165695       30.9198687976       15.8086799915
S         22.4920641567       31.6891618635       17.3267875882
C         21.1660662172       33.8893854129       16.8970640815
C         15.3853475426       30.9552344210       13.0480445731
C         14.8317470635       30.1682999225       15.2881234237
C         22.6313673763       33.0034888019       18.4910430292
C         21.8754445865       34.0876224637       18.1165077052
C         14.5777338960       30.1860722208       13.9018926761
O         14.0769610464       29.4287232987       16.1742640501
C         12.9830581278       28.5849903363       15.7652149026
H         21.8378232862       28.0136636827        4.2090143871
H         19.7769871360       27.4924243646        5.5197258908
H         24.2227124629       27.6049764838        7.7672209101
H         19.9398836048       27.0307380205        7.9523543099
H         22.6191263743       28.9242652936       10.2534106244
H         24.0355535883       27.8371716816       10.0572332892
H         23.6750810877       26.9429537139       12.1502207621
H         20.5644187773       27.0216949786       12.9823776676
H         20.0710980788       29.8380538684       13.2950863827
H         18.3598839916       27.4560583915       14.1882579337
H         17.8015864536       29.1049032368       14.0173620721
H         21.3596679183       29.4929710930       15.3772673121
H         18.4189771347       29.8659447813       16.0658975833
H         19.7853598803       30.4213853710       17.0143615537
H         20.6897421794       27.2864154897       15.5966699877
H         18.2625975681       25.9875403241       12.2827305407
H         18.1232034333       30.2595478299       11.6650268465
H         17.7791053117       25.6264782448        9.8744250591
H         17.6273230314       29.8942590468        9.2579812695
H         21.4498812143       31.4997397357       14.5660669344
H         20.6695472130       33.0561387678       14.3917657692
H         17.4443700465       27.5774246489        8.3601687365
H         17.0783543532       32.2896745260       12.9052100093
H         16.0924662779       30.8961129908       16.8773663867
H         20.5220933867       34.6416452892       16.4540191117
H         15.1889120701       30.9653629022       11.9785006458
H         23.2606472025       32.8877819604       19.3642441180
H         21.8204058152       35.0076002926       18.6889031362
H         13.7617274049       29.6102919639       13.4768533016
H         13.3315722712       27.8068585766       15.0737852482
H         12.5400536019       28.0933235551       16.6404946798
H         12.2010642703       29.1760435032       15.2711999237
    77
VM2 Rank=15     G=189.508           E=106.081           -TS=83.427              
C         21.2765327370       27.7038831090        5.3381196067
C         22.5654140732       27.9125616172        5.8506475288
C         20.2439038649       27.2919352797        6.1959825080
C         22.8288797589       27.7134571448        7.2144214276
F         23.5587249010       28.3067998470        5.0273966283
C         20.5061289078       27.0914198095        7.5618177402
C         21.7987927536       27.2995966890        8.0815333600
N         22.0569357878       27.1070783650        9.4671991235
C         22.8130944485       28.0833706591       10.2434594638
C         21.6191126828       26.0513123083       10.2446347611
C         22.7928048125       27.5086306565       11.6707930620
O         22.0449939308       26.2731740655       11.5205478909
O         20.9743324061       25.0830524622        9.8805926428
C         22.1568294509       28.4721911780       12.6922224432
O         22.5413769917       29.6190966539       12.8482392338
N         21.0732586955       27.9773296148       13.3830620652
C         20.0814812611       28.8382039150       14.0404328744
C         18.6895328928       28.1604254264       13.9732974945
C         20.5412500064       29.1895629412       15.4849112081
C         18.2741141982       27.8452639091       12.5427004082
C         19.6164717724       30.2011551784       16.2015229489
O         20.6259480979       28.0046215414       16.2743014246
C         18.3067933232       26.5230190550       12.0626673403
C         17.8708959601       28.8823868282       11.6830662083
N         19.3989561463       31.4719684752       15.4594852148
C         17.9287327118       26.2407740987       10.7395366436
C         17.4894300162       28.6014796511       10.3609723809
S         18.0333826958       32.3763970567       15.9492442166
C         20.6283020006       32.2392793734       15.1334480259
C         17.5141142972       27.2792555042        9.8902520156
O         18.0984994991       32.4978600340       17.4100247051
C         16.6673896829       31.3295186760       15.3986847881
O         18.0245205638       33.5673547036       15.0905346403
C         21.3213825352       32.7823407136       16.3560017176
C         16.0260387631       30.4615046557       16.3038147943
C         16.2602409777       31.3556355518       14.0498088352
S         22.6173528889       31.9662675481       17.2181925459
C         21.0258099971       34.0039690032       16.9043681379
C         14.9957204493       29.6173000810       15.8603005385
C         15.2209711273       30.5150733707       13.6060283412
C         22.7264423556       33.3091128801       18.3527179014
C         21.8249513321       34.2992457311       18.0461821339
C         14.5986868775       29.6435111811       14.5133749625
O         14.7853580838       30.5033128518       12.2976186308
C         15.1561132836       31.5073106045       11.3328394370
H         21.0815311311       27.8606618503        4.2810720252
H         19.2428257894       27.1285534467        5.8041789039
H         23.8350123414       27.8764034979        7.5876093703
H         19.7004024010       26.7736575823        8.2169601549
H         22.3246500461       29.0658855696       10.1974169583
H         23.8438414909       28.1625728945        9.8770188852
H         23.8131763417       27.2915722596       12.0096815802
H         20.8074916288       27.0270594819       13.1538657957
H         20.0214793539       29.7759729256       13.4702199525
H         17.9340592780       28.8140806332       14.4227647926
H         18.6924110709       27.2444426308       14.5776242129
H         21.5436539692       29.6325147246       15.4165659456
H         18.6585475365       29.7007133325       16.3840423708
H         20.0391636416       30.4203634133       17.1909801035
H         21.1524710108       27.3732432279       15.7398149180
H         18.6251741670       25.7128008366       12.7130536191
H         17.8532504872       29.9068114434       12.0415870029
H         17.9585589520       25.2175672587       10.3730750903
H         17.1734380183       29.4067303939        9.7029652713
H         21.3370485646       31.6137636654       14.5765551848
H         20.3827023888       33.0757393979       14.4656877536
H         17.2161723525       27.0602814144        8.8680187561
H         16.3335085750       30.4346507934       17.3468753395
H         16.7617179803       32.0245728854       13.3574492997
H         20.2645257051       34.6751277032       16.5211395386
H         14.5058786817       28.9425837774       16.5583823695
H         23.4465752488       33.2773758715       19.1603466446
H         21.7268890548       35.2185270816       18.6139270855
H         13.8015207368       28.9902621894       14.1696199851
H         14.8624998694       32.5056509548       11.6822152676
H         16.2381441616       31.4976342739       11.1528458229
H         14.6501078893       31.3139696865       10.3785856391
    77
VM2 Rank=16     G=189.529           E=106.453           -TS=83.076              
C         24.4723542153       26.3005760481        5.6110753915
C         23.3858523327       25.5644742850        6.1047088579
C         25.0128528299       27.3434986951        6.3801890345
C         22.8365625487       25.8651447016        7.3597021809
F         22.8639465750       24.5618482408        5.3684477847
C         24.4623526626       27.6472900316        7.6372425688
C         23.3680085807       26.9122179876        8.1379918477
N         22.8031674882       27.2302999078        9.4068780856
C         22.5811902217       28.6125661148        9.8198360247
C         22.3690934146       26.3315205884       10.3647657802
C         22.0374357286       28.4812497047       11.2525978270
O         21.8774333048       27.0486992461       11.4148546997
O         22.4056415642       25.1143597099       10.3077039848
C         20.7352123245       29.2710833931       11.4838275977
O         20.6228208518       30.4510822307       11.1985245716
N         19.6791621995       28.5415848496       11.9841354467
C         18.2712209221       28.9449134737       11.8397896673
C         17.4666353807       27.7568730652       11.2588604233
C         17.6860787130       29.4752010358       13.1776251773
C         18.0831737478       27.2126216837        9.9755212229
C         18.4880096485       30.6939481269       13.7059099652
O         16.3172804180       29.8503226380       13.0083239111
C         18.7204933831       25.9580110051        9.9668433141
C         18.0453056818       27.9761804754        8.7945030407
N         17.9077392896       31.3597362670       14.9022004263
C         19.3063699308       25.4689419668        8.7878110722
C         18.6354858035       27.4903270217        7.6160284853
S         17.5131045077       30.3678744653       16.2426575281
C         18.4359806159       32.7256982847       15.1396489891
C         19.2638428644       26.2349958764        7.6116491495
O         16.2051598315       29.8070165741       15.8798880327
C         17.2267732285       31.4938421831       17.6303482323
O         18.6853908204       29.5295831625       16.5167002965
C         19.7464721096       32.7649364047       15.8892290387
C         18.1435262440       31.5590663013       18.6983472709
C         16.0734222625       32.3033192444       17.6521647367
S         21.2026262479       31.8659284016       15.4794348995
C         19.9448875335       33.5864852752       16.9698038743
C         17.9183613794       32.4392337865       19.7684594118
C         15.8472909938       33.1877136034       18.7251229146
C         22.0570655080       32.5914353824       16.8368357102
C         21.2569064987       33.4783714702       17.5137732276
C         16.7733949819       33.2521599001       19.7780981548
O         14.7410389119       34.0091179791       18.7894928405
C         13.7238756987       34.0466492107       17.7694473024
H         24.8924295378       26.0614375771        4.6382822099
H         25.8573148639       27.9157362202        6.0034799984
H         21.9979446028       25.2798161793        7.7205669373
H         24.8976290532       28.4534425180        8.2209675416
H         21.8457385539       29.0871970406        9.1564396757
H         23.5139487825       29.1889649171        9.8156685210
H         22.7807640164       28.8508755227       11.9696402313
H         19.8792044638       27.5658534034       12.1679370418
H         18.2149383787       29.7660579120       11.1110577519
H         17.3931280371       26.9638335436       12.0136437849
H         16.4367552309       28.0778415909       11.0569567255
H         17.7547551225       28.6625122724       13.9138769629
H         19.5045304345       30.3536183739       13.9351360888
H         18.5704438286       31.4175994413       12.8842509911
H         15.9649044066       29.9959699223       13.9179422389
H         18.7651029803       25.3613184645       10.8739648127
H         17.5619263142       28.9495307278        8.7921114464
H         19.7953617315       24.4978457943        8.7882561001
H         18.6039185495       28.0855338031        6.7068838862
H         18.5701187356       33.2448532678       14.1815309965
H         17.6946781003       33.3138186994       15.6951543788
H         19.7163460587       25.8571933470        6.6981066168
H         19.0358361082       30.9370403410       18.6931105036
H         15.3678054358       32.2389719422       16.8295537076
H         19.1860497820       34.2430859762       17.3821507644
H         18.6312823564       32.4935339271       20.5877327517
H         23.0863848793       32.3214903223       17.0353331215
H         21.5863372065       34.0452463095       18.3781245632
H         16.5998463323       33.9347875707       20.6053507831
H         14.1530727941       34.3451412848       16.8042345336
H         13.2483281722       33.0634247534       17.6592972096
H         12.9480883273       34.7742798779       18.0394230379
    77
VM2 Rank=17     G=189.541           E=106.362           -TS=83.178              
C         24.3513764812       26.2530002652        5.5694637130
C         23.2131707736       25.5624391342        6.0093635454
C         24.9100580997       27.2576931406        6.3755186173
C         22.6303497921       25.8707312797        7.2472653927
F         22.6736515792       24.5965577546        5.2375416896
C         24.3260851762       27.5691447990        7.6154727870
C         23.1795964625       26.8800908779        8.0622911770
N         22.5815991188       27.2064178896        9.3140124619
C         22.4151236599       28.5913930067        9.7440812268
C         22.0640716587       26.3160874652       10.2379291739
C         21.8195458446       28.4641406918       11.1563323372
O         21.5705939658       27.0407584323       11.2820395926
O         22.0383105863       25.0998376634       10.1595251184
C         20.5605154028       29.3264943513       11.3660649959
O         20.5304769590       30.5183188659       11.1109302308
N         19.4445322808       28.6505992219       11.8079852716
C         18.0700309464       29.1407031026       11.6176177397
C         17.2253461889       28.0222229041       10.9605121947
C         17.4569198046       29.6612860329       12.9465467417
C         17.8703608295       27.4798076986        9.6903748602
C         18.3036150707       30.8126383911       13.5510882934
O         16.1212203678       30.1226902333       12.7307252915
C         18.4194974703       26.1843695161        9.6669749815
C         17.9485960903       28.2839415771        8.5385929601
N         17.7082934448       31.4666900048       14.7461204099
C         19.0326862927       25.6955452719        8.5018344280
C         18.5666314348       27.7981485869        7.3744742326
S         17.1807386639       30.4538468986       16.0241928919
C         18.2884410896       32.7965641266       15.0560096272
C         19.1063630193       26.5023999140        7.3548564818
O         15.8395647783       30.0337646925       15.5979095279
C         16.9757433283       31.5310059848       17.4641858305
O         18.2645690381       29.4991243995       16.2815263085
C         19.5553504789       32.7518915548       15.8772161688
C         15.8735522926       32.4042753613       17.5452219569
C         17.9151987463       31.5022533449       18.5138299523
S         20.9382259087       31.6990098503       15.6016170629
C         19.7629172550       33.5936682894       16.9404930381
C         15.7253393145       33.2522485329       18.6544535646
C         17.7746544618       32.3524208802       19.6208700709
C         21.7698640946       32.3943553037       16.9887232356
C         21.0188399262       33.3812217160       17.5779339206
C         16.6747562210       33.2307218388       19.6897215532
O         18.7425407561       32.2916379336       20.6013816230
C         18.7610848450       33.1658412193       21.7461777210
H         24.7971744529       26.0082152887        4.6096090541
H         25.7945326058       27.7944001350        6.0406601196
H         21.7517876712       25.3206037909        7.5660380974
H         24.7762183182       28.3449927690        8.2282148456
H         21.7251676396       29.1122118533        9.0665854341
H         23.3743775159       29.1212982397        9.7794556854
H         22.5611207429       28.7735855462       11.9030793182
H         19.5787498222       27.6601166916       11.9717155744
H         18.0938559728       29.9871728345       10.9166379573
H         17.0679604819       27.2129329271       11.6845867770
H         16.2275646782       28.4116280035       10.7212798737
H         17.4447042433       28.8224806935       13.6561009596
H         19.2892214256       30.4078230936       13.8090586695
H         18.4611277497       31.5588295614       12.7611858436
H         15.7389817396       30.2734094758       13.6274463948
H         18.3742298878       25.5554438172       10.5520221153
H         17.5341483047       29.2885300384        8.5481209119
H         19.4526582730       24.6927509883        8.4905928484
H         18.6250663378       28.4247760556        6.4880599883
H         18.4992619879       33.3375915251       14.1241895890
H         17.5449734228       33.4016648652       15.5903648527
H         19.5801491853       26.1249256068        6.4520404077
H         15.1372718317       32.4287161793       16.7449207756
H         18.7709262986       30.8341899765       18.4639931702
H         19.0451891262       34.3327412908       17.2802202875
H         14.8756151384       33.9284960150       18.7113423110
H         22.7512032740       32.0332677693       17.2685371572
H         21.3432369105       33.9455327634       18.4458518005
H         16.5451671898       33.8963158960       20.5372495028
H         18.8263863761       34.2152184537       21.4307800097
H         17.8555456088       33.0314863984       22.3517838687
H         19.6312138852       32.9414630079       22.3759257247
    77
VM2 Rank=18     G=189.542           E=104.995           -TS=84.547              
C         20.5542745556       27.4111187486        5.7231925776
C         20.3634218421       28.4661703531        6.6272073774
C         21.2542374947       26.2635242259        6.1296177833
C         20.8674940055       28.3818387820        7.9333681975
F         19.6866114754       29.5672841563        6.2410520039
C         21.7566629002       26.1753402858        7.4391811683
C         21.5634137719       27.2310176016        8.3523790623
N         22.0663243837       27.1384989924        9.6801236009
C         22.7714501885       28.2502037693       10.3087112620
C         21.9830811231       26.0392068141       10.5141992452
C         23.1024942251       27.7232488210       11.7155934235
O         22.5945076027       26.3639542022       11.6889019786
O         21.4659208418       24.9625305083       10.2717995856
C         22.4523866583       28.5809595450       12.8181982924
O         22.8329278523       29.7079989918       13.0861476239
N         21.3410239379       28.0351104223       13.4214715910
C         20.2773296375       28.8578362492       14.0110408886
C         18.9100196542       28.1611565822       13.7928862739
C         20.5944667959       29.1729510724       15.5011687628
C         18.6454113020       27.8574310531       12.3240563827
C         19.5896166383       30.1519002930       16.1522453943
O         20.6229388272       27.9669433165       16.2619731193
C         18.7004475941       26.5350706535       11.8466361210
C         18.3603217018       28.9033594186       11.4284048792
N         19.4331844465       31.4431919412       15.4303632460
C         18.4653192306       26.2619372909       10.4889409349
C         18.1208657302       28.6312663734       10.0715041541
S         18.0054513873       32.3117100960       15.7903208469
C         20.6777570930       32.2369148420       15.2655111582
C         18.1726913301       27.3094047705        9.6015505219
O         17.8992943374       32.3799088644       17.2521523242
C         16.7314391372       31.2684516284       15.0466636142
O         18.0758191430       33.5337501145       14.9794722241
C         21.2241219517       32.7472009885       16.5735248399
C         15.9988563250       30.3641978317       15.8401453679
C         16.4903626314       31.3334255400       13.6596671321
S         22.4360730598       31.9219678111       17.5425490882
C         20.8460160127       33.9428782732       17.1283452079
C         15.0425956348       29.5232777022       15.2490537962
C         15.5251332480       30.4960850229       13.0673757989
C         22.3947355473       33.2243062029       18.7276740782
C         21.5113137525       34.2097188891       18.3594961220
C         14.8108933949       29.5887548567       13.8653568638
O         15.2509308688       30.5216508376       11.7160408138
C         15.7303607277       31.5533452644       10.8317352714
H         20.1607033709       27.4846007338        4.7134413273
H         21.4062183214       25.4432439733        5.4321953118
H         20.6972279024       29.2062665585        8.6181371278
H         22.2973617087       25.2820961935        7.7419254123
H         22.1307633581       29.1397295240       10.3627765137
H         23.6880174553       28.4848239888        9.7528576303
H         24.1865808754       27.7246950662       11.8829018307
H         21.1012440997       27.0979674157       13.1221100100
H         20.2527475744       29.8121916198       13.4662814335
H         18.8659695420       27.2375037258       14.3837582396
H         18.1029203871       28.7977047827       14.1712100141
H         21.5919430661       29.6303052582       15.5401948153
H         18.6242525751       29.6372336360       16.2209172796
H         19.9070621548       30.3434111483       17.1857980222
H         21.2100040363       27.3596807589       15.7636096836
H         18.9273396826       25.7172165661       12.5252449931
H         18.3235833049       29.9276205112       11.7860129431
H         18.5154102384       25.2389309244       10.1242621697
H         17.8974189936       29.4431163123        9.3842436827
H         21.4531164526       31.6394630253       14.7699760206
H         20.4929886028       33.0921094461       14.6019098123
H         17.9930431711       27.0977688605        8.5504782736
H         16.1785476142       30.3068299854       16.9114260202
H         17.0619539163       32.0298737593       13.0542204297
H         20.1167682109       34.6147050732       16.6882197439
H         14.4823220082       28.8206604261       15.8613572141
H         23.0241985060       33.1752423600       19.6070112130
H         21.3337766307       35.1059386570       18.9445617282
H         14.0712124189       28.9379590493       13.4074283182
H         15.3901770274       32.5406804726       11.1699370370
H         16.8262997171       31.5516152222       10.7849640449
H         15.3456993892       31.3853616781        9.8179110822
    77
VM2 Rank=19     G=189.555           E=105.873           -TS=83.682              
C         21.5587789767       27.7651229469        5.3852182270
C         20.5371974499       27.2783449794        6.2135659658
C         22.8224240287       28.0459998234        5.9297727592
C         20.7711699952       27.0715953049        7.5808519418
F         19.3218102530       27.0086437561        5.6939694341
C         23.0578886905       27.8407159401        7.3002299985
C         22.0341637892       27.3516758930        8.1369217748
N         22.2682580029       27.1570581579        9.5274899970
C         22.9795180064       28.1493259034       10.3263523038
C         21.8407690453       26.0866230819       10.2912496038
C         22.9449155932       27.5657907471       11.7495660833
O         22.2310168446       26.3135742137       11.5775535095
O         21.2286802644       25.1037635904        9.9102085781
C         22.2662936595       28.5086721996       12.7625462260
O         22.6495985914       29.6489197288       12.9635407365
N         21.1482031672       28.0051438005       13.3891525899
C         20.1326888702       28.8564622811       14.0221727104
C         18.7396117591       28.1963892209       13.8642900286
C         20.5227042540       29.1590013123       15.4978220702
C         18.3927152868       27.9325847737       12.4053010354
C         19.5724963139       30.1582186397       16.1983542393
O         20.5568335015       27.9498979058       16.2536833260
C         18.0481813384       29.0023988261       11.5603006481
C         18.4301515653       26.6255942700       11.8854546736
N         19.4039811620       31.4531938680       15.4859523915
C         17.7295489796       28.7691429239       10.2125713427
C         18.1143707868       26.3908764159       10.5369415438
S         18.0236516880       32.3565843217       15.9345454315
C         20.6550206690       32.2170835293       15.2457223441
C         17.7580737859       27.4620608110        9.7016649289
O         18.0161307817       32.4325652111       17.3998255551
C         16.6778154529       31.3415019034       15.2839113966
O         18.0688327451       33.5733264236       15.1139729816
C         21.2906112888       32.7151837909       16.5176713016
C         15.9840228061       30.4527978569       16.1282462420
C         16.3393306046       31.4133608926       13.9178311064
S         22.5343329620       31.8596038878       17.4176921865
C         20.9785821341       33.9223616578       17.0884668567
C         14.9698922178       29.6334289714       15.6075569480
C         15.3162874852       30.5977570102       13.3965458066
C         22.5979923549       33.1657021579       18.5976632751
C         21.7218209372       34.1740809397       18.2774953204
C         14.6414114592       29.7052233425       14.2439299023
O         14.9469145316       30.6308941911       12.0682795382
C         15.3753059201       31.6597525967       11.1549451401
H         21.3700643114       27.9226118178        4.3271309005
H         23.6183201078       28.4221800031        5.2914067259
H         19.9675826039       26.6939098984        8.2034187854
H         24.0421329854       28.0584753912        7.7056826416
H         22.4645680222       29.1179946447       10.2755624062
H         24.0155371578       28.2599993265        9.9838345074
H         23.9635553874       27.3717559571       12.1071531402
H         20.8894852609       27.0612747783       13.1279890628
H         20.1102440475       29.8117658447       13.4790069075
H         18.7040579261       27.2613885530       14.4376562501
H         17.9688200137       28.8433282783       14.2971308938
H         21.5313059546       29.5930656175       15.4929694792
H         18.6021149960       29.6627064738       16.3175039777
H         19.9470873420       30.3427986883       17.2139118608
H         21.1051711223       27.3298508512       15.7279782499
H         18.0273788695       30.0152986875       11.9500702638
H         18.7034638276       25.7904083243       12.5246795483
H         17.4590732802       29.5995076037        9.5655995592
H         18.1467998161       25.3791025063       10.1401939201
H         21.3851752500       31.6013922567       14.7057964030
H         20.4508658398       33.0760952975       14.5927996115
H         17.5092017584       27.2803791147        8.6589786827
H         16.2383425040       30.3906478789       17.1840356645
H         16.8809340239       32.0980278876       13.2726885869
H         20.2434492139       34.6128234871       16.6888236931
H         14.4395660609       28.9426886947       16.2588146207
H         23.2762477521       33.1016682034       19.4389313575
H         21.6033856997       35.0764140248       18.8680855837
H         13.8568001451       29.0712147567       13.8404558239
H         15.0737561228       32.6501116563       11.5199249915
H         16.4649136978       31.6437606878       11.0293438392
H         14.9164027307       31.5011165857       10.1709410978
    77
VM2 Rank=20     G=189.557           E=105.680           -TS=83.877              
C         24.2798631467       26.2253179525        5.5909382167
C         23.1041299666       25.5794626157        5.9988817313
C         24.8716194531       27.1857866375        6.4267458323
C         22.5167101279       25.8885751427        7.2344041696
F         22.5327731878       24.6561356452        5.1984232089
C         24.2831603430       27.4980712420        7.6643669601
C         23.0990985636       26.8539803354        8.0791348224
N         22.4971540587       27.1815169084        9.3286532853
C         22.3881838198       28.5634174046        9.7861631833
C         21.9245125964       26.2971027890       10.2253446630
C         21.7662634482       28.4343127770       11.1868344549
O         21.4489262984       27.0219308039       11.2776208655
O         21.8435728307       25.0853038263       10.1201581160
C         20.5462060534       29.3506015266       11.3981455043
O         20.5758483543       30.5476023115       11.1684616561
N         19.3934174409       28.7190730791       11.8101719979
C         18.0463917872       29.2771657205       11.6108888268
C         17.1611619516       28.2146184698       10.9154450945
C         17.4371647015       29.7959118713       12.9422827298
C         17.8005942600       27.6709569894        9.6430111122
C         18.3268864197       30.8924235995       13.5859106043
O         16.1279628025       30.3243497239       12.7172289546
C         18.2877102168       26.3515216192        9.5976153709
C         17.9361711193       28.4964389906        8.5118346682
N         17.7426750213       31.5442799398       14.7874014404
C         18.8961611522       25.8604884726        8.4309229858
C         18.5496374067       28.0081943897        7.3463274794
S         17.1401896606       30.5292508140       16.0297330167
C         18.3700985400       32.8422988914       15.1365991608
C         19.0272610419       26.6888065553        7.3045577950
O         15.7797442643       30.2063359781       15.5807816815
C         16.9984431317       31.5722501459       17.5025517633
O         18.1610645123       29.5022579786       16.2654331258
C         19.6208504468       32.7322422103       15.9764422058
C         15.9378040952       32.4920356160       17.6192296928
C         17.9470628615       31.4680869475       18.5399324915
S         20.9305542547       31.5780714767       15.7528658300
C         19.8722594855       33.5883586441       17.0185607456
C         15.8372557351       33.3123846257       18.7540031765
C         17.8494711520       32.2936574576       19.6769282760
C         21.7953627725       32.2620523107       17.1252116603
C         21.1065963748       33.3150523116       17.6746239474
C         16.7939386181       33.2135127080       19.7773954929
O         18.7626042208       32.2448534932       20.7096545464
C         19.8854823041       31.3419510514       20.7291774572
H         24.7289667460       25.9801908608        4.6327131095
H         25.7851588554       27.6875966685        6.1167246413
H         21.6087211387       25.3733976530        7.5281382295
H         24.7589864504       28.2390925418        8.3003595211
H         21.7330943195       29.1296545431        9.1104942963
H         23.3701268247       29.0475359070        9.8464036207
H         22.5103916363       28.6922301737       11.9504260847
H         19.4786519616       27.7201653794       11.9543706529
H         18.1206496253       30.1371822586       10.9302254179
H         16.9545093480       27.3976537193       11.6182015433
H         16.1866399321       28.6557692538       10.6702342943
H         17.3744826879       28.9427605591       13.6317658217
H         19.2891420957       30.4372406457       13.8482047948
H         18.5302585040       31.6489839078       12.8166199761
H         15.7397052268       30.4781990141       13.6108002000
H         18.1978484725       25.7054928828       10.4667954685
H         17.5699459904       29.5192857962        8.5385821665
H         19.2679675729       24.8391901938        8.4025670229
H         18.6525837265       28.6513310526        6.4759349240
H         18.6170229054       33.3947456769       14.2204803377
H         17.6418957872       33.4643468766       15.6726125220
H         19.4974437624       26.3096866446        6.4005501990
H         15.1969089429       32.5736593988       16.8270196166
H         18.7626474942       30.7582113091       18.4436975698
H         19.2025538262       34.3841686464       17.3267085387
H         15.0205506410       34.0252055824       18.8400835215
H         22.7489712788       31.8471332865       17.4255331545
H         21.4610728577       33.8857298273       18.5264852572
H         16.7185448638       33.8509159791       20.6540091391
H         20.4692172407       31.4884152330       21.6466888630
H         19.5445431598       30.2989489099       20.7017808892
H         20.5445481802       31.5230685379       19.8706442966
    77
VM2 Rank=21     G=189.566           E=106.474           -TS=83.092              
C         24.1961594227       26.0440755937        5.4946804534
C         24.6287522825       27.2321542901        6.1007722302
C         23.2627781838       25.2277358926        6.1526623826
C         24.1329979719       27.6108636946        7.3575792328
F         25.5289015595       28.0161208385        5.4722972746
C         22.7659594421       25.6050130774        7.4117199933
C         23.1931032602       26.8000607429        8.0256900444
N         22.6794205571       27.1874913104        9.2977816077
C         22.3093369975       28.5703047731        9.5853823426
C         22.4373523648       26.3573815397       10.3782813611
C         21.9331740954       28.5414864435       11.0760410980
O         21.9397412381       27.1255238697       11.3889792087
O         22.6231674825       25.1543970296       10.4444518865
C         20.5911722672       29.2330693516       11.3806044348
O         20.3427327214       30.3714186230       11.0216804119
N         19.6588081133       28.4586747211       12.0350717883
C         18.2103753076       28.7117830152       11.9739744777
C         17.4932572204       27.4171797834       11.5202421763
C         17.6677824128       29.2685253185       13.3184305476
C         18.0884565198       26.8460692133       10.2382870262
C         18.3776220053       30.5909813708       13.7119590838
O         16.2597247956       29.4974317207       13.2297102908
C         18.8171553947       25.6425590269       10.2655284791
C         17.9432524322       27.5380743793        9.0219211471
N         17.8161579960       31.2763059584       14.9062215867
C         19.3878244546       25.1328527490        9.0878547502
C         18.5188013699       27.0324134097        7.8446321682
S         17.6142431679       30.3428865327       16.3290523208
C         18.2191799544       32.6994824175       15.0219923697
C         19.2392337203       25.8280632240        7.8768405032
O         16.3476112231       29.6363555267       16.0980651133
C         17.3106647120       31.5265400025       17.6640867391
O         18.8804277166       29.6408936245       16.5658039355
C         19.5660618341       32.9144402921       15.6704219349
C         18.2862007867       31.7506821515       18.6557544843
C         16.0860655227       32.2214720676       17.7222107789
S         21.0739564602       32.1313115964       15.2127862249
C         19.7528612429       33.8233061202       16.6808780294
C         18.0465841459       32.6749230960       19.6847829726
C         15.8452756925       33.1500394646       18.7538623333
C         21.9399859782       33.0261324818       16.4570772336
C         21.1022052292       33.8776484469       17.1339812041
C         16.8291367289       33.3732612525       19.7299595696
O         14.6691273930       33.8642233775       18.8501080905
C         13.5872106220       33.7363905882       17.9068986774
H         24.5851962708       25.7585753950        4.5214904312
H         22.9251241718       24.3040128952        5.6888612931
H         24.4913604962       28.5316005181        7.8060157801
H         22.0458010416       24.9614688919        7.9078297124
H         21.4512199549       28.8626138333        8.9652468810
H         23.1453480652       29.2587815923        9.4146866079
H         22.7079296709       29.0485695494       11.6642480600
H         19.9681802781       27.5236029437       12.2714456760
H         18.0204585458       29.4756604536       11.2066269504
H         17.5397402080       26.6747230398       12.3268289743
H         16.4274767038       27.6266164424       11.3631086198
H         17.8687332827       28.5163343780       14.0937249825
H         19.4365256040       30.3656809236       13.8845364672
H         18.3308403339       31.2628068457       12.8447401890
H         15.9573090225       29.6681521120       14.1528704070
H         18.9452825260       25.1021870595       11.1995978355
H         17.3889685481       28.4723329712        8.9909934568
H         19.9475220871       24.2012435557        9.1164428749
H         18.4049119540       27.5727680494        6.9082322717
H         18.2363303106       33.1638558857       14.0272256704
H         17.4612212650       33.2495442259       15.5937724335
H         19.6806847240       25.4349683572        6.9644935515
H         19.2340152574       31.2180711489       18.6220913754
H         15.3366023928       32.0349013284       16.9591771643
H         18.9614574051       34.4317056945       17.1057498944
H         18.8040953940       32.8520255551       20.4445354205
H         23.0018811688       32.8692067943       16.5968038021
H         21.4301112642       34.5311911038       17.9354381156
H         16.6442057351       34.0900170316       20.5252633853
H         13.9186962323       34.0096811916       16.8967630108
H         13.2061111266       32.7070666430       17.8906975934
H         12.7623694316       34.4028539176       18.1891113529
    77
VM2 Rank=22     G=189.570           E=105.624           -TS=83.946              
C         23.9141999493       26.0478106219        5.4008497137
C         24.3734906894       27.2159825651        6.0256635651
C         22.9459059539       25.2543745758        6.0359612291
C         23.8698047070       27.5976296862        7.2784188850
F         25.3072032243       27.9777761553        5.4192779340
C         22.4410858208       25.6345974083        7.2909402471
C         22.8948683673       26.8099394310        7.9236370029
N         22.3733793550       27.2007426513        9.1916219727
C         22.0441675795       28.5919012777        9.4888107145
C         22.0870025675       26.3679086057       10.2591997729
C         21.6498014761       28.5603620861       10.9746421161
O         21.5998272740       27.1417066779       11.2706871082
O         22.2312811655       25.1587144591       10.3149653033
C         20.3317337531       29.2990561132       11.2728223666
O         20.1313307636       30.4505055374       10.9258120275
N         19.3624881002       28.5528011868       11.9059691473
C         17.9254697987       28.8599470241       11.8264717851
C         17.1699434130       27.6034776677       11.3298029158
C         17.3798443964       29.4055361000       13.1741312658
C         17.7698287737       27.0372663088       10.0477780116
C         18.1300123186       30.6921609259       13.6101674901
O         15.9825585269       29.6880197859       13.0664084380
C         18.4429391609       25.8015963870       10.0614797528
C         17.6856622815       27.7644670315        8.8462418350
N         17.5724387884       31.3612863224       14.8148310788
C         19.0187627949       25.2951782125        8.8849150383
C         18.2668524139       27.2620265611        7.6703519945
S         17.2886182234       30.3958915451       16.2019864302
C         17.9990513975       32.7729670077       14.9748514854
C         18.9314579369       26.0257230052        7.6888291741
O         15.9643730154       29.8129513414       15.9505614978
C         17.1261754727       31.5485994594       17.5883702435
O         18.4902435838       29.5770853682       16.3971868712
C         19.3313704895       32.9547902582       15.6630902875
C         15.9412204393       32.2918145748       17.7559779044
C         18.1832401835       31.7068998644       18.5073107858
S         20.7893985279       32.0100343582       15.3820686429
C         19.5396383395       33.9444577169       16.5900936238
C         15.8217048697       33.1978260936       18.8216502098
C         18.0659519378       32.6187349895       19.5743849489
C         21.6628729696       32.9644294761       16.5758965063
C         20.8646290339       33.9440833571       17.1126908850
C         16.8842662994       33.3611702133       19.7253269947
O         19.0782162926       32.8251239665       20.4884112596
C         20.3356875743       32.1226460391       20.4464535373
H         24.3096116013       25.7598735469        4.4309529974
H         22.5873985765       24.3460531581        5.5576193301
H         24.2493908523       28.5023927315        7.7416244216
H         21.6936977490       25.0087370357        7.7690856343
H         21.2028123452       28.9170934763        8.8620924787
H         22.9032459375       29.2553917715        9.3346266354
H         22.4365545586       29.0307969739       11.5772025573
H         19.6334339762       27.6039635889       12.1345469425
H         17.7767671442       29.6478061695       11.0744638663
H         17.1718369897       26.8428877748       12.1206748939
H         16.1162676913       27.8565555463       11.1561454772
H         17.5393786738       28.6288093156       13.9346778471
H         19.1788039926       30.4283445324       13.7903851602
H         18.1170118526       31.3881219317       12.7610310990
H         15.6701246272       29.8680954196       13.9844822165
H         18.5237740455       25.2334188134       10.9842696385
H         17.1747484657       28.7234076705        8.8259753684
H         19.5349385602       24.3385315418        8.9029203765
H         18.2004192792       27.8296334130        6.7455802379
H         18.0487273912       33.2604542609       13.9923419781
H         17.2347824220       33.3206296526       15.5409734802
H         19.3771168736       25.6352680395        6.7773948081
H         15.1174968512       32.1703259899       17.0560459378
H         19.0941819541       31.1321903820       18.3722014885
H         18.7789917763       34.6495333171       16.9079860032
H         14.9080924670       33.7742211947       18.9465966481
H         22.6999092031       32.7425608808       16.7928048155
H         21.2030440901       34.6504035304       17.8634119388
H         16.7935362154       34.0650477133       20.5479709258
H         20.1789009791       31.0410471049       20.5484538265
H         20.8586675029       32.3183998426       19.5017746163
H         20.9794658125       32.4555063772       21.2703326055
    77
VM2 Rank=23     G=189.586           E=106.476           -TS=83.111              
C         22.1703841025       27.8073559200        5.3574707295
C         21.0219472934       27.4321531818        6.0695287816
C         23.3983701159       27.9249552489        6.0286051086
C         21.0939634872       27.1747738603        7.4463089294
F         19.8404742052       27.3193910575        5.4282023598
C         23.4717093320       27.6688210310        7.4087334947
C         22.3200644144       27.2914891461        8.1289020582
N         22.3914058422       27.0456986015        9.5292886779
C         23.1359946214       27.9287316780       10.4207256438
C         21.7651660937       26.0229181361       10.2175791002
C         22.8896612854       27.3311568561       11.8169843154
O         22.0529782589       26.1774065708       11.5410688783
O         21.0787616289       25.1296806267        9.7519119218
C         22.2287074941       28.3327484742       12.7843529695
O         22.7204686406       29.4163272388       13.0517808021
N         21.0029684455       27.9559685586       13.2861807498
C         20.0349720113       28.9120186078       13.8389651363
C         18.5983413035       28.4241904311       13.5242989899
C         20.3048790102       29.1433791416       15.3539928306
C         18.3697827909       28.2401040658       12.0298652745
C         19.4073462620       30.2335346454       15.9853596978
O         20.1256622999       27.9258770987       16.0750695306
C         18.2839562476       26.9505444714       11.4734826223
C         18.2600649464       29.3632777639       11.1900868429
N         19.4517036654       31.5474899802       15.2893943206
C         18.0787669152       26.7869200180       10.0934895534
C         18.0528944008       29.2011993649        9.8105557591
S         18.1379136768       32.5920336431       15.6139088984
C         20.7951650161       32.1724510408       15.1876344793
C         17.9572800954       27.9124202255        9.2625328894
O         18.0069334126       32.6830751619       17.0724784256
C         16.7579163268       31.7139152859       14.8469434249
O         18.3817564441       33.7881367416       14.7980206081
C         21.3511519143       32.5870039585       16.5250444866
C         16.5704617184       31.7715164834       13.4524067955
C         15.8871197275       30.9340279780       15.6323963196
S         22.3981371377       31.5921919875       17.5265349373
C         21.1174395034       33.8167612395       17.0849190100
C         15.5283401866       31.0489350530       12.8500335654
C         14.8458393043       30.2080201657       15.0342317298
C         22.4861606782       32.8740409926       18.7313020377
C         21.7615336198       33.9755166015       18.3456735837
C         14.6682468679       30.2657059394       13.6372325626
O         14.0370334864       29.4528600360       15.8573253363
C         12.9601757693       28.6312756907       15.3661958315
H         22.1068096866       28.0049483375        4.2912238003
H         24.2920694822       28.2140951096        5.4807242179
H         20.1940075256       26.8852711832        7.9775769781
H         24.4299674725       27.7597715545        7.9127240934
H         22.7511845286       28.9547446161       10.3479642995
H         24.2065553059       27.9148514074       10.1827966336
H         23.8368440328       27.0099705747       12.2673442027
H         20.6636835856       27.0531796149       12.9764852624
H         20.1796196192       29.8717654793       13.3231904616
H         18.3999155198       27.4859213646       14.0577325143
H         17.8672482671       29.1450268098       13.9052037038
H         21.3512070071       29.4590446423       15.4606633476
H         18.3816194594       29.8473709365       16.0013905723
H         19.7005646927       30.3628722856       17.0355829730
H         20.6504825397       27.2556820822       15.5883580519
H         18.3761084645       26.0736773555       12.1086904018
H         18.3379503505       30.3629528275       11.6067892907
H         18.0154352196       25.7879418909        9.6690087849
H         17.9664986235       30.0732419010        9.1672962171
H         21.5048307072       31.4855311127       14.7098692133
H         20.7500885554       33.0544416679       14.5349627087
H         17.7950795226       27.7862634108        8.1948251256
H         17.2387527856       32.3686380133       12.8362023529
H         16.0242892605       30.8794652358       16.7091209675
H         20.5052702796       34.5871078838       16.6280819653
H         15.3908825011       31.0898111038       11.7720491456
H         23.0661524986       32.7288803354       19.6337430339
H         21.6839634518       34.8807192265       18.9386470255
H         13.8715468145       29.7101952601       13.1527523157
H         13.3395959769       27.8684542642       14.6739709457
H         12.4655552570       28.1208502307       16.2022089270
H         12.2115707013       29.2430546643       14.8463622395
    77
VM2 Rank=24     G=189.590           E=106.542           -TS=83.048              
C         20.2700511620       27.1696623274        5.5058264383
C         21.3860777680       26.3566127283        5.7522634224
C         19.8146626290       28.0486465523        6.5017412464
C         22.0487868223       26.4155475898        6.9874172372
F         21.8258602487       25.5134302082        4.7954356458
C         20.4775765113       28.1100618237        7.7392024337
C         21.5964437922       27.2915591480        7.9930394894
N         22.2633362795       27.3527826502        9.2479824330
C         22.6015617259       28.6269942128        9.8720589270
C         22.6837583240       26.2760137505       10.0054957477
C         23.2795761438       28.2176741012       11.1911241185
O         23.2858979321       26.7677009870       11.1255453054
O         22.5534265478       25.0924432192        9.7453985029
C         22.5208614280       28.7558967747       12.4194462185
O         22.4965794508       29.9396301484       12.7113358286
N         21.7820350820       27.8278294266       13.1196724269
C         20.5870531700       28.1912913248       13.8919859230
C         19.5363696756       27.0577360778       13.7863135389
C         20.9703313938       28.5645781614       15.3533974276
C         19.1493436830       26.7741935263       12.3411026991
C         19.7785734898       29.0878324686       16.1902386969
O         21.5413134474       27.4360600406       16.0131151837
C         19.6576082958       25.6455155903       11.6720259189
C         18.2925572002       27.6557146025       11.6573137674
N         18.9991660824       30.1695181921       15.5344525892
C         19.3103845677       25.4002069119       10.3331654293
C         17.9452497030       27.4114648224       10.3182861068
S         17.3673201381       30.2948244259       16.0261348628
C         19.7372740539       31.3997522700       15.1424269753
C         18.4533490340       26.2822320574        9.6563750277
O         16.7420722717       29.0862293462       15.4765533772
C         16.7055750355       31.6823830387       15.0735852366
O         17.3617010595       30.6037990553       17.4604407136
C         19.8786844819       32.4089955370       16.2551526309
C         16.4706307518       31.5437575350       13.6915946228
C         16.4337131809       32.9109483231       15.7073072665
S         20.5354939529       32.0927736125       17.8558194155
C         19.5513352899       33.7311854615       16.0915736518
C         15.9786558735       32.6280157145       12.9479975648
C         15.9451563142       34.0011375210       14.9612385508
C         20.3067057504       33.7799154226       18.3041512527
C         19.7884403343       34.5079389346       17.2617538843
C         15.7198544072       33.8534613447       13.5835025079
O         15.6817933415       35.2299387687       15.5297087108
C         15.8878021729       35.5141142642       16.9273010454
H         19.7621874945       27.1169878971        4.5470868901
H         18.9483599886       28.6791756193        6.3167790112
H         22.9122246325       25.7792039878        7.1574069822
H         20.1066132775       28.7855615539        8.5051196392
H         21.6984352844       29.2213958895       10.0612958763
H         23.2931100933       29.1931477358        9.2353970178
H         24.3053757323       28.6039380568       11.2332682936
H         21.8621192924       26.8730627999       12.7926343926
H         20.1502825942       29.0844156095       13.4238282451
H         19.9205407429       26.1480090656       14.2649350031
H         18.6340044470       27.3343126160       14.3446466273
H         21.7274303001       29.3584806399       15.3057580767
H         19.1175830515       28.2350958768       16.3939286088
H         20.1509199326       29.4250677492       17.1647122257
H         22.2314583558       27.1007257535       15.4021911183
H         20.3244822396       24.9586831867       12.1863734938
H         17.8971039282       28.5310845962       12.1651397770
H         19.7106180327       24.5297282739        9.8190125435
H         17.2836618737       28.0964541734        9.7941457081
H         20.7382757416       31.1564048278       14.7673602881
H         19.2218907907       31.8797930690       14.3007631773
H         18.1884963383       26.0939275578        8.6188962761
H         16.6740106849       30.5973041364       13.1962033381
H         16.6193304152       33.0101579881       16.7724221435
H         19.1494169599       34.1501038461       15.1750561265
H         15.8004278972       32.5204359232       11.8806691178
H         20.5780693817       34.1178384017       19.2960913250
H         19.5813006581       35.5714049359       17.3169669469
H         15.3430814557       34.6942257738       13.0076390982
H         16.9407740069       35.3708656115       17.2011958230
H         15.6155129532       36.5549841291       17.1430517145
H         15.2656224214       34.8600974940       17.5518459835
    77
VM2 Rank=25     G=189.593           E=106.885           -TS=82.707              
C         20.4477914822       26.8496252295        5.6486642701
C         19.9670099255       27.7485864981        6.6118626299
C         21.6027965316       26.0960037287        5.9138261975
C         20.6330041553       27.8996051934        7.8370363777
F         18.8542061951       28.4688308765        6.3618218024
C         22.2695751599       26.2431153433        7.1422031327
C         21.7880008205       27.1425761906        8.1139218220
N         22.4600185912       27.2865278378        9.3590811198
C         22.7517858997       28.6000845058        9.9220259300
C         22.9228688813       26.2623451536       10.1634088309
C         23.4340058193       28.2775631848       11.2626893895
O         23.5062078251       26.8278959194       11.2583587068
O         22.8393165249       25.0639320058        9.9578454015
C         22.6368554867       28.8308386292       12.4596087874
O         22.5639403748       30.0226415209       12.7070037144
N         21.9229720688       27.9017324383       13.1840136588
C         20.7098242323       28.2485196083       13.9356820298
C         19.7068140331       27.0691862758       13.8765518029
C         21.0708732104       28.6986049400       15.3813230862
C         19.3592779331       26.6853491100       12.4441814242
C         19.8517198819       29.1824708608       16.2016988172
O         21.7056900792       27.6301459979       16.0814348228
C         19.9090800817       25.5291673239       11.8602996874
C         18.4966217274       27.4986153197       11.6869250561
N         19.0133979438       30.2009570170       15.5172918645
C         19.5955443716       25.1878195673       10.5342342994
C         18.1824611404       27.1579628777       10.3607945539
S         17.4120139183       30.3200291271       16.1013468719
C         19.6963609596       31.4378998660       15.0510815020
C         18.7305678404       26.0006878817        9.7849308058
O         16.8186711079       29.0232446618       15.7538330150
C         16.6185209450       31.5267927491       15.0145865531
O         17.4735300493       30.8072460554       17.4839547931
C         19.9393491260       32.4440462709       16.1479757279
C         16.3876874968       31.2147701173       13.6607912580
C         16.2350472805       32.7873467127       15.5113480107
S         21.0008900040       32.2106954607       17.5304252840
C         19.3951346930       33.7031255822       16.1297902483
C         15.7901002076       32.1595393577       12.8114242072
C         15.6414702075       33.7362155155       14.6653558562
C         20.6378682546       33.8343283843       18.1066432467
C         19.7856669284       34.4889681925       17.2517637928
C         15.4192100708       33.4195754692       13.3100621402
O         15.3048726738       34.9573758873       15.2106505412
C         14.7113778597       36.0254095542       14.4472469301
H         19.9259139783       26.7387567396        4.7024832182
H         21.9801184028       25.3983140908        5.1700351116
H         20.2352582773       28.5919602493        8.5721268798
H         23.1628651081       25.6547314777        7.3366892631
H         21.8291587368       29.1740413583       10.0770982533
H         23.4294745355       29.1562441169        9.2620709809
H         24.4403896697       28.7124712656       11.2985583753
H         22.0415704445       26.9390541968       12.8938054065
H         20.2387071877       29.1016509785       13.4280942123
H         20.1172754227       26.2050838564       14.4142849865
H         18.7834035342       27.3411350589       14.4022826694
H         21.7809532055       29.5327270569       15.3030267945
H         19.2387920242       28.3015174407       16.4333157572
H         20.2037659474       29.5689850382       17.1655287544
H         22.4089429743       27.3078561588       15.4784631259
H         20.5816751142       24.8946881884       12.4313224294
H         18.0706002265       28.3957365653       12.1271896293
H         20.0278079252       24.2963701480       10.0862211417
H         17.5161461854       27.7903250809        9.7794206836
H         20.6577796989       31.2019024699       14.5795816172
H         19.0987504726       31.9155202792       14.2643582081
H         18.4908836483       25.7377910755        8.7576047548
H         16.6751771042       30.2417643216       13.2695164294
H         16.4071522764       33.0388284926       16.5546408278
H         18.7371257516       34.0723858553       15.3508023005
H         15.6156069830       31.9165217080       11.7659153628
H         21.0838517889       34.1951742403       19.0246207765
H         19.4433155726       35.5065542441       17.4079028805
H         14.9611844970       34.1380056261       12.6375656146
H         13.7472749370       35.7119127732       14.0263569850
H         14.5374403525       36.8962665910       15.0918117791
H         15.3748794516       36.3314996922       13.6280919649
    77
VM2 Rank=26     G=189.619           E=106.478           -TS=83.140              
C         22.2586070083       27.8190050735        5.3521303880
C         21.0929078659       27.4665823497        6.0476804644
C         23.4806444764       27.9039403700        6.0389632392
C         21.1418116967       27.1994412256        7.4236231559
F         19.9171781996       27.3853625802        5.3912069933
C         23.5308918005       27.6378868620        7.4182514865
C         22.3618746747       27.2831628264        8.1215149733
N         22.4099429004       27.0271179654        9.5207558659
C         23.1540946031       27.8935829943       10.4284091101
C         21.7591433378       26.0090367805       10.1927345349
C         22.8714656873       27.2959102245       11.8178358880
O         22.0289228157       26.1514314551       11.5213735209
O         21.0679660639       25.1283217373        9.7105938434
C         22.1987722333       28.3024211490       12.7720812925
O         22.6891917038       29.3857027916       13.0432161902
N         20.9651489686       27.9300736834       13.2578025699
C         19.9931384907       28.8895545371       13.7975006931
C         18.5587438806       28.4024229937       13.4718557566
C         20.2493599664       29.1267685897       15.3140550950
C         18.3419534531       28.2192499939       11.9756068036
C         19.3485387833       30.2213683479       15.9327389323
O         20.0602256005       27.9128331988       16.0385982579
C         18.2731398697       26.9301497840       11.4157902839
C         18.2261681459       29.3431821711       11.1376707305
N         19.3964427367       31.5306289469       15.2281915482
C         18.0791500534       26.7676073642       10.0340444309
C         18.0301353040       29.1821341990        9.7563677852
S         18.0846003963       32.5801964710       15.5437424189
C         20.7410759622       32.1529453772       15.1252393484
C         17.9518148951       27.8936872536        9.2047730824
O         17.9573757494       32.6882000768       17.0014312033
C         16.7000059305       31.6936772858       14.7942446894
O         18.3262898196       33.7656169519       14.7119415719
C         21.2942310755       32.5771813407       16.4607857709
C         16.5043630032       31.7385324558       13.4001410844
C         15.8348875969       30.9225439423       15.5956322410
S         22.3339002103       31.5873345629       17.4747426938
C         21.0639100496       33.8130142762       17.0085529377
C         15.4578028576       31.0120150767       12.8108720142
C         14.7857444915       30.1910355129       15.0047531509
C         22.4233227019       32.8797990551       18.6680038734
C         21.7045515397       33.9806743825       18.2699101451
C         14.6033885234       30.2392143833       13.6136286936
O         13.9190220152       29.4103710574       15.7408389631
C         14.0281528620       29.2370803432       17.1671722836
H         22.2128801360       28.0243809495        4.2864393662
H         24.3875388455       28.1754391398        5.5038869203
H         20.2289911201       26.9282646614        7.9425372422
H         24.4844695391       27.7034104333        7.9349805642
H         22.7899871264       28.9268678384       10.3521495708
H         24.2282739706       27.8602612079       10.2093584172
H         23.8050410819       26.9645911281       12.2887812431
H         20.6275797140       27.0274661952       12.9457427542
H         20.1437904563       29.8468038831       13.2788371818
H         18.3557099348       27.4639812844       14.0032606208
H         17.8249456936       29.1234452214       13.8473017469
H         21.2953097263       29.4407564374       15.4292496705
H         18.3230634109       29.8347787548       15.9454667417
H         19.6360908297       30.3578448485       16.9836405623
H         20.5880417994       27.2392580446       15.5598765496
H         18.3700352816       26.0528191507       12.0496462714
H         18.2907723373       30.3426250996       11.5571934161
H         18.0292783296       25.7690008791        9.6068766071
H         17.9390492071       30.0547184399        9.1144842407
H         21.4512233841       31.4615553899       14.6546756629
H         20.6986780752       33.0299850439       14.4657306867
H         17.7984765172       27.7682672661        8.1356707048
H         17.1693232241       32.3294017791       12.7743852202
H         15.9941326190       30.8917086236       16.6691187581
H         20.4564293287       34.5816474818       16.5426603094
H         15.3123969909       31.0420756980       11.7335952772
H         22.9997793866       32.7405382030       19.5736325582
H         21.6288311141       34.8916000604       18.8542938338
H         13.7962753312       29.6727468767       13.1574952144
H         13.2353856701       28.5684161669       17.5257431508
H         14.9968455199       28.7930784946       17.4308353161
H         13.9244227691       30.1997343744       17.6843432023
    77
VM2 Rank=27     G=189.633           E=105.445           -TS=84.188              
C         23.7640027620       25.4595216903        5.3536336183
C         23.4305421162       26.7699376712        5.7256992139
C         23.6154633179       24.4135727804        6.2787840926
C         22.9498469625       27.0414846238        7.0151732760
F         23.5692688812       27.7757858153        4.8376735397
C         23.1311987469       24.6829655420        7.5703060945
C         22.7901212097       25.9973645803        7.9472420461
N         22.2994854183       26.2691854929        9.2550197796
C         22.7830300872       27.4063843071       10.0295328591
C         21.3640128278       25.5274688818        9.9520895453
C         22.0464222322       27.2717693543       11.3734769776
O         21.1997930983       26.1101105509       11.1735062371
O         20.7755932099       24.5307859160        9.5696075357
C         21.2521293067       28.5403073654       11.7402087195
O         21.7819290448       29.6307242760       11.8690784828
N         19.8872016264       28.3812906308       11.8403089520
C         18.9276801271       29.4779960510       11.6368263913
C         17.8635615213       29.0294045199       10.6050905112
C         18.3022788735       29.9526657377       12.9776404601
C         18.4804069739       28.5211954391        9.3066988202
C         19.3865897746       30.4353656155       13.9787439948
O         17.3752671564       31.0156539265       12.7414440765
C         18.4171020229       27.1552836312        8.9738197267
C         19.1330182949       29.4137033892        8.4365782095
N         18.8552477778       31.0643335434       15.2158868832
C         18.9931987954       26.6886014979        7.7806350263
C         19.7122578983       28.9474218613        7.2446319368
S         17.6587865272       30.1869307408       16.0777638146
C         19.8921757640       31.8069109422       15.9698028746
C         19.6392709537       27.5847134917        6.9148332384
O         16.3975045129       30.5581984281       15.4236862055
C         17.6397461050       30.8284327834       17.7709550465
O         18.1497121531       28.8046135395       16.1224082797
C         19.3616283122       33.0808944274       16.5729272619
C         18.5019453530       30.2876983513       18.7457657762
C         16.7542140514       31.8666865946       18.1246220539
S         18.2411377626       34.1814599133       15.7816405778
C         19.7271686939       33.5238745034       17.8180182743
C         18.4912919204       30.7925751194       20.0556214670
C         16.7467919658       32.3775134063       19.4374102508
C         18.2641263604       35.2382715273       17.1903992001
C         19.0943392054       34.7507421822       18.1700469591
C         17.6167508003       31.8368386566       20.3971444920
O         15.9150318682       33.4058548882       19.8289198415
C         15.0217276264       34.0855058133       18.9256973796
H         24.1358700009       25.2580590587        4.3530988609
H         23.8745478468       23.3960441374        5.9960909562
H         22.6906150008       28.0623015733        7.2771669677
H         23.0232634996       23.8650184084        8.2782836723
H         22.5210604609       28.3496241853        9.5327045626
H         23.8698966692       27.3464909850       10.1682600392
H         22.7624764276       27.0796272328       12.1818891170
H         19.5558530524       27.4328654607       11.7122940192
H         19.4625936431       30.3357934527       11.2048755201
H         17.2277792612       28.2556335143       11.0535141393
H         17.1975289883       29.8720619467       10.3797819161
H         17.7727448236       29.0959969824       13.4166611712
H         20.0200305956       29.5804170207       14.2500895221
H         20.0259109658       31.1521655093       13.4464107699
H         16.9072472752       31.1657140606       13.5964478238
H         17.9233646951       26.4525001235        9.6395899649
H         19.1917315754       30.4698982926        8.6856838233
H         18.9436553138       25.6315333036        7.5307129972
H         20.2148801309       29.6419477567        6.5761992112
H         20.3324514247       31.1679791040       16.7467739766
H         20.7120563272       32.0961532338       15.2991035192
H         20.0860186190       27.2228177955        5.9920857637
H         19.1824528004       29.4799806963       18.4862566692
H         16.0907119177       32.2770810533       17.3701109636
H         20.4117697857       32.9986910283       18.4750983576
H         19.1607832974       30.3770645508       20.8049673105
H         17.6680187975       36.1416525485       17.1984659581
H         19.2545365059       35.2457050303       19.1219293136
H         17.6114705428       32.2310732688       21.4094616019
H         14.4773169668       34.8748318135       19.4591545620
H         15.5813923398       34.5494058027       18.1035162715
H         14.2876941393       33.3855158005       18.5061939861
    77
VM2 Rank=28     G=189.635           E=105.157           -TS=84.478              
C         20.5056813523       27.6918381171        5.6017581036
C         21.1546039165       26.5140182392        6.0000124206
C         20.3278322196       28.7352317322        6.5243685062
C         21.6247556688       26.3716244417        7.3141305257
F         21.3293009837       25.5121785935        5.1136141106
C         20.7990725845       28.5951641308        7.8407206680
C         21.4460121147       27.4108548797        8.2480386166
N         21.9186909330       27.2704141546        9.5831869840
C         22.6315719876       28.3495300589       10.2582386173
C         21.8037290970       26.1470891950       10.3808798452
C         22.9643216741       27.7598597548       11.6396712803
O         22.4076590688       26.4212684568       11.5721397256
O         21.2677113397       25.0895853632       10.0981628083
C         22.3674689191       28.5983114618       12.7861429198
O         22.7851946457       29.7055525528       13.0800673122
N         21.2573922004       28.0623696261       13.4000469321
C         20.2243067462       28.8949846300       14.0286332332
C         18.8340706537       28.2531225170       13.7889019656
C         20.5588046400       29.1413980623       15.5275540654
C         18.5590945563       28.0162883135       12.3096879744
C         19.5884764671       30.1254055175       16.2219348367
O         20.5523252964       27.9062549417       16.2405753930
C         18.5620456082       26.7120190661       11.7819792899
C         18.3223464610       29.1067188155       11.4539228749
N         19.4683370326       31.4473675219       15.5503403450
C         18.3243825714       26.5012086745       10.4136561664
C         18.0813990940       28.8971337255       10.0863095868
S         18.0695321295       32.3448508459       15.9504381919
C         20.7358163025       32.2084104354       15.4076812815
C         18.0823574724       27.5933564056        9.5657300339
O         17.9738303416       32.3647010679       17.4144389768
C         16.7604175479       31.3669728987       15.1793993369
O         18.1719438702       33.5918241946       15.1820804376
C         21.3036563261       32.6528706244       16.7304670348
C         16.0038979344       30.4595205123       15.9463294796
C         16.5154248984       31.4855357001       13.7966227701
S         22.4935412751       31.7552638898       17.6617567758
C         20.9655116646       33.8384381099       17.3308923253
C         15.0196775829       29.6684128034       15.3328065040
C         15.5224068434       30.6982243049       13.1820740236
C         22.4981420267       33.0137008816       18.8940856858
C         21.6442821010       34.0389532730       18.5672653212
C         14.7841092495       29.7870275817       13.9533101503
O         15.2431888247       30.7772113268       11.8338721938
C         15.7456757768       31.8259326007       10.9830743701
H         20.1439663411       27.7934648530        4.5825848358
H         19.8242151184       29.6499549728        6.2212148205
H         22.1272469316       25.4524190869        7.6001186652
H         20.6448372333       29.4069717558        8.5459098500
H         21.9925585647       29.2367724241       10.3544116195
H         23.5468909827       28.6070301180        9.7105092275
H         24.0505238274       27.7142546709       11.7857406171
H         20.9866054894       27.1422028622       13.0752422715
H         20.2284581423       29.8706583605       13.5224993017
H         18.7607890383       27.3090737761       14.3435227199
H         18.0492482187       28.9008826925       14.1939812389
H         21.5705891757       29.5650889275       15.5777109808
H         18.6080066696       29.6383813435       16.2771393172
H         19.9171610470       30.2675614557       17.2599266292
H         21.1184406001       27.3009963446       15.7161940834
H         18.7515976036       25.8601374386       12.4294688997
H         18.3259562737       30.1172050228       11.8506100146
H         18.3344058473       25.4917687650       10.0099449235
H         17.8959709367       29.7434478004        9.4302377377
H         21.4901702635       31.6064931073       14.8858209455
H         20.5741174894       33.0929262185       14.7773188919
H         17.9021782416       27.4299212784        8.5061638584
H         16.1865199182       30.3608652235       17.0141036714
H         17.1055757859       32.1839007938       13.2115401005
H         20.2556074626       34.5483025132       16.9198001238
H         14.4407685952       28.9632044629       15.9244499451
H         23.1296635697       32.9127501828       19.7675001266
H         21.4973995034       34.9180722974       19.1858161584
H         14.0227799994       29.1747874148       13.4780159505
H         15.4334464177       32.8095632056       11.3571343340
H         16.8409195642       31.7969256526       10.9300943030
H         15.3518997887       31.7034223422        9.9662447580
    77
VM2 Rank=29     G=189.637           E=106.570           -TS=83.067              
C         24.5401207177       26.2964409109        5.6237097054
C         23.4454177327       25.5616396813        6.1009251164
C         25.0739707534       27.3348929619        6.4034643965
C         22.8813794809       25.8591566518        7.3501155251
F         22.9298599032       24.5633396308        5.3543825959
C         24.5087123008       27.6355170026        7.6547184300
C         23.4061773890       26.9016579351        8.1389365365
N         22.8264864595       27.2164963683        9.4018420278
C         22.6012814623       28.5977540375        9.8162654079
C         22.3796473257       26.3152404559       10.3514308725
C         22.0362644497       28.4627924973       11.2404857769
O         21.8756053136       27.0296922723       11.3974863385
O         22.4159007580       25.0982291516       10.2910670157
C         20.7293508895       29.2500798372       11.4534803161
O         20.6180150821       30.4294144120       11.1650143941
N         19.6686253755       28.5190000829       11.9414604663
C         18.2617464490       28.9201453700       11.7814639086
C         17.4649196891       27.7296759054       11.1948200620
C         17.6617562699       29.4523375129       13.1120004121
C         18.0942067726       27.1849965237        9.9178900890
C         18.4563395347       30.6732043353       13.6464924352
O         16.2943689099       29.8254595769       12.9273509112
C         18.7374729468       25.9333896568        9.9175319490
C         18.0618097862       27.9451797622        8.7345447139
N         17.8626955436       31.3387670086       14.8362539433
C         19.3347333120       25.4439420623        8.7443750926
C         18.6632428160       27.4589135593        7.5619382589
S         17.4533509932       30.3473082371       16.1726634055
C         18.3836592505       32.7067362173       15.0777345255
C         19.2975708257       26.2065814902        7.5658154425
O         16.1450972268       29.7936357817       15.8000152152
C         17.1694971264       31.4709026808       17.5627695061
O         18.6196047988       29.5018887559       16.4510363007
C         19.6854557611       32.7520264120       15.8420577345
C         18.0852641198       31.5327333118       18.6315748416
C         16.0196023613       32.2841334934       17.5882792739
S         21.1439313451       31.8438208320       15.4617843229
C         19.8725378061       33.5856828244       16.9153665457
C         17.8612078004       32.4122396201       19.7027719776
C         15.7922676894       33.1653637659       18.6562391913
C         21.9834174003       32.5835099028       16.8208602859
C         21.1773312540       33.4806220924       17.4770368118
C         16.7189641882       33.2297337630       19.7160826750
O         14.6533331511       33.9420637728       18.6141938899
C         14.3077994783       34.8916618836       19.6412713572
H         24.9716158980       26.0597638088        4.6553233668
H         25.9246811917       27.9061101799        6.0394781239
H         22.0366305751       25.2750029559        7.6983569442
H         24.9388500624       28.4382162691        8.2469679300
H         21.8768714916       29.0764079532        9.1436821160
H         23.5353785132       29.1718991570        9.8277868276
H         22.7679880160       28.8321225612       11.9695128467
H         19.8682147090       27.5439073463       12.1290615068
H         18.2120338183       29.7396453506       11.0504034643
H         17.3860599101       26.9374754227       11.9499460972
H         16.4362830405       28.0482414508       10.9830210680
H         17.7235628308       28.6411541278       13.8505123643
H         19.4712107842       30.3351941766       13.8861699036
H         18.5453976359       31.3961751507       12.8249326287
H         15.9328957548       29.9770687800       13.8324672305
H         18.7779122508       25.3393653464       10.8265982910
H         17.5738548230       28.9162110190        8.7258030293
H         19.8283936060       24.4752276435        8.7512423994
H         18.6358053718       28.0514873696        6.6509406215
H         18.5266036784       33.2251413833       14.1204977207
H         17.6337753934       33.2926496146       15.6240934658
H         19.7588759639       25.8284654201        6.6568129283
H         18.9762761079       30.9088680704       18.6261571705
H         15.3021465164       32.2376208827       16.7732854174
H         19.1102125786       34.2487432910       17.3105451649
H         18.5747209694       32.4626669414       20.5217994761
H         23.0093802329       32.3131740367       17.0355345684
H         21.4974201169       34.0567952539       18.3387389796
H         16.5642453034       33.9045726058       20.5520135154
H         14.1839284534       34.3883517397       20.6088935186
H         15.0859894088       35.6599603836       19.7366542312
H         13.3627952970       35.3896703858       19.3901007031
    77
VM2 Rank=30     G=189.666           E=104.561           -TS=85.105              
C         20.4966328042       28.8242407326        6.1291826316
C         21.1949507289       27.6120789556        6.2283304382
C         20.3038514104       29.6126059003        7.2748836676
C         21.6992258179       27.1818217359        7.4647778290
F         21.3845046238       26.8556155116        5.1275425728
C         20.8092450794       29.1841882646        8.5139901647
C         21.5053292204       27.9628458098        8.6210292682
N         22.0114430243       27.5295383735        9.8792478438
C         22.6800622237       28.4516142012       10.7908688587
C         21.9704227787       26.2424108198       10.3833405942
C         23.0852382628       27.5622294283       11.9787361085
O         22.5792932588       26.2552352936       11.6033062859
O         21.4877769938       25.2551055123        9.8562745958
C         22.5010835873       28.0738803715       13.3086459059
O         22.8800503938       29.1037898072       13.8399577133
N         21.4384722806       27.3554661709       13.8106193696
C         20.3686871589       27.9956516601       14.5857576100
C         19.0096818392       27.3400757637       14.2372253047
C         20.7059315692       27.9916794317       16.1052380957
C         18.7256792728       27.3701544025       12.7398573146
C         19.6918537772       28.7843584287       16.9692473148
O         20.7799999909       26.6505792013       16.5853630246
C         18.7394011568       26.1809040922       11.9879506838
C         18.4690532491       28.5919069264       12.0909658034
N         19.3502379984       30.1341856802       16.4391728912
C         18.4924505123       26.2133148823       10.6053226900
C         18.2183667763       28.6251402575       10.7100187004
S         17.9088983246       30.8380955312       17.0533275814
C         20.5201784773       31.0452828843       16.3205581336
C         18.2314956257       27.4352414458        9.9656536046
O         16.9920419949       29.7099900140       17.2592366393
C         17.2107151979       31.7627214551       15.6691179731
O         18.2741936901       31.6885643786       18.1927414597
C         20.3114564858       32.1460648590       15.3168311946
C         17.0293782762       33.1566556858       15.7493490993
C         16.8491632963       31.0823079791       14.4916416249
S         20.1746293278       31.9038734975       13.5811186966
C         20.2692786009       33.4727867019       15.6594098380
C         16.5169665277       33.8637042663       14.6493471745
C         16.3491992227       31.7852958042       13.3860963693
C         20.0039785885       33.6398461551       13.3404525986
C         20.0863708205       34.3221101169       14.5300384123
C         16.1834288230       33.1823941737       13.4664414820
O         16.0461657410       31.0609583728       12.2527435149
C         15.6635351892       31.6714890634       11.0060413222
H         20.1088076350       29.1494689485        5.1680950269
H         19.7626572942       30.5529765990        7.2037752730
H         22.2399724521       26.2416199906        7.5172188820
H         20.6438252429       29.8011743445        9.3926428316
H         21.9928209559       29.2447380541       11.1129795992
H         23.5626702276       28.8945952016       10.3124323102
H         24.1771542208       27.5326397899       12.0792835348
H         21.2013697803       26.5194613136       13.2902460978
H         20.3149813290       29.0432293947       14.2616751494
H         18.9935517598       26.3067719926       14.6063234475
H         18.2021966314       27.8603760878       14.7656949846
H         21.6943377555       28.4541794630       16.2249673734
H         18.7891281311       28.1646572036       17.0379432353
H         20.0889905901       28.8744654155       17.9888188351
H         21.3628424190       26.1810938022       15.9510646835
H         18.9445240673       25.2299476260       12.4721981539
H         18.4649821363       29.5190484399       12.6546668633
H         18.5116743333       25.2918882737       10.0286177787
H         18.0168988290       29.5730661357       10.2179517364
H         20.7582624018       31.4780071046       17.3019053413
H         21.4140637136       30.5030236258       15.9933016119
H         18.0456790310       27.4606130747        8.8948273335
H         17.2998321214       33.6918119344       16.6565343576
H         16.9693878666       30.0051386308       14.4292724152
H         20.3539052849       33.8428532775       16.6755095107
H         16.3877430494       34.9415535785       14.7096109482
H         19.8623949383       34.0355156996       12.3430862317
H         20.0156984749       35.4016997996       14.6083157774
H         15.7968698401       33.7466957521       12.6238897585
H         16.4515940188       32.3468836609       10.6487816694
H         15.5008770057       30.8981991582       10.2447425521
H         14.7319615406       32.2400518489       11.1221446963
