    79
VM2 Rank=1      G=207.849           E=114.027           -TS=93.821              
C         21.9405157120       24.2883558318        6.1718872225
C         21.6020494631       25.6466126273        6.2756517915
C         22.1222133961       23.5220858408        7.3338718631
C         21.4445850811       26.2375391010        7.5402281281
C         21.9631210102       24.1131559779        8.5983653589
C         21.6183191189       25.4743005005        8.7117540585
N         21.4602580557       26.0746880037        9.9924809771
C         20.8159797962       25.5246105611       11.0850840316
C         22.0190053107       27.3880709628       10.2922271394
O         20.2418699167       24.4507975336       11.1438448207
O         20.9266508560       26.4066599686       12.1186621360
C         21.7018435139       27.5869270653       11.7842304518
C         20.9498074330       28.9032405274       12.0596114165
O         21.4134390846       29.9944018782       11.7754137921
N         19.6812581798       28.7671190742       12.5799434539
C         18.6217877454       29.7715393998       12.3968584896
C         17.3539302529       29.0701068636       11.8506708532
C         18.3515081140       30.5720002597       13.7009150707
C         17.6335506753       28.2426545159       10.6010276956
O         17.3289582268       31.5449048402       13.4761213490
C         19.6314487099       31.2884123689       14.2087973586
C         17.5816349718       26.8372045396       10.6502861066
C         17.9670272286       28.8787922809        9.3912315226
N         19.4395355557       32.2179252716       15.3597360484
C         17.8542598300       26.0768165389        9.5010691369
C         18.2432830865       28.1190770047        8.2422946427
C         20.6436371443       33.0429048565       15.6596571366
S         18.5961570794       31.5702588788       16.7068219481
C         18.1845645000       26.7173992373        8.2966951727
C         21.1354168719       33.9441686208       14.4952588049
O         17.1827650203       31.6278951896       16.3116805950
C         18.7945665340       32.7788650284       18.0390687805
O         19.2683760482       30.3150028951       17.0618646067
C         20.0057238485       34.8568985058       13.9651521322
C         22.3269426274       34.8061556338       14.9639865553
C         18.0738141189       33.9892596387       17.9997827103
C         19.6836480208       32.5309869881       19.1035210646
C         18.2407061545       34.9479659118       19.0182194838
C         19.8476311957       33.4845105019       20.1208460141
O         17.5659611668       36.1510400057       19.0226125247
C         19.1269319882       34.6891139658       20.0757132068
C         16.6683173562       36.5565748041       17.9708543481
H         22.0628269271       23.8308436026        5.1931653753
H         21.4606579036       26.2414408137        5.3766462051
H         22.3868831036       22.4704949785        7.2551742884
H         21.1751632110       27.2879431813        7.6036453680
H         22.1111142424       23.5090642130        9.4897450606
H         21.5304262593       28.1597893941        9.6831434766
H         23.1015728734       27.3999451057       10.1133566857
H         22.6295983769       27.6024251479       12.3692379400
H         19.3989642537       27.8138619035       12.7732740947
H         18.9517148921       30.4921232489       11.6349975658
H         16.9222081778       28.4385246028       12.6372693189
H         16.5919267023       29.8251421194       11.6189378482
H         18.0186285138       29.8567531909       14.4654803619
H         17.0746017311       31.8727015298       14.3708288094
H         20.3701211132       30.5246805423       14.4854740333
H         20.0391846547       31.8278149614       13.3474571554
H         17.3339712595       26.3314335243       11.5796610641
H         18.0149401998       29.9634188123        9.3431607066
H         17.8173951966       24.9910768928        9.5466440968
H         18.5015828858       28.6163165550        7.3108067762
H         20.4421771399       33.7230869874       16.4943731080
H         21.4659561588       32.3866382651       15.9765865879
H         18.3996837792       26.1279206138        7.4088166549
H         21.4983191643       33.3153697205       13.6711741350
H         20.3721009226       35.5045531434       13.1586217302
H         19.1740243631       34.2653041208       13.5611097832
H         19.6088995511       35.4979665772       14.7626308868
H         22.0347878972       35.4780518236       15.7815180420
H         23.1511237197       34.1749173474       15.3204539356
H         22.7112974889       35.4222710944       14.1409213891
H         17.3960618384       34.1735083758       17.1718579201
H         20.2484374564       31.6022267939       19.1406786683
H         20.5340760978       33.2920475735       20.9420220779
H         19.2559901139       35.4281201269       20.8616729314
H         16.2599674594       37.5515986311       18.1884751512
H         17.1949992204       36.6043105393       17.0088425845
H         15.8299299166       35.8533771417       17.8835492193
    79
VM2 Rank=2      G=207.895           E=113.827           -TS=94.068              
C         21.8641202294       24.3329035461        6.0719642723
C         22.0294482076       23.5338006449        7.2141049095
C         21.5576853735       25.6956782419        6.2102581628
C         21.8860749717       24.0966583338        8.4932648946
C         21.4159177149       26.2583498044        7.4894943418
C         21.5733496363       25.4622272575        8.6412799731
N         21.4314302781       26.0340057781        9.9369207695
C         20.7770340389       25.4716428335       11.0171951008
C         22.0202559648       27.3266173778       10.2677498780
O         20.1782789618       24.4102660287       11.0505714930
O         20.9101140335       26.3247754944       12.0721773848
C         21.7124233641       27.4944119113       11.7655203341
C         20.9932444755       28.8207971032       12.0780246835
O         21.4785702103       29.9073878076       11.8132721539
N         19.7273884802       28.7014633821       12.6088641095
C         18.6890574816       29.7332469527       12.4596752122
C         17.4047545077       29.0760838420       11.8971058139
C         18.4407388596       30.4986534091       13.7886601105
C         17.6626302523       28.2798992334       10.6226921384
O         17.4339664001       31.4955628640       13.6033084269
C         19.7362204299       31.1731257138       14.3127862599
C         17.5767113343       26.8752722836       10.6300390687
C         18.0096200544       28.9436769329        9.4316830507
N         19.5652098704       32.0981906691       15.4690075301
C         17.8289794320       26.1432264362        9.4579950105
C         18.2656172817       28.2122091235        8.2599451556
C         20.7757769203       32.9282339031       15.7104879990
S         18.7610128535       31.4675674544       16.8460108759
C         18.1728688105       26.8113725809        8.2725505609
C         20.9729025518       34.0567683457       14.6649605198
O         17.3510763998       31.3893703284       16.4426392938
C         18.8229506538       32.7913343310       18.0771497127
O         19.5203378241       30.2952410368       17.2956781671
C         19.7570870405       35.0105741020       14.6267399528
C         22.2551767583       34.8546004082       14.9824089568
C         18.1020294199       33.9817123735       17.8575855425
C         19.6087833726       32.6553404340       19.2383571873
C         18.1685065615       35.0341775018       18.7910106181
C         19.6706780356       33.7016732773       20.1725396589
O         17.4926335449       36.2238577425       18.6164752238
C         18.9521592507       34.8872509564       19.9464880242
C         16.7001781576       36.5177922181       17.4493574677
H         21.9741934679       23.8972298089        5.0818907371
H         22.2692919507       22.4786013355        7.1086674681
H         21.4289978209       26.3159270381        5.3266539711
H         22.0212291383       23.4671805634        9.3689810456
H         21.1713633358       27.3128793800        7.5796105899
H         21.5468078517       28.1241334784        9.6803269986
H         23.1022230564       27.3191779254       10.0850505220
H         22.6420607335       27.4722495260       12.3473128543
H         19.4254258291       27.7504729010       12.7827228926
H         19.0317841191       30.4697549080       11.7190176464
H         16.9613432621       28.4312105105       12.6662206360
H         16.6589605970       29.8541887783       11.6903019191
H         18.0996278040       29.7667302055       14.5335504560
H         17.1806243404       31.7790315514       14.5127358695
H         20.4479059742       30.3841103120       14.5895707698
H         20.1772912460       31.7076297570       13.4642195029
H         17.3182682261       26.3480661000       11.5444454933
H         18.0837399981       30.0277785255        9.4159085786
H         17.7657628383       25.0578243357        9.4711820528
H         18.5344612495       28.7307066613        7.3431460910
H         20.7352968915       33.4186016641       16.6887795679
H         21.6656858996       32.2839058899       15.7271745394
H         18.3720739721       26.2436892292        7.3669356262
H         21.0985543690       33.6160707951       13.6672416099
H         19.9123135104       35.8113019434       13.8926169898
H         18.8430661519       34.4740470742       14.3410459175
H         19.5889604537       35.4761780559       15.6061108665
H         22.1893243580       35.3378439965       15.9659035058
H         23.1348063779       34.1980770372       14.9839056129
H         22.4247296556       35.6369651424       14.2314907877
H         17.5046871010       34.0776115389       16.9561363584
H         20.1729152320       31.7422258656       19.4142636129
H         20.2775585961       33.5962523079       21.0687238464
H         19.0035957112       35.6984773022       20.6674288563
H         16.2691196172       37.5235492403       17.5318349184
H         17.3174909667       36.4821360393       16.5423846720
H         15.8766864777       35.7990150761       17.3483657272
    79
VM2 Rank=3      G=207.912           E=113.695           -TS=94.217              
C         22.0919049371       25.0783796970        5.8074504179
C         21.0949089474       26.0500688646        5.9862665432
C         22.9679234165       24.7731100792        6.8608931672
C         20.9735762055       26.7149115307        7.2176976926
C         22.8452636900       25.4372578649        8.0927497316
C         21.8440342390       26.4098820223        8.2828589230
N         21.7219004690       27.0862278952        9.5293187947
C         21.8152398120       26.5183070243       10.7864415293
C         21.5019143670       28.5263704229        9.5960088549
O         21.9802733899       25.3412336867       11.0573977987
O         21.6855539625       27.5184624010       11.7036290281
C         21.5421419974       28.8316323838       11.1032234924
C         20.2901603670       29.5849476736       11.5923265263
O         19.9236005724       30.6377599801       11.0989041036
N         19.5679267444       28.9572906676       12.5838407511
C         18.1341871419       29.1957841497       12.8175280098
C         17.3835205638       27.8441462729       12.7157664276
C         17.8921706885       29.9281020252       14.1674894783
C         17.6953419560       27.0904758155       11.4272667797
O         16.4893683400       30.0502471252       14.4127370682
C         18.5398400604       31.3407417066       14.1772000913
C         18.4308001105       25.8911997210       11.4635971772
C         17.2667032000       27.5994267937       10.1875639719
N         18.7013160829       31.9458684133       15.5266931608
C         18.7282018802       25.2051504129       10.2744445931
C         17.5670667240       26.9161573005        8.9973874440
C         19.5624296600       31.2068186792       16.4892724628
S         17.3534779455       32.7716824801       16.1732372687
C         18.2955769830       25.7168050482        9.0411692973
C         20.9817792727       30.8719510028       15.9611382039
O         16.9817799953       33.7407224824       15.1355590409
C         18.0608392150       33.7514714115       17.5163360037
O         16.4123207046       31.7541342550       16.6589662656
C         21.7605037828       32.1524444303       15.5817387880
C         21.7678661370       30.0768435936       17.0243811575
C         19.0102557812       34.7508336450       17.2261170659
C         17.6966185663       33.5006235431       18.8534715821
C         19.5947976670       35.4973833221       18.2676073104
C         18.2736573970       34.2491146624       19.8918063357
O         20.5376373764       36.4777380703       18.0384477742
C         19.2201891691       35.2441770010       19.5967634494
C         21.0684304820       36.7711144426       16.7313064376
H         22.1862774398       24.5639631144        4.8542188669
H         20.4155951087       26.2876933146        5.1713381996
H         23.7424465393       24.0226318072        6.7230909601
H         20.1924524727       27.4594387121        7.3422275849
H         23.5334853338       25.1941889039        8.8981362315
H         22.2942818707       29.0659565412        9.0620843988
H         20.5224679108       28.7832499708        9.1717598659
H         22.4178153587       29.4477927273       11.3414652699
H         19.9603390201       28.0818484461       12.9083836554
H         17.7488332181       29.8461888975       12.0196263132
H         17.6331013408       27.2264980684       13.5876371384
H         16.3022804819       28.0226730177       12.7733388710
H         18.3516248288       29.3136069914       14.9519807650
H         16.3790200317       30.4562396803       15.3053698275
H         19.5243454767       31.2843138595       13.7011651918
H         17.9441882850       32.0014524780       13.5333498181
H         18.7765745039       25.4905387935       12.4126897370
H         16.7028970115       28.5275636295       10.1471438445
H         19.3004895508       24.2812605180       10.3088201258
H         17.2338897977       27.3150468977        8.0426550959
H         19.6939485267       31.7960863144       17.4053058027
H         19.0621525395       30.2775359597       16.7924430505
H         18.5288132910       25.1866951469        8.1210527356
H         20.8987189041       30.2321938593       15.0720123703
H         21.2504521568       32.7070718921       14.7842541618
H         21.8641873930       32.8216829168       16.4455671364
H         22.7670122287       31.9052195071       15.2210973755
H         21.2452425194       29.1474757016       17.2849570406
H         22.7640889327       29.8053823489       16.6521134200
H         21.8980011311       30.6632422638       17.9432321726
H         19.2886817317       34.9285502310       16.1918398608
H         16.9697135404       32.7258459901       19.0866777400
H         17.9914158000       34.0561009196       20.9241100776
H         19.6699918696       35.8202629367       20.4006907054
H         21.5545658708       35.8848794034       16.3029334572
H         20.2708646231       37.1025250184       16.0538163364
H         21.8145892855       37.5727784843       16.8002201975
    79
VM2 Rank=4      G=207.936           E=113.877           -TS=94.058              
C         21.0048607426       23.8488930195        5.7883486133
C         21.2742461642       23.0886276077        6.9371470122
C         20.8884016764       25.2443586789        5.8847129320
C         21.4245466585       23.7232902040        8.1814175718
C         21.0400199817       25.8786047692        7.1288809606
C         21.3038465718       25.1227971669        8.2883450044
N         21.4597867624       25.7657544484        9.5486539970
C         20.9399827373       25.3416760621       10.7570616863
C         22.2467603719       26.9849989707        9.6913230446
O         20.2315535065       24.3699608549       10.9574545062
O         21.3673258228       26.2070390886       11.7189067500
C         22.1760123790       27.2934626669       11.1988424519
C         21.5656562116       28.6755552781       11.5096157804
O         21.7935940573       29.6659490821       10.8347651471
N         20.6943062757       28.7105615817       12.5768910312
C         19.6812066312       29.7561910846       12.7771959909
C         18.2875955739       29.2333562886       12.3367842482
C         19.7213032020       30.2641333978       14.2459604352
C         18.2813444228       28.6590241902       10.9246438453
O         19.4063277135       29.1963509788       15.1459882466
C         18.7647532610       31.4648207582       14.4754388371
C         18.4524434991       29.5048548616        9.8135818491
C         18.1157630815       27.2764959414       10.7201283321
N         19.0159470656       32.2359302354       15.7230428644
C         18.4559158637       28.9752493681        8.5123431573
C         18.1151871358       26.7462010939        9.4193673870
C         20.3455530472       32.8911337106       15.8492714590
S         18.3129122150       31.6394222041       17.1613720528
C         18.2831270348       27.5960025938        8.3149163061
C         20.6985400259       33.8553068321       14.6878452854
O         16.8931850472       31.4650309774       16.8327956681
C         18.3761828794       33.0557028742       18.2812680531
O         19.1461484454       30.5215744827       17.6227981422
C         19.6577505653       34.9916842554       14.5620510660
C         22.1036243545       34.4543002282       14.9066760748
C         17.6724693010       34.2324397642       17.9582941192
C         19.1518693938       33.0051812013       19.4556597272
C         17.7438158769       35.3560873749       18.8044202188
C         19.2173830141       34.1222608627       20.3037294845
O         17.0855918638       36.5360275653       18.5269539391
C         18.5144248302       35.2935088664       19.9763192934
C         16.3417347360       36.7571985284       17.3127874279
H         20.8879266757       23.3578459221        4.8253346309
H         21.3674542364       22.0078700365        6.8637510049
H         20.6803999040       25.8347080215        4.9957338789
H         21.6376175784       23.1226384994        9.0619036422
H         20.9424888145       26.9588735220        7.1870446832
H         23.2828197407       26.8131533002        9.3736056458
H         21.8054312481       27.7974624344        9.0999231465
H         23.1776075712       27.2628581727       11.6447012353
H         20.5767919519       27.8440856852       13.0882464847
H         19.9341685448       30.6101516118       12.1335044134
H         17.9462630140       28.4717098411       13.0493937211
H         17.5540920497       30.0462764778       12.3912023670
H         20.7507841097       30.5990732215       14.4263673454
H         19.5217125281       29.5376841405       16.0640766395
H         18.8463069240       32.1388524649       13.6144886448
H         17.7305242687       31.0964916823       14.4702504191
H         18.5893515878       30.5728533751        9.9595399869
H         17.9920104995       26.6101354879       11.5697900728
H         18.5906395251       29.6339725262        7.6581908059
H         17.9895503727       25.6766952713        9.2684520441
H         20.3888988603       33.4790737714       16.7745499408
H         21.1288078927       32.1267230187       15.9376544673
H         18.2820464069       27.1855422656        7.3082680886
H         20.7260291862       33.2943037245       13.7438340825
H         19.9232741517       35.6761780416       13.7463816562
H         18.6579372947       34.5940050173       14.3477351681
H         19.5974784259       35.5761190538       15.4892839610
H         22.8619859301       33.6632362355       14.9692965074
H         22.3804202569       35.1157662341       14.0756367688
H         22.1458117291       35.0402565975       15.8340442060
H         17.0848665474       34.2612205367       17.0457852553
H         19.7041059478       32.1028642621       19.7085018301
H         19.8154044602       34.0827184405       21.2111296587
H         18.5691529125       36.1595541490       20.6301274715
H         16.9918402084       36.6474790756       16.4349697324
H         15.5102336749       36.0451900314       17.2316889340
H         15.9252255382       37.7724103245       17.3072072623
    79
VM2 Rank=5      G=208.121           E=114.315           -TS=93.807              
C         20.8455951461       23.2354681900        6.2900399605
C         21.5640923930       24.4150340161        6.5400349637
C         20.0090352989       22.7024776640        7.2831841336
C         21.4449048765       25.0615665912        7.7814065779
C         19.8892234078       23.3501176011        8.5240725049
C         20.6020581793       24.5376795339        8.7816769320
N         20.4837675587       25.1914142162       10.0407144173
C         19.3184668098       25.3920963179       10.7565983781
C         21.6505111767       25.7162778041       10.7403622755
O         18.1856047394       25.0844737440       10.4275054722
O         19.6512981603       26.0035237497       11.9279644766
C         21.0719102814       26.2679548457       12.0567492494
C         21.3721746142       27.7650633771       12.2740013511
O         22.4438854832       28.2724435150       11.9871767625
N         20.3243514201       28.5127797740       12.7662814574
C         20.2204180519       29.9726469839       12.6306908028
C         19.2285423252       30.3229795369       11.4881637306
C         19.8552838031       30.6034311686       14.0046759391
C         19.5326600016       29.5953275220       10.1831590494
O         18.5606358498       30.1729046324       14.4355875105
C         19.9216923942       32.1535669936       13.9997574727
C         18.6623505560       28.5976643086        9.7057658435
C         20.6920542370       29.9073913663        9.4498607058
N         19.5020364302       32.8198894361       15.2659387599
C         18.9442413270       27.9244061555        8.5055670144
C         20.9773793437       29.2317139377        8.2516268872
C         19.3333953113       34.2893539326       15.1036219650
S         20.2276884119       32.2632280909       16.7177116404
C         20.1009313552       28.2429037798        7.7770652152
C         18.0571950691       34.6848940002       14.3157345915
O         19.5811418614       30.9702786077       16.9768748967
C         19.6139668821       33.3647793598       18.0148305268
O         21.6793368291       32.4039472034       16.5557033781
C         16.7807525785       34.1407734332       14.9968308699
C         17.9687863936       36.2202141235       14.1874061422
C         18.2543428954       33.3205062665       18.3816141860
C         20.4759669152       34.2866114340       18.6406956702
C         17.7558612371       34.1957011000       19.3659814094
C         19.9811074520       35.1554348955       19.6263820929
O         16.4315390242       34.2008957453       19.7516842861
C         18.6239848319       35.1086069580       19.9854755377
C         15.4328290868       33.3485780881       19.1578249632
H         20.9381447040       22.7346141170        5.3294266208
H         22.2132032339       24.8286747737        5.7721659551
H         19.4541121557       21.7872102307        7.0922437509
H         22.0046001924       25.9757541187        7.9571170580
H         19.2416939608       22.9232030796        9.2855544745
H         22.1221790770       26.5137691690       10.1518727157
H         22.3762341328       24.9164418112       10.9340093447
H         21.4787212369       25.7178716934       12.9139833643
H         19.4766046113       28.0036814986       12.9858519490
H         21.2066873039       30.3653823722       12.3468840049
H         18.2066076725       30.0903725239       11.8136125267
H         19.2458744396       31.4020107872       11.2986638194
H         20.6078644057       30.2375746028       14.7166361646
H         18.5270660762       30.3787092416       15.3986470817
H         20.9516116577       32.4503225849       13.7604228297
H         19.2899533510       32.5058275415       13.1797621437
H         17.7680829893       28.3395017954       10.2668907354
H         21.3757532226       30.6699532406        9.8128245354
H         18.2688844944       27.1528778038        8.1436153077
H         21.8758854724       29.4763078102        7.6908250832
H         19.2638206251       34.7940436024       16.0727154819
H         20.2178550002       34.7081078968       14.6040082229
H         20.3184398980       27.7222741757        6.8478492450
H         18.1091592277       34.2730835048       13.2995129915
H         16.7943745280       33.0441482101       15.0435721900
H         16.6839137850       34.5258603132       16.0198173818
H         15.8840027858       34.4356595645       14.4372748216
H         18.8541103353       36.6227673055       13.6785762018
H         17.0868143868       36.5135985655       13.6036270161
H         17.8962862186       36.6978391994       15.1731940250
H         17.5980807167       32.6100905619       17.8883638339
H         21.5260485733       34.3318450730       18.3609832043
H         20.6469397744       35.8669726458       20.1090269181
H         18.2403942511       35.7838321194       20.7453576267
H         15.3464975214       33.5441541987       18.0811572069
H         15.6857048757       32.2910950916       19.3087263034
H         14.4556295275       33.5367319710       19.6202572034
    79
VM2 Rank=6      G=208.168           E=114.693           -TS=93.476              
C         22.3294989536       24.1404924354        6.2145011363
C         23.3033716189       24.9532057616        6.8149002536
C         21.0900729295       23.9541607373        6.8455072254
C         23.0370123195       25.5813619040        8.0430593770
C         20.8250359703       24.5817851223        8.0738315117
C         21.7936871763       25.4038004511        8.6834998240
N         21.5209672852       26.0499211023        9.9246534379
C         20.8566288481       25.5063947210       11.0102470063
C         21.9126343611       27.4349776958       10.1703595553
O         20.3849270847       24.3863375916       11.1063896384
O         20.8068804340       26.4582672260       11.9854150177
C         21.5622629191       27.6500900068       11.6517156794
C         20.7996124343       28.9614801936       11.9172231606
O         21.2114589129       30.0471336418       11.5451920691
N         19.5842073873       28.8244349552       12.5507274883
C         18.4951554694       29.8058813773       12.4236135152
C         17.2224331060       29.0827578755       11.9202020232
C         18.2671846285       30.5900688672       13.7444433188
C         17.4833600326       28.2575725934       10.6652111060
O         17.2152076336       31.5422899299       13.5739325798
C         19.5556806694       31.3288960300       14.1956757544
C         17.4325276266       26.8522169582       10.7137305931
C         17.8121679570       28.8953118724        9.4549220047
N         19.3997300969       32.2483368502       15.3600396755
C         17.7002529119       26.0932767934        9.5628304154
C         18.0869569655       28.1370735582        8.3049482145
C         20.5992526134       33.0970415282       15.6073928789
S         18.6342203408       31.5765636514       16.7414514007
C         18.0285833340       26.7355794793        8.3580320470
C         21.0134857456       34.0169768966       14.4275459123
O         17.2028244047       31.6074610604       16.4138680735
C         18.8711032537       32.7817576707       18.0705055282
O         19.3476170176       30.3333919042       17.0564327007
C         19.8395748115       34.9083033931       13.9609132383
C         22.2077629566       34.9016428427       14.8441061098
C         18.1251166704       33.9774095657       18.0729901032
C         19.8143707056       32.5463012898       19.0902004823
C         18.3207214230       34.9337962558       19.0884964998
C         20.0071227831       33.4974539369       20.1046955654
O         17.6228960268       36.1228279347       19.1324077525
C         19.2610305372       34.6873465929       20.1013020617
C         16.6684016439       36.5156197463       18.1268880644
H         22.5357028539       23.6544392575        5.2639999348
H         24.2657229885       25.0957988358        6.3293974793
H         20.3347939402       23.3229895100        6.3837171315
H         23.8072198625       26.1994797265        8.4947731139
H         19.8615035149       24.4251790990        8.5487624268
H         21.3299641929       28.1054550616        9.5243361844
H         22.9845400301       27.5922275323       10.0026007148
H         22.4822448272       27.6756346990       12.2486424553
H         19.3381497252       27.8744419192       12.8016605273
H         18.7754180954       30.5416539746       11.6565504870
H         16.8273151792       28.4452534838       12.7210878010
H         16.4410094678       29.8242446462       11.7104591643
H         17.9852099534       29.8627347108       14.5180281150
H         16.9961214385       31.8595323116       14.4816993768
H         20.3212106043       30.5783222016       14.4326514085
H         19.9122305625       31.8804370877       13.3193804356
H         17.1890671812       26.3459406816       11.6439322396
H         17.8616664336       29.9799064297        9.4081159888
H         17.6567635372       25.0079500161        9.6076769367
H         18.3433680908       28.6354770415        7.3735001416
H         20.4246897558       33.7668902346       16.4563810916
H         21.4499924659       32.4566455645       15.8784350706
H         18.2376819278       26.1493558986        7.4667328017
H         21.3487428689       33.4021695193       13.5815471355
H         20.1517299153       35.5696453939       13.1427626643
H         19.0020712375       34.3013799831       13.5932178594
H         19.4685930579       35.5347466125       14.7821046712
H         23.0619434911       34.2862214383       15.1546512146
H         22.5377260112       35.5317610453       14.0081393416
H         21.9417735304       35.5612825204       15.6803391346
H         17.4053758440       34.1522846264       17.2791719447
H         20.3988432063       31.6290586507       19.0947430270
H         20.7353942141       33.3145834997       20.8913074285
H         19.4122627605       35.4245696901       20.8849795563
H         16.2508828769       37.5009128275       18.3699060981
H         17.1477995464       36.5792873897       17.1413611980
H         15.8411446351       35.7959360777       18.0748764726
    79
VM2 Rank=7      G=208.204           E=115.096           -TS=93.108              
C         22.2532354154       25.1748787116        5.6030178158
C         20.9570737401       25.3518990933        6.1122672800
C         23.3570851397       25.2144155599        6.4696198908
C         20.7659094795       25.5682212826        7.4869507988
C         23.1650953842       25.4314070801        7.8444385010
C         21.8674664848       25.6086238967        8.3629662843
N         21.6725529073       25.8388518320        9.7527497002
C         20.7213944820       25.2415972842       10.5576427200
C         22.4823587839       26.8052662939       10.4854401169
O         19.9258952495       24.3734593606       10.2420447543
O         20.8605744375       25.7571331550       11.8117981078
C         21.8606628443       26.8067345249       11.8940310444
C         21.2517715753       28.1715861885       12.2762341368
O         21.8478177532       29.2262629050       12.1331339052
N         19.9618704619       28.1330623895       12.7544838728
C         19.0987811856       29.3131368405       12.8907492116
C         17.6532469389       28.9515765768       12.4658703655
C         19.2041862990       29.9056439636       14.3241880045
C         17.5911921903       28.4172604570       11.0406766791
O         18.6561432443       28.9968101777       15.2842989316
C         18.5067288014       31.2877213874       14.4313916270
C         17.4924957343       27.0340527977       10.8009370842
C         17.6532858675       29.3046166827        9.9508734753
N         18.9064596181       32.0979644691       15.6137427585
C         17.4515390069       26.5438230556        9.4853295301
C         17.6134443108       28.8153173048        8.6345683699
C         20.3446051984       32.4661945140       15.7177154823
S         18.0893968091       31.7800609356       17.0800343474
C         17.5107697147       27.4345713132        8.4014659409
C         20.9194411655       33.1847476019       14.4698389265
O         16.6659487179       31.8880820365       16.7391860043
C         18.4541625648       33.2317963986       18.0917935761
O         18.6630147757       30.5494553125       17.6399237275
C         20.1591144999       34.4983026378       14.1752881046
C         22.4192068204       33.4829907589       14.6761196572
C         18.0085158909       34.5019307599       17.6764752857
C         19.2099299330       33.1083071264       19.2737740145
C         18.3168478514       35.6456195871       18.4384747527
C         19.5117559993       34.2469949204       20.0377317657
O         17.9156202672       36.9126978333       18.0695921440
C         19.0652711318       35.5111772989       19.6186789757
C         17.2211313246       37.1927476943       16.8384623286
H         22.4020034419       25.0072476750        4.5390615572
H         20.1010847487       25.3220333042        5.4425928446
H         24.3613395074       25.0765066799        6.0763888858
H         19.7590951024       25.7058036200        7.8697504669
H         24.0281688003       25.4549217587        8.5039641727
H         22.4197629227       27.7937805081       10.0113187968
H         23.5287582721       26.4794680299       10.5296438328
H         22.6138547177       26.5557686881       12.6507893784
H         19.5459930466       27.2157946204       12.8531774531
H         19.4644719965       30.0784222063       12.1913500351
H         17.2388790160       28.2132391177       13.1643981082
H         17.0098599054       29.8356103431       12.5457541316
H         20.2756065770       30.0407785153       14.5202346308
H         18.8256242321       29.3739433835       16.1796436985
H         18.7249347110       31.8552910849       13.5189998338
H         17.4195592511       31.1348995800       14.4354878755
H         17.4523990939       26.3370955865       11.6337880664
H         17.7360134220       30.3741596037       10.1245630600
H         17.3783968333       25.4735905869        9.3074628059
H         17.6624074150       29.5058087107        7.7963136727
H         20.4995153240       33.1381203471       16.5710863102
H         20.9418653886       31.5681679350       15.9243841060
H         17.4792320387       27.0557617443        7.3829430394
H         20.8366238738       32.5228681061       13.5967684293
H         19.0984073319       34.3074305637       13.9701806987
H         20.2194151369       35.1884977545       15.0267009390
H         20.5800209064       35.0049143709       13.2974901401
H         22.9817283061       32.5574655883       14.8547779639
H         22.8473218955       33.9660628168       13.7883623941
H         22.5779650989       34.1492253944       15.5340288964
H         17.4338389155       34.5846376019       16.7590298955
H         19.5639685918       32.1321790575       19.5976551553
H         20.0942929648       34.1512912609       20.9510011437
H         19.3027423378       36.3928466204       20.2075469834
H         17.0239381843       38.2689966589       16.7549569714
H         17.8252346346       36.8858976661       15.9746653366
H         16.2593860774       36.6645870489       16.8064032264
    79
VM2 Rank=8      G=208.273           E=114.182           -TS=94.091              
C         21.0732005112       23.7684048159        5.8102906825
C         20.9449365972       25.1638217349        5.8911455768
C         21.3415770322       23.0225115999        6.9687043355
C         21.0836394266       25.8123616075        7.1294407724
C         21.4789554097       23.6714560585        8.2070855293
C         21.3463047099       25.0709881378        8.2984464294
N         21.4890407597       25.7284032864        9.5528514135
C         20.9654841227       25.3124975632       10.7624786694
C         22.2645855101       26.9558653559        9.6874648726
O         20.2634903439       24.3373256084       10.9686335661
O         21.3797182409       26.1913309516       11.7178090278
C         22.1836616416       27.2782825113       11.1915366261
C         21.5623975139       28.6590965607       11.4858490361
O         21.7882907669       29.6448221754       10.8035252390
N         20.6839103409       28.6980049054       12.5471160149
C         19.6624598294       29.7384670340       12.7310772927
C         18.2753635631       29.2022504086       12.2862948391
C         19.6891496494       30.2600527899       14.1953182852
C         18.2823300436       28.6159854125       10.8790825284
O         19.3746353489       29.1985205002       15.1026978912
C         18.7230836464       31.4566279502       14.4068441367
C         18.1298544306       27.2303939421       10.6853782746
C         18.4530215521       29.4538102087        9.7619144878
N         18.9685985999       32.2506809522       15.6415722221
C         18.1417609411       26.6891005493        9.3892119249
C         18.4689113158       28.9132444903        8.4652813823
C         20.2987540769       32.9065689005       15.7617706710
S         18.2718612484       31.6659105236       17.0882536248
C         18.3091884976       27.5309281582        8.2785880268
C         20.6851870229       33.8117744449       14.5636621895
O         16.8529022904       31.4737526109       16.7656769531
C         18.3331785490       33.0909623647       18.1978647469
O         19.1187659605       30.5602867827       17.5546222201
C         19.6598780663       34.9511462356       14.3630695097
C         22.0919641076       34.4066140901       14.7832309692
C         17.5388213998       34.2231189769       17.9324766549
C         19.1931431262       33.0915047812       19.3131199603
C         17.5970417572       35.3471575613       18.7701855030
C         19.2528869337       34.2133847117       20.1554640911
O         16.7973481026       36.4251494840       18.4526699942
C         18.4576405022       35.3400101621       19.8863955610
C         16.7760765111       37.6444231009       19.2198982679
H         20.9663516115       23.2663060697        4.8518138327
H         20.7377884609       25.7430595263        4.9946891241
H         21.4439974354       21.9418375157        6.9073320117
H         20.9771190881       26.8923594195        7.1755468235
H         21.6913687181       23.0818606356        9.0951711756
H         21.8188712338       27.7586233841        9.0861626097
H         23.3036661996       26.7902494854        9.3763712230
H         23.1830838897       27.2587193393       11.6428606124
H         20.5687387897       27.8353849453       13.0654832486
H         19.9140021155       30.5881914476       12.0812484888
H         17.9347327555       28.4442446806       13.0031099713
H         17.5359130282       30.0104731082       12.3292729799
H         20.7152657356       30.6030506063       14.3799059493
H         19.4849859139       29.5486994886       16.0181750229
H         18.7987599515       32.1174993030       13.5351898616
H         17.6917404952       31.0801743512       14.4075590979
H         18.0066210844       26.5702387140       11.5399464053
H         18.5799307140       30.5241419278        9.8995906631
H         18.0261461362       25.6173185496        9.2466642048
H         18.6031538345       29.5658447156        7.6063648071
H         20.3252882786       33.5380317988       16.6585792261
H         21.0750943739       32.1427454036       15.9025559333
H         18.3176231700       27.1119832158        7.2754759698
H         20.7263258369       33.2071611635       13.6474685079
H         18.6594773330       34.5543233895       14.1499512971
H         19.5884023574       35.5803284190       15.2597396794
H         19.9479366606       35.5926746043       13.5205759752
H         22.8404852331       33.6120210079       14.8979464302
H         22.3923785509       35.0259912432       13.9282955811
H         22.1218224867       35.0346405755       15.6831362900
H         16.8785430730       34.2335947502       17.0693096489
H         19.8157241477       32.2250150373       19.5244348299
H         19.9175338782       34.2113639193       21.0161897163
H         18.5192593815       36.1981170154       20.5482489423
H         17.7695721228       38.1110859536       19.2334092774
H         16.0685693361       38.3557682018       18.7754113808
H         16.4612934116       37.4470706305       20.2528189653
    79
VM2 Rank=9      G=208.290           E=114.120           -TS=94.170              
C         21.3891471288       23.5864616559        6.0865435635
C         21.6146641823       22.9078197016        7.2943952165
C         21.2244574314       24.9803977121        6.0877980582
C         21.6729458787       23.6224377638        8.5025022036
C         21.2840791119       25.6946392800        7.2959017109
C         21.5033126313       25.0209037383        8.5137701959
N         21.5661049302       25.7449768184        9.7376227066
C         20.9899396037       25.3785669537       10.9393072725
C         22.3062368429       26.9965759908        9.8468526367
O         20.3006913398       24.3976379636       11.1606023128
O         21.3341994397       26.3153444153       11.8669703357
C         22.1389320464       27.3942620762       11.3255609556
C         21.4706958255       28.7716894479       11.5137140472
O         21.7093241603       29.7263979299       10.7927167602
N         20.5364200267       28.8424508621       12.5244772944
C         19.4825950291       29.8639830478       12.5996542954
C         18.1330747029       29.2681089340       12.1170018177
C         19.4224173476       30.4651645288       14.0319682633
C         18.2257099354       28.6080326093       10.7459721205
O         19.0860761728       29.4470848392       14.9802969719
C         18.4195207118       31.6463309597       14.1277028128
C         18.4342573692       29.3892236621        9.5947049367
C         18.1151837702       27.2106341195       10.6207291109
N         18.5890223363       32.5190241519       15.3216560873
C         18.5291581557       28.7808956582        8.3319105716
C         18.2060941403       26.6015052232        9.3582364221
C         19.8983470993       33.2121418665       15.4624948495
S         17.8427055797       31.9985774872       16.7683780770
C         18.4109805870       27.3869502204        8.2131249653
C         20.3347783457       34.0361455374       14.2234637571
O         16.4441154926       31.7504006484       16.3986768267
C         17.8259854618       33.4828783287       17.8000442740
O         18.6969754120       30.9444538269       17.3306454129
C         19.3045441718       35.1380531116       13.8861241194
C         21.7181827442       34.6724605540       14.4732979236
C         18.6817474634       33.5808900723       18.9153405678
C         16.9756823930       34.5579114222       17.4761669345
C         18.6851112232       34.7476529553       19.7051457834
C         16.9780119564       35.7204525618       18.2629603263
O         19.5040616184       34.8973313425       20.8050536302
C         17.8315594539       35.8121444327       19.3744638546
C         20.4359507468       33.8880055889       21.2400500172
H         21.3434291754       23.0335125789        5.1514744984
H         21.7451473110       21.8284273185        7.2948180666
H         21.0503399131       25.5075906669        5.1530187607
H         21.8529248025       23.0846411695        9.4297685965
H         21.1501953389       26.7724638878        7.2801164320
H         23.3636937034       26.8407331666        9.5990747003
H         21.8755083038       27.7558959363        9.1816157007
H         23.1134393751       27.4244752175       11.8278974754
H         20.4141274659       28.0050902607       13.0812001794
H         19.7467113565       30.6834817763       11.9168402034
H         17.7747932338       28.5406178767       12.8564738256
H         17.3732624464       30.0574971956       12.0792552995
H         20.4297111903       30.8437156230       14.2480611363
H         19.1456831113       29.8486445704       15.8792739529
H         18.5193966632       32.2559898234       13.2218294966
H         17.3984453033       31.2434130791       14.1050614509
H         18.5292958782       30.4682829343        9.6799551694
H         17.9634191518       26.5940024559       11.5027777560
H         18.6923636192       29.3900113017        7.4464796557
H         18.1226525983       25.5210258126        9.2687610178
H         19.8640699534       33.9077271369       16.3101873220
H         20.6795759100       32.4777170053       15.6999595844
H         18.4807170874       26.9154578782        7.2360610825
H         20.4352840847       33.3682563965       13.3571565346
H         19.6269229166       35.7209747822       13.0139815358
H         18.3226806013       34.7080262906       13.6523345057
H         19.1770898197       35.8301622934       14.7284864489
H         21.6896005932       35.3638113534       15.3255684505
H         22.4717457395       33.9028622114       14.6846954863
H         22.0546998536       35.2347248804       13.5927193578
H         19.3380352060       32.7499076034       19.1546654228
H         16.3179924127       34.4911505743       16.6123468199
H         16.3213357172       36.5498461807       18.0112048203
H         17.8346872608       36.7122925561       19.9829285473
H         19.9101816160       32.9590874116       21.4963375694
H         21.1723602080       33.6755336534       20.4541956768
H         20.9751972258       34.2338051344       22.1310305792
    79
VM2 Rank=10     G=208.293           E=113.930           -TS=94.364              
C         22.1507175203       24.9842753835        5.8311876019
C         21.1607476296       25.9669663125        5.9874951641
C         23.0091307811       24.6802094399        6.8993699943
C         21.0288326391       26.6440086786        7.2111651804
C         22.8758822988       25.3565825267        8.1234531632
C         21.8815380754       26.3403556607        8.2909786093
N         21.7487017970       27.0290392098        9.5295621481
C         21.8187636786       26.4715411497       10.7928435030
C         21.5421122763       28.4718086004        9.5803846025
O         21.9686848323       25.2954358089       11.0764876583
O         21.6860097930       27.4810887469       11.6992455952
C         21.5626966723       28.7900469650       11.0853191604
C         20.3099470839       29.5579417764       11.5491274941
O         19.9590005020       30.6087997346       11.0404374292
N         19.5686992122       28.9456729833       12.5362345134
C         18.1341886516       29.1989988158       12.7486704224
C         17.3729953913       27.8531340800       12.6481658474
C         17.8807903355       29.9449907472       14.0891285583
C         17.6956983732       27.0855736433       11.3705845292
O         16.4760301885       30.0789145894       14.3157342084
C         18.5380892825       31.3534575342       14.0946451059
C         18.4197185743       25.8801469329       11.4273367915
C         17.2888569638       27.5876081773       10.1207569936
N         18.7017153850       31.9639352600       15.4418560951
C         18.7273360949       25.1812459252       10.2483104747
C         17.5994768350       26.8914510547        8.9407250268
C         19.5512739068       31.2196818705       16.4110617291
S         17.3528941790       32.7937785803       16.0823322207
C         18.3164578289       25.6860812728        9.0048306711
C         20.9567703508       30.8315895882       15.8813080443
O         16.9829684235       33.7608532058       15.0419984430
C         18.0520930721       33.7692886314       17.4334562070
O         16.4128241293       31.7730356730       16.5638208923
C         21.7739945688       32.0796125203       15.4764193348
C         21.7231582086       30.0296389322       16.9538049403
C         18.9215442267       34.8404392852       17.1506538058
C         17.7571402176       33.4489070869       18.7727644022
C         19.4921488847       35.5893322709       18.1909579071
C         18.3243879503       34.1969771034       19.8169561586
O         20.3384875180       36.6227546928       17.8471958855
C         19.1904273775       35.2652318499       19.5290617828
C         21.0000682899       37.4565676995       18.8181717046
H         22.2532779807       24.4604058358        4.8839688863
H         20.4950604984       26.2036716613        5.1611342110
H         23.7782141421       23.9211849251        6.7790137378
H         20.2532419009       27.3969900118        7.3182181650
H         23.5505362917       25.1142578664        8.9404597996
H         22.3478428801       28.9987457287        9.0538773639
H         20.5718383885       28.7346453603        9.1390599260
H         22.4398599041       29.4010499041       11.3312405270
H         19.9490318062       28.0699703903       12.8741745707
H         17.7653481068       29.8459273684       11.9402093876
H         17.6051360815       27.2409315006       13.5286532360
H         16.2926899821       28.0415798715       12.6892968188
H         18.3258971457       29.3341875417       14.8847336262
H         16.3583715161       30.4872288981       15.2064712885
H         19.5229853167       31.2884450047       13.6206033449
H         17.9484791700       32.0155789963       13.4466961544
H         18.7487152735       25.4846300277       12.3845165097
H         16.7340935933       28.5203642105       10.0646069267
H         19.2907337500       24.2526291791       10.2984966874
H         17.2831663592       27.2850521847        7.9780940570
H         19.7064085279       31.8235480042       17.3138192980
H         19.0268798306       30.3109945408       16.7355324286
H         18.5576175130       25.1460056358        8.0925863777
H         20.8492444446       30.1798364564       15.0037200223
H         21.2763503670       32.6390516890       14.6744867006
H         21.9058534934       32.7585518947       16.3287769223
H         22.7691717626       31.7941972477       15.1125876053
H         21.8763557906       30.6266018463       17.8622404195
H         21.1731142569       29.1214875672       17.2321493070
H         22.7084502652       29.7210172360       16.5813858020
H         19.1604462477       35.0890304957       16.1199817843
H         17.0917303235       32.6199744445       19.0033106457
H         18.0949242233       33.9477864205       20.8503274481
H         19.6201643064       35.8305076462       20.3500266112
H         20.2657992923       37.9848126022       19.4400790517
H         21.6493923229       36.8549299971       19.4673234576
H         21.6211254267       38.2049506462       18.3098810132
    79
VM2 Rank=11     G=208.298           E=114.474           -TS=93.824              
C         22.2285258011       24.0872541373        6.1631997899
C         20.9564108382       23.9737828124        6.7444719195
C         23.2355163231       24.8087110655        6.8226285111
C         20.6920177495       24.5830162674        7.9821560326
C         22.9698482229       25.4185805261        8.0601180201
C         21.6940898436       25.3139774823        8.6509705774
N         21.4229915581       25.9417757874        9.9019213816
C         20.6806130706       25.4173840999       10.9456154227
C         21.9054460860       27.2860493991       10.2058861408
O         20.1241752587       24.3335090284       10.9888617952
O         20.6651969989       26.3407889579       11.9489262361
C         21.5208537605       27.4803507138       11.6815926509
C         20.8526878472       28.8380228589       11.9681678043
O         21.3559537005       29.8992042546       11.6406429565
N         19.6130601322       28.7761741254       12.5655906986
C         18.6045402797       29.8401568900       12.4370492241
C         17.3065826651       29.2360922266       11.8482885883
C         18.3754096466       30.5826582313       13.7812482555
C         17.5631043936       28.4417744153       10.5725391186
O         17.4022004563       31.6153642288       13.6141277032
C         19.6923622402       31.2016572767       14.3203535169
C         18.0076020837       29.0958521712        9.4087721168
C         17.3915395609       27.0452623585       10.5569537482
N         19.5501004654       32.1110429597       15.4927620959
C         18.2779412209       28.3625210182        8.2417171859
C         17.6544359731       26.3119364228        9.3884879786
C         20.7868983862       32.8961989752       15.7506372954
S         18.7224803332       31.4832131399       16.8571653091
C         18.0989045021       26.9703262251        8.2305426105
C         21.0208815582       34.0381521445       14.7275390699
O         17.3116314483       31.4580018632       16.4501940530
C         18.8246872063       32.7828136577       18.1111555064
O         19.4421753047       30.2791143983       17.2876633523
C         19.8378175928       35.0328578852       14.7103741700
C         22.3295877782       34.7859126065       15.0586935029
C         18.1432843321       33.9996094913       17.9111042354
C         19.6031185859       32.6012916711       19.2711237639
C         18.2419195820       35.0331008024       18.8627067938
C         19.6969134180       33.6287595509       20.2234115408
O         17.6055140665       36.2470019954       18.7076644836
C         19.0178236063       34.8408215933       20.0167548032
C         16.8261561227       36.5869242843       17.5442200405
H         22.4341676252       23.6154364104        5.2054317637
H         20.1752158264       23.4132978623        6.2368654059
H         24.2229501217       24.8946124458        6.3756826611
H         19.7027202922       24.4835397547        8.4179167298
H         23.7654447093       25.9651481647        8.5577143521
H         21.3950546188       28.0170499128        9.5643688447
H         22.9910010830       27.3695457795       10.0777720836
H         22.4186560421       27.4145986092       12.3084644920
H         19.2888523488       27.8406991721       12.7795925482
H         18.9713818721       30.5851502237       11.7168990958
H         16.8281252949       28.6004734278       12.6039350473
H         16.5933471550       30.0427055407       11.6359606954
H         18.0084650340       29.8463796438       14.5093919235
H         17.1558659540       31.8885437237       14.5286389420
H         20.3749798126       30.3831288581       14.5845045837
H         20.1549282886       31.7352034631       13.4825971961
H         18.1506356637       30.1731178836        9.4117718915
H         17.0576060780       26.5256661834       11.4510276648
H         18.6242320551       28.8731625823        7.3466917631
H         17.5169962737       25.2335684969        9.3836258858
H         20.7619842870       33.3680448310       16.7385227114
H         21.6553594636       32.2230584427       15.7544362424
H         18.3046857782       26.4037165437        7.3258834306
H         21.1304552447       33.6135678267       13.7209910493
H         18.9058849025       34.5330925491       14.4160124228
H         19.6867624954       35.4845854694       15.6989823050
H         20.0189784218       35.8421681317       13.9917676554
H         22.5245952247       35.5770319123       14.3232843196
H         22.2810025556       35.2513051660       16.0517560718
H         23.1866582224       34.1003261748       15.0456210985
H         17.5513195001       34.1304343527       17.0105038263
H         20.1368952514       31.6674093979       19.4320937999
H         20.2980652748       33.4881831259       21.1186317726
H         19.0940171689       35.6373763140       20.7517277734
H         16.4278879052       37.6046223128       17.6433831584
H         17.4443833729       36.5469489493       16.6380529271
H         15.9799446059       35.8972777062       17.4289447439
    79
VM2 Rank=12     G=208.328           E=114.513           -TS=93.816              
C         21.0022412702       23.2459844501        6.2976263064
C         21.7091400684       24.4252562017        6.5799767116
C         20.1300648155       22.7069969349        7.2562910045
C         21.5427890422       25.0655195175        7.8191728877
C         19.9631078789       23.3483681489        8.4949845920
C         20.6640242548       24.5356169779        8.7847663444
N         20.4978570272       25.1830075874       10.0416861706
C         19.3064274042       25.3780177522       10.7148616019
C         21.6367879336       25.7066951153       10.7865997905
O         18.1871223181       25.0702514453       10.3423805015
O         19.5944018356       25.9840769547       11.9008038299
C         21.0087372565       26.2503359618       12.0835288429
C         21.2976607039       27.7468032066       12.3197358173
O         22.3779480381       28.2579206204       12.0748184670
N         20.2309787787       28.4895967262       12.7777955530
C         20.1290728167       29.9501114819       12.6477625844
C         19.1826230823       30.3064350164       11.4690690409
C         19.7080137023       30.5709167623       14.0102978380
C         19.5381378025       29.5865667627       10.1727970762
O         18.4008330884       30.1280061967       14.3887285716
C         19.7582546022       32.1223000366       14.0124139160
C         18.6889983909       28.5897437886        9.6570667821
C         20.7240101392       29.9050869453        9.4861155661
N         19.3131685366       32.7750806839       15.2784665790
C         19.0180996335       27.9237227884        8.4648777830
C         21.0564653938       29.2366544512        8.2959965942
C         19.1852501363       34.2562151532       15.1733095526
S         19.9975265055       32.1581764256       16.7272026994
C         20.2010501662       28.2486800251        7.7828756132
C         18.2032584753       34.7620396926       14.0824853100
O         19.2240308374       30.9403402179       17.0026517041
C         19.5633058874       33.3416577422       18.0258922376
O         21.4516262906       32.1463934738       16.5285929232
C         16.7987291032       34.1365475259       14.2453762988
C         18.0994819570       36.3009473523       14.1405450763
C         18.2513817024       33.3681241563       18.5400800830
C         20.5205924442       34.2547342971       18.5106207246
C         17.8969601915       34.3024326418       19.5329100825
C         20.1688766853       35.1839034911       19.5025644605
O         16.6258152550       34.3752242086       20.0635671851
C         18.8596768737       35.2056344351       20.0104745032
C         15.5384716747       33.5368766463       19.6262307931
H         21.1312848532       22.7499876388        5.3387033419
H         22.3858036963       24.8435237558        5.8388668925
H         19.5840363847       21.7919354287        7.0403504860
H         22.0942135157       25.9795385676        8.0200818735
H         19.2883052025       22.9168194962        9.2297023408
H         22.1279706231       26.5082429754       10.2199860903
H         22.3567370132       24.9074212979       11.0028101064
H         21.3845848647       25.6963886125       12.9523311417
H         19.3769066834       27.9776490444       12.9637178406
H         21.1249750520       30.3467772319       12.4061286594
H         18.1488167660       30.0715708908       11.7527382993
H         19.2069546783       31.3865970169       11.2865593714
H         20.4364657057       30.2062039886       14.7474093711
H         18.3141281645       30.3484981423       15.3455988683
H         20.7864850272       32.4339782387       13.7852376453
H         19.1264645509       32.4603760983       13.1870655287
H         17.7745261203       28.3266404068       10.1821769898
H         21.3916118881       30.6669994923        9.8791606364
H         18.3588281457       27.1528272120        8.0731462348
H         21.9751951957       29.4862096246        7.7713105401
H         18.8173435361       34.6749017967       16.1163458312
H         20.1760939852       34.6966621724       14.9957776796
H         20.4550913412       27.7336982423        6.8598045727
H         18.5925673093       34.5040309247       13.0887649632
H         16.8347535579       33.0444415352       14.1409601115
H         16.3756029440       34.3678103651       15.2312403801
H         16.1094249349       34.5183939146       13.4816552044
H         19.0838679512       36.7659835320       14.0007553500
H         17.4376284853       36.6782680240       13.3503770878
H         17.6988293212       36.6365850318       15.1059548835
H         17.5192138249       32.6646281437       18.1556535340
H         21.5345293116       34.2459494478       18.1171630171
H         20.9086659946       35.8881234033       19.8758804048
H         18.5869449357       35.9264707166       20.7763287724
H         14.6265501852       33.7826380933       20.1849648563
H         15.3378786804       33.6884069936       18.5576206957
H         15.7713217121       32.4780339187       19.7983994952
    79
VM2 Rank=13     G=208.369           E=114.709           -TS=93.660              
C         21.9926580341       24.0113345898        6.2804715034
C         21.7219720364       25.3874689960        6.3367790577
C         22.0820583431       23.2669765162        7.4672019920
C         21.5399843582       26.0181909806        7.5786381827
C         21.8984664148       23.8979245355        8.7089006742
C         21.6211776822       25.2775190872        8.7744684803
N         21.4385210085       25.9181520558       10.0322259700
C         20.7187587452       25.4303438563       11.1071383179
C         22.0516412212       27.2084050997       10.3260222098
O         20.0867798389       24.3894726557       11.1649106022
O         20.8303946645       26.3316829757       12.1238129389
C         21.6804900243       27.4615169398       11.7972481257
C         20.9873957639       28.8214336368       12.0083303535
O         21.5144809379       29.8790700642       11.7084059194
N         19.6976273748       28.7644370658       12.4893937322
C         18.6972145615       29.8150986230       12.2443399344
C         17.4209704985       29.1656360120       11.6549542925
C         18.4123808757       30.6500297933       13.5230856265
C         17.7124159692       28.3015442021       10.4330716590
O         17.4388644179       31.6601935626       13.2460029056
C         19.7010376009       31.3210550987       14.0689847829
C         17.5844486779       26.9018439417       10.5029307870
C         18.1324174017       28.8967203172        9.2293793120
N         19.4815253860       32.2696694368       15.1907190331
C         17.8673929383       26.1069246456        9.3798704873
C         18.4191178978       28.1022895621        8.1067763719
C         20.6342290479       33.1711655580       15.4260576656
S         18.5355122151       31.7294706342       16.5158271296
C         18.2841540120       26.7068250338        8.1813780299
C         20.2383667376       34.6654586382       15.3340566249
O         17.1487058758       31.9682016682       16.0958633176
C         18.9068125750       32.8306912597       17.9067980219
O         19.0480421456       30.3936146772       16.8420273850
C         21.4001925944       35.5592664656       15.8140054805
C         19.8283833266       35.0483442266       13.8946478978
C         18.1117339542       33.9711803744       18.1406351262
C         19.9793797559       32.5431033626       18.7748526972
C         18.4045791274       34.8339923615       19.2149649426
C         20.2691275968       33.3996681392       19.8485172889
O         17.6691272826       35.9716174572       19.4747230143
C         19.4839576693       34.5436174649       20.0638174580
C         16.5805034105       36.4158484286       18.6417646680
H         22.1339492968       23.5230019720        5.3193561426
H         21.6521284869       25.9653892960        5.4185430382
H         22.2941869078       22.2014538072        7.4253653017
H         21.3238298695       27.0824025073        7.6050212629
H         21.9748220670       23.3102222820        9.6200347981
H         21.6311257553       27.9882011902        9.6776957892
H         23.1401174600       27.1601992844       10.1957167312
H         22.5812782083       27.4439464737       12.4229185783
H         19.3612603061       27.8327450062       12.7005103925
H         19.0936122483       30.5057284111       11.4864853742
H         16.9252652017       28.5711032443       12.4326502236
H         16.7078315163       29.9522018681       11.3771774630
H         18.0215557303       29.9639931672       14.2870286857
H         17.1886745113       32.0430265641       14.1196581990
H         20.3977972483       30.5359833948       14.3909990718
H         20.1759375238       31.8485639130       13.2309265145
H         17.2694628931       26.4271067728       11.4282894162
H         18.2394479912       29.9763082482        9.1657313565
H         17.7713187947       25.0256106826        9.4415031787
H         18.7443822384       28.5679290687        7.1799427924
H         21.0949294440       32.9614246550       16.3989925901
H         21.4197193702       32.9903063072       14.6794035377
H         18.5069466332       26.0904489791        7.3138943144
H         19.3797159079       34.8557850298       15.9878774132
H         22.2930124697       35.4179256958       15.1912643856
H         21.1209412163       36.6198626142       15.7714424398
H         21.6683819607       35.3273734504       16.8530204164
H         20.6530519314       34.8807325746       13.1902027878
H         18.9696536283       34.4531595191       13.5574621168
H         19.5422461843       36.1061934230       13.8373517289
H         17.2793977038       34.1816960077       17.4763105915
H         20.5912882093       31.6585947718       18.6126971098
H         21.1012181283       33.1782806861       20.5126904159
H         19.7095979314       35.2083981292       20.8930474876
H         16.1594289076       37.3478250202       19.0396303710
H         16.9284982396       36.6056230439       17.6180415613
H         15.7816107117       35.6635818241       18.6130204911
    79
VM2 Rank=14     G=208.372           E=113.593           -TS=94.779              
C         19.7002089602       23.7051676481        6.6894625287
C         20.2660560817       23.0796760222        7.8114494002
C         19.6130771779       25.1051731528        6.6390667588
C         20.7419273223       23.8536226712        8.8829666095
C         20.0901797810       25.8786502757        7.7101977569
C         20.6533732658       25.2590793894        8.8434372926
N         21.1392924934       26.0431069602        9.9276412735
C         20.9644601697       25.7820464843       11.2736525064
C         21.9313085819       27.2468571952        9.7041243049
O         20.3380547284       24.8635052358       11.7738245042
O         21.6324088643       26.7422556248       11.9725349215
C         22.2738225082       27.7304049309       11.1258897390
C         21.7777362522       29.1611408698       11.4190100566
O         21.8182400450       30.0574460439       10.5923906970
N         21.2298166810       29.3521607978       12.6690854692
C         20.3134572729       30.4502591821       13.0062698957
C         18.8492520344       29.9327538782       13.0159617222
C         20.7488957493       31.1127362781       14.3436350020
C         18.4649635650       29.1909391292       11.7408716475
O         20.6781431205       30.1595355992       15.4084896545
C         19.8991488461       32.3678134928       14.6772056770
C         18.2394576740       27.8020431493       11.7670605907
C         18.3423764521       29.8867084081       10.5243242883
N         20.4323791190       33.2110268515       15.7847243051
C         17.8892452155       27.1173299571       10.5916064461
C         17.9961296839       29.2024181713        9.3472255027
C         21.7750434918       33.8119029523       15.5772194018
S         20.0921066512       32.7650476913       17.4010724272
C         17.7653907442       27.8179553427        9.3816654604
C         21.9377489383       34.6193409342       14.2624803629
O         21.0158015063       31.6742514302       17.7392330217
C         18.3769921615       32.1914906744       17.3561662247
O         20.0768476427       34.0351764171       18.1368058529
C         20.9258426461       35.7850696096       14.1819347375
C         23.3763369823       35.1668723874       14.1533068863
C         17.3307271577       33.1226262091       17.2015469214
C         18.0792457847       30.8172752425       17.4442999320
C         15.9937735194       32.6835529989       17.1355593044
C         16.7473534673       30.3788816089       17.3784234774
O         14.9338178243       33.5525153924       16.9798939619
C         15.7090401238       31.3118325124       17.2246627585
C         15.0935197127       34.9793511976       16.8576207182
H         19.3313471740       23.1063403485        5.8602800457
H         20.3368952682       21.9954512494        7.8508293916
H         19.1757696310       25.5912234016        5.7704014655
H         21.1821462001       23.3560615200        9.7432349703
H         20.0114054085       26.9607071552        7.6572116527
H         21.3418533000       27.9977371450        9.1624524383
H         22.8416801589       27.0093166963        9.1395935329
H         23.3587374294       27.7138294592       11.2858891670
H         21.2515206432       28.5559449102       13.2948979021
H         20.3904537548       31.2178754856       12.2237160567
H         18.7031331889       29.2779441274       13.8845165354
H         18.1601462853       30.7738292034       13.1545954567
H         21.7920194632       31.4279229465       14.2089886288
H         21.0867431084       30.5727595269       16.2046553926
H         19.8277711404       32.9768046362       13.7682196458
H         18.8726488770       32.0520080366       14.8933882618
H         18.3398594421       27.2503998562       12.6981152582
H         18.5221835308       30.9577612126       10.4903265988
H         17.7189268947       26.0437115784       10.6182078845
H         17.9049984207       29.7455652589        8.4100447697
H         21.9940579429       34.4931368894       16.4112656333
H         22.5393826695       33.0240538182       15.6128668022
H         17.4935374207       27.2880379857        8.4722270504
H         21.7779674410       33.9531319436       13.4038882243
H         21.0560564664       36.3527280726       13.2517936732
H         19.8921379654       35.4184266502       14.2044907406
H         21.0553595472       36.4777586200       15.0234063733
H         23.5163548449       35.7139973866       13.2121137575
H         23.6042957168       35.8519159858       14.9802456458
H         24.1096494602       34.3504413548       14.1761588397
H         17.5709372820       34.1788786507       17.1281811178
H         18.8791412213       30.0890673388       17.5567359457
H         16.5200240343       29.3175273941       17.4437681067
H         14.6782854689       30.9723884582       17.1720951130
H         14.1130915768       35.4583861577       16.7415484472
H         15.5741489074       35.3940274108       17.7532002241
H         15.7029513105       35.2274133482       15.9789380626
    79
VM2 Rank=15     G=208.407           E=113.028           -TS=95.378              
C         19.5790903015       23.6071211345        7.1290129022
C         20.0862887371       23.0545073576        8.3154124118
C         19.5481923069       25.0006436727        6.9641351191
C         20.5595249197       23.8949170490        9.3368571924
C         20.0226426324       25.8405085333        7.9852794718
C         20.5266907791       25.2949659081        9.1827175261
N         21.0108078585       26.1463614993       10.2160397422
C         20.7977327706       25.9954816444       11.5735366977
C         21.8453500546       27.3052589925        9.9210975927
O         20.1299871105       25.1388309411       12.1272333724
O         21.4829972639       26.9841996296       12.2133597805
C         22.1823355327       27.8785725034       11.3103021576
C         21.7452764095       29.3469792320       11.4874361579
O         21.8358020086       30.1765293584       10.5975060725
N         21.1891586214       29.6532097847       12.7105264111
C         20.3155584218       30.8096476180       12.9523333535
C         18.8276886402       30.3601700245       12.9461927488
C         20.7415662028       31.5230012685       14.2671436842
C         18.4503881942       29.5173332525       11.7334344904
O         20.6180447275       30.6201361898       15.3704779497
C         19.9316276025       32.8238578323       14.5183681825
C         18.4174182068       30.0931742678       10.4503448936
C         18.1372827684       28.1537917509       11.8861397347
N         20.3793379330       33.6322513310       15.6882889586
C         18.0737411635       29.3152921528        9.3321139650
C         17.7890493614       27.3760717847       10.7694784592
C         21.7735638063       34.1421055398       15.6486813083
S         19.8102204823       33.2280282388       17.2519174961
C         17.7549389362       27.9574058395        9.4923736669
C         22.1403534461       34.9500997725       14.3761479937
O         20.6736960350       32.1399392627       17.7292019798
C         18.1192819929       32.6399408837       16.9820149638
O         19.7026852327       34.5133792733       17.9524965684
C         21.2238110883       36.1823377265       14.2010719551
C         23.6150176980       35.3997822554       14.4424542049
C         17.8446874596       31.2580090455       16.9506368215
C         17.0779048859       33.5605258518       16.7525980960
C         16.5435221995       30.7974144107       16.6723858475
C         15.7763883365       33.1030395903       16.4915041425
O         16.2340610098       29.4552641536       16.5974327972
C         15.5132418923       31.7240569590       16.4485253902
C         17.2260449698       28.4128564832       16.6797877397
H         19.2123219155       22.9568792753        6.3385317158
H         20.1138700221       21.9751818819        8.4434934722
H         19.1565987085       25.4302918473        6.0453752544
H         20.9544736884       23.4526221519       10.2477704285
H         19.9878894379       26.9167932613        7.8430141269
H         21.2879530095       28.0337055137        9.3182370287
H         22.7555740245       26.9999194105        9.3899148483
H         23.2623234135       27.8269800835       11.4943552317
H         21.1696096784       28.9064268988       13.3946052059
H         20.4529684131       31.5263803301       12.1307451327
H         18.6159153051       29.7991327760       13.8647042699
H         18.1750241531       31.2401553267       12.9756469766
H         21.7979310469       31.7983411398       14.1471821859
H         20.9753386091       31.0720472553       16.1697045006
H         20.0012299210       33.4382503210       13.6127970998
H         18.8703349728       32.5727716704       14.6105784723
H         18.6653427131       31.1429546628       10.3194020003
H         18.1669574467       27.6938066147       12.8703253309
H         18.0522859939       29.7657256211        8.3430573948
H         17.5506055357       26.3225210657       10.8939248450
H         21.9379841762       34.7980166058       16.5150319543
H         22.4742266101       33.3032808121       15.7572831386
H         17.4843718138       27.3555219191        8.6284993719
H         22.0365431066       34.3053419156       13.4930067819
H         21.2998492175       36.8556427503       15.0645212484
H         21.4981932119       36.7498049899       13.3027176795
H         20.1726398349       35.8857975939       14.0976279834
H         23.8988604401       35.9456939923       13.5334962572
H         23.7907105770       36.0593132530       15.3022348947
H         24.2850336951       34.5352540397       14.5346574350
H         18.6494781074       30.5525588251       17.1283553329
H         17.2811133416       34.6289785466       16.7682654221
H         14.9744177968       33.8154481336       16.3131763601
H         14.5084991307       31.3695535645       16.2358361970
H         16.7510012036       27.4314153977       16.5567973081
H         17.9804918490       28.5317671709       15.8911681479
H         17.7277968636       28.4311440681       17.6558420696
    79
VM2 Rank=16     G=208.419           E=114.259           -TS=94.160              
C         21.3878452617       23.5762944792        6.0386190257
C         21.6307195680       22.8957585007        7.2420292065
C         21.2129335552       24.9689651409        6.0458031961
C         21.6961142836       23.6071959524        8.4516474506
C         21.2796778070       25.6800380215        7.2554028170
C         21.5163111600       25.0043298764        8.4689172997
N         21.5862492196       25.7251971822        9.6942819101
C         21.0252511195       25.3508561819       10.9006937029
C         22.3179529419       26.9820672358        9.7997375100
O         20.3457442517       24.3640729930       11.1260578172
O         21.3718872461       26.2874846532       11.8276230047
C         22.1629240663       27.3740300512       11.2813135706
C         21.4864314034       28.7458553288       11.4805747444
O         21.7105388306       29.7044692950       10.7600953033
N         20.5620547718       28.8066209032       12.5010518475
C         19.5014117158       29.8199713262       12.5900008781
C         18.1515827927       29.2154206338       12.1190896498
C         19.4510953473       30.4163873222       14.0247141906
C         18.2353022910       28.5596351123       10.7454288803
O         19.1314158329       29.3930786822       14.9731894509
C         18.4408697302       31.5900980779       14.1338680722
C         18.4266923321       29.3453196212        9.5942401369
C         18.1334529442       27.1618184542       10.6175234356
N         18.6132524708       32.4579199964       15.3309336020
C         18.5131594652       28.7410103839        8.3289118982
C         18.2159237355       26.5566811846        9.3525353903
C         19.9188234580       33.1590862344       15.4659590152
S         17.8803988568       31.9265316553       16.7805821689
C         18.4036483219       27.3465795723        8.2075473583
C         20.3388223597       33.9948156595       14.2290956442
O         16.4818088496       31.6678687033       16.4178252276
C         17.8556014113       33.4078310843       17.8159546500
O         18.7459891641       30.8768742767       17.3338720725
C         19.2977334533       35.0913764978       13.9080269127
C         21.7196067096       34.6395681267       14.4716592371
C         18.7066833102       33.5078368714       18.9338008609
C         17.0031520498       34.4814400706       17.4940185437
C         18.7076160645       34.6655619747       19.7269249313
C         17.0006899108       35.6415139300       18.2848754284
O         19.5658323048       34.7019378833       20.8060804293
C         17.8503001712       35.7354657822       19.3998234704
C         19.6694994605       35.8321350872       21.6936700586
H         21.3366130558       23.0257993825        5.1023884929
H         21.7691401344       21.8173649301        7.2378324652
H         21.0253666890       25.4976294936        5.1144641763
H         21.8895303793       23.0679857625        9.3753795864
H         21.1377050415       26.7568844582        7.2442578684
H         23.3739452197       26.8350460131        9.5405810897
H         21.8746073629       27.7400753157        9.1413278754
H         23.1423021858       27.4100160694       11.7736985551
H         20.4517049082       27.9667146291       13.0564357996
H         19.7524787142       30.6434881917       11.9070991500
H         17.8059914958       28.4833741320       12.8601030857
H         17.3856647506       29.9992872358       12.0910098071
H         20.4577082093       30.8015837203       14.2320999774
H         19.1951447995       29.7927990595       15.8727028589
H         18.5299204567       32.2049710129       13.2303909492
H         17.4224391793       31.1803252983       14.1167460670
H         18.5149014734       30.4248018105        9.6814490450
H         17.9949583303       26.5417983327       11.4993799586
H         18.6630912498       29.3536010209        7.4435317114
H         18.1392393885       25.4758754104        9.2609811925
H         19.8867844374       33.8481628017       16.3191000929
H         20.7070922459       32.4285248002       15.6917664898
H         18.4668309388       26.8781699215        7.2285566170
H         20.4368126181       33.3336096350       13.3573931340
H         19.6086072986       35.6828315744       13.0374566505
H         18.3172110066       34.6556523992       13.6791980453
H         19.1720853192       35.7765207231       14.7563338911
H         22.0445486864       35.2103610431       13.5922246117
H         21.6931781830       35.3247517074       15.3289654216
H         22.4805108417       33.8740850927       14.6713819647
H         19.3728396205       32.6877599529       19.1881554019
H         16.3476142917       34.4156927983       16.6284907040
H         16.3417044187       36.4690681431       18.0330286683
H         17.8349346588       36.6407403668       19.9985157895
H         19.9811822632       36.7295662699       21.1436956527
H         18.7069431543       36.0306239925       22.1826282479
H         20.4153196154       35.6307841132       22.4730150795
    79
VM2 Rank=17     G=208.427           E=114.218           -TS=94.208              
C         22.3653685580       25.1430229000        5.7167048232
C         21.7269656990       24.4694773515        6.7692278614
C         22.7984199635       26.4658829589        5.8952323218
C         21.5204547303       25.1193001153        7.9972400256
C         22.5905083612       27.1154087239        7.1235505010
C         21.9467151147       26.4491152421        8.1861668933
N         21.7274759994       27.1129824787        9.4286174312
C         21.8670361462       26.5672746196       10.6927830071
C         21.2808025956       28.5018472145        9.4875639377
O         22.1971015804       25.4285212236       10.9765718475
O         21.5611542224       27.5382131738       11.6001136782
C         21.3343422989       28.8326754573       10.9879724466
C         20.0732379771       29.5488637714       11.5056923523
O         19.6084662609       30.5356099026       10.9609388278
N         19.4661510925       28.9671708268       12.5970484825
C         18.0410892471       29.1488226693       12.9200682276
C         17.3382148110       27.7693721604       12.8653908968
C         17.8566642054       29.8804263940       14.2783972388
C         17.6366573759       27.0099988528       11.5769777164
O         16.4693345210       29.9432454519       14.6161674058
C         18.4409168377       31.3196604369       14.2311391171
C         17.2094785617       27.5206722304       10.3372709375
C         18.3713476332       25.8105014201       11.6129869375
N         18.6758044689       31.9431646449       15.5612990871
C         17.5144979396       26.8411074483        9.1464239301
C         18.6695473028       25.1257782963       10.4237671009
C         19.6395671602       31.2519141843       16.4600107687
S         17.3426124478       32.7105929637       16.3032594514
C         18.2428210834       25.6419009237        9.1895573968
C         21.0295957130       30.9786208092       15.8286600350
O         16.8523509689       33.6558526917       15.2932519065
C         18.1004083089       33.7292617292       17.5886851546
O         16.4866495410       31.6543705113       16.8590442800
C         21.7179252168       32.2907470431       15.3876391303
C         21.9284777769       30.2277843460       16.8330908346
C         18.9812477697       34.7675275404       17.2274735518
C         17.8446096735       33.4713971094       18.9494100155
C         19.6054608101       35.5458063138       18.2216310398
C         18.4609219118       34.2513657665       19.9409577599
O         20.4851705379       36.5650144794       17.9218309674
C         19.3388067847       35.2851172126       19.5751593206
C         20.9086207909       36.8716104103       16.5790253544
H         22.5261542068       24.6404820363        4.7660107884
H         21.3926334247       23.4437626253        6.6343059468
H         23.2966275084       26.9882321766        5.0821512407
H         21.0260475942       24.5825431830        8.8009679768
H         22.9408011167       28.1362817105        7.2436338856
H         21.9430793979       29.1687449840        8.9232768214
H         20.2552029294       28.5779440286        9.1018443626
H         22.1923433493       29.4850827318       11.1918781647
H         19.9300807376       28.1398285654       12.9521927076
H         17.5801951912       29.7805067044       12.1477819988
H         17.6431466108       27.1755591978       13.7361834796
H         16.2538063393       27.9088446036       12.9595639972
H         18.3944740045       29.2943286133       15.0342734083
H         16.4015800032       30.3501428053       15.5126891573
H         19.3878276486       31.3016255685       13.6807705068
H         17.7694608633       31.9481080208       13.6310505488
H         16.6480544280       28.4502012779       10.2965998492
H         18.7152843310       25.4087013819       12.5622489620
H         17.1852502117       27.2429742461        8.1915345254
H         19.2344827203       24.1978231192       10.4606712893
H         19.8116273526       31.8536824591       17.3610671798
H         19.2069973195       30.3030490089       16.8039034168
H         18.4755607985       25.1143759603        8.2679375685
H         20.9102413632       30.3295585742       14.9505394007
H         21.1246353918       32.8160154768       14.6288071022
H         21.8549108635       32.9698855725       16.2390136238
H         22.7050066997       32.0873528069       14.9534201101
H         21.4701757868       29.2772954812       17.1352357062
H         22.9057327305       29.9996472367       16.3885010949
H         22.0993603315       30.8259168649       17.7375933569
H         19.1764923880       34.9505719907       16.1752343842
H         17.1713859630       32.6669479265       19.2369648699
H         18.2623351116       34.0529173173       20.9915517690
H         19.8192088395       35.8856621370       20.3426583793
H         21.4017404960       36.0042783213       16.1209702451
H         20.0512697473       37.1629167863       15.9585218339
H         21.6217699791       37.7055375102       16.5913106140
    79
VM2 Rank=18     G=208.427           E=113.639           -TS=94.788              
C         19.5945768695       23.7248775152        6.7147038310
C         20.1299294563       23.0861700248        7.8441808825
C         19.5539477705       25.1267471419        6.6576956715
C         20.6217705482       23.8488559500        8.9165581711
C         20.0470105165       25.8889223932        7.7297006776
C         20.5797738524       25.2562792833        8.8704151496
N         21.0818752031       26.0287726260        9.9555498954
C         20.8878492421       25.7790583882       11.3010946582
C         21.9139955051       27.2055210627        9.7339089553
O         20.2279103855       24.8834244448       11.7996876394
O         21.5808891513       26.7200198797       12.0017130349
C         22.2611595285       27.6831248382       11.1565498786
C         21.8103814492       29.1306011355       11.4404891146
O         21.8869548301       30.0218454318       10.6109576226
N         21.2592873046       29.3444515622       12.6854560478
C         20.3768528417       30.4733084168       13.0113530706
C         18.8962028384       30.0045553833       13.0090153501
C         20.8218219470       31.1243582692       14.3512546804
C         18.4990798761       29.2706045596       11.7333162656
O         20.7097729031       30.1765731672       15.4173938035
C         20.0120688013       32.4085217121       14.6737431744
C         18.2270355172       27.8901384843       11.7628788689
C         18.4105756163       29.9649929188       10.5130341165
N         20.5550663107       33.2291342323       15.7933812574
C         17.8644709934       27.2126068773       10.5870115350
C         18.0520136586       29.2877424842        9.3355510139
C         21.9239537550       33.7776121182       15.6140073165
S         20.1658227974       32.7951128905       17.4020994165
C         17.7747539309       27.9119279938        9.3733093890
C         22.1445373361       34.5796808631       14.3044164458
O         21.0493886084       31.6771153187       17.7584827151
C         18.4364638749       32.2698321840       17.3221070323
O         20.1743302981       34.0653789306       18.1377767979
C         21.1819918365       35.7851737114       14.2067769519
C         23.6057883319       35.0691821812       14.2243861789
C         17.4179186344       33.2281691994       17.1541542396
C         18.0977147120       30.9044853611       17.3960574882
C         16.0747558754       32.8332081240       17.0598718634
C         16.7551915196       30.5047486072       17.3017565962
O         15.1267414474       33.8207441859       16.8910663128
C         15.7439428902       31.4652606365       17.1339770544
C         13.7174312351       33.5481595117       16.7671598355
H         19.2133596697       23.1347831897        5.8848496433
H         20.1647705636       22.0003915564        7.8887097920
H         19.1403248226       25.6230069475        5.7832222381
H         21.0380299283       23.3409300730        9.7826745769
H         20.0043214944       26.9727308389        7.6714625869
H         21.3531137818       27.9729794657        9.1851695918
H         22.8204611101       26.9367046988        9.1771746296
H         23.3436523305       27.6313292303       11.3251996294
H         21.2498102581       28.5504084379       13.3143317781
H         20.4864441194       31.2357964565       12.2276695182
H         18.7202609657       29.3585787109       13.8786516436
H         18.2340663180       30.8685229322       13.1378138265
H         21.8761436357       31.4041819644       14.2258651948
H         21.1186255455       30.5801659307       16.2183195817
H         19.9796050518       33.0220213153       13.7655465891
H         18.9709309686       32.1302624244       14.8701681531
H         18.3006667245       27.3393594672       12.6969414136
H         18.6263640460       31.0292970281       10.4765125526
H         17.6580769596       26.1454068785       10.6162596105
H         17.9873394428       29.8297148390        8.3954961822
H         22.1523982775       34.4486526316       16.4537776770
H         22.6561003102       32.9604538356       15.6633459968
H         17.4932791063       27.3876105412        8.4635536065
H         21.9748443740       33.9216813354       13.4414176250
H         21.3230605863       36.4711838638       15.0518566238
H         21.3525433468       36.3481655282       13.2803309989
H         20.1341467439       35.4602560587       14.2090954085
H         24.3051897743       34.2239442884       14.2596022504
H         23.7859264091       35.6116559899       13.2873333692
H         23.8448977439       35.7432854056       15.0571477568
H         17.6693611697       34.2835082142       17.0896490823
H         18.8740722652       30.1529561970       17.5193103416
H         16.4982507527       29.4495305558       17.3561447892
H         14.7121062742       31.1362825908       17.0617790079
H         13.3393695866       33.0450565585       17.6665659120
H         13.1629475576       34.4865272388       16.6400155808
H         13.5210318906       32.9121469966       15.8942833597
    79
VM2 Rank=19     G=208.448           E=113.995           -TS=94.453              
C         22.1518754336       24.2885122413        6.2649846909
C         22.7050263791       23.8225392296        7.4679950933
C         21.4496837958       25.5036586647        6.2425406983
C         22.5539066993       24.5700052573        8.6478539001
C         21.3000900726       26.2514071510        7.4222242727
C         21.8459715922       25.7879043861        8.6356812099
N         21.6962422255       26.5478883559        9.8298398787
C         21.4010224021       26.0550120637       11.0874167259
C         21.8783618169       27.9948136651        9.8396137428
O         21.1801282104       24.8965587293       11.3961890142
O         21.3936090794       27.1075169915       11.9537503852
C         21.7303230147       28.3706505504       11.3239866355
C         20.6695004212       29.4631179905       11.5591765490
O         20.7030638018       30.5426444393       10.9937428166
N         19.6371002741       29.1172724546       12.4037103818
C         18.3086818263       29.7503438133       12.3634088972
C         17.2422552112       28.6500699625       12.1330740945
C         18.0445712160       30.5989611451       13.6392308463
C         17.5568369992       27.7640958851       10.9324123570
O         16.7091746154       31.1077380612       13.6199592282
C         19.0434479278       31.7841443836       13.7568738799
C         17.9115865325       26.4147127791       11.1162866878
C         17.5146508001       28.2948884190        9.6300723770
N         19.1473903473       32.3849418291       15.1144952427
C         18.2138945114       25.6036254144       10.0099711603
C         17.8206693681       27.4855951618        8.5232769157
C         19.6026590232       31.4832641267       16.2078044633
S         17.9788596619       33.5610660750       15.5268325979
C         18.1674828604       26.1384644724        8.7131600975
C         20.9114379844       30.7048343543       15.9108350601
O         18.0479891145       34.5517346596       14.4460671706
C         18.6774218896       34.3686640533       16.9855302200
O         16.7403086313       32.8360045824       15.8393946133
C         22.0932191550       31.6641469636       15.6420595924
C         21.2521640520       29.7734897041       17.0928925953
C         18.1201623357       34.1374331065       18.2590533484
C         19.7984780910       35.2114814990       16.8568870652
C         18.6795328806       34.7487187533       19.3986016149
C         20.3559093063       35.8214392606       17.9916946930
O         18.1758394126       34.5545099151       20.6680349450
C         19.7954130821       35.5890426474       19.2582719302
C         17.0470579454       33.7040868020       20.9491123113
H         22.2680803493       23.7097438432        5.3519105894
H         23.2515066909       22.8827995070        7.4864888945
H         21.0205924952       25.8659612194        5.3115963287
H         22.9915712212       24.1994583218        9.5711770164
H         20.7480836694       27.1863966394        7.3895134103
H         22.8723992716       28.2641439085        9.4608974461
H         21.1024838478       28.4816721101        9.2344126527
H         22.6848071635       28.7406807973       11.7180152405
H         19.7067912731       28.1900999247       12.8052079740
H         18.2675212737       30.4328378879       11.5027852397
H         17.1502958494       28.0412505998       13.0412705765
H         16.2612017833       29.1188946801       11.9847385849
H         18.1717501949       29.9306326389       14.5002443285
H         16.5570761338       31.5685036127       14.4793806603
H         20.0378835654       31.4433695217       13.4504771720
H         18.7620609129       32.5509760088       13.0229129050
H         17.9575148476       25.9930111364       12.1167488936
H         17.2474845018       29.3370284829        9.4767267664
H         18.4914313874       24.5629328263       10.1589678912
H         17.7872021728       27.9018624596        7.5196656032
H         19.7778413606       32.0631637402       17.1224603456
H         18.8059449078       30.7658645036       16.4458164042
H         18.4044834113       25.5107172524        7.8577127896
H         20.7656729291       30.0681006448       15.0278437182
H         21.8983392755       32.3028827133       14.7715934270
H         22.2750791181       32.3173742912       16.5051546663
H         23.0144834708       31.1027832641       15.4411332097
H         20.4373178103       29.0621529786       17.2794090884
H         22.1596984659       29.1925877941       16.8838774273
H         21.4214458078       30.3462125457       18.0139934302
H         17.2596264099       33.4819280564       18.3501353141
H         20.2376810070       35.3881781178       15.8775527102
H         21.2218161180       36.4714465953       17.8907294775
H         20.2273882684       36.0598244896       20.1370575747
H         16.1523481482       34.0599988045       20.4220200009
H         17.2540896118       32.6706900447       20.6421248507
H         16.8343128224       33.7060466963       22.0256550453
    79
VM2 Rank=20     G=208.457           E=114.197           -TS=94.260              
C         22.0363603803       24.1989179125        6.2368621672
C         22.2108682791       23.4562389324        7.4151526789
C         21.6836289370       25.5554881881        6.3109733302
C         22.0304389635       24.0691929806        8.6662904395
C         21.5048188350       26.1683155182        7.5622194765
C         21.6712373631       25.4287669583        8.7498838454
N         21.4916660605       26.0513469688       10.0170961956
C         20.8389515380       25.5155363851       11.1117666067
C         22.0345772955       27.3752551354       10.2991389287
O         20.2740207479       24.4376479219       11.1834491834
O         20.9288001838       26.4174863395       12.1300637878
C         21.6966638194       27.5989228407       11.7830571474
C         20.9283220303       28.9125591145       12.0240713997
O         21.3852213155       30.0029069720       11.7261585016
N         19.6542610407       28.7733557075       12.5298817981
C         18.5879281198       29.7642902214       12.3159321501
C         17.3335486793       29.0412676945       11.7667927052
C         18.2941315766       30.5849570484       13.6022291324
C         17.6366114496       28.1942106528       10.5358844882
O         17.2653506899       31.5441198148       13.3477541576
C         19.5612426999       31.3225655903       14.1125012954
C         17.9780390033       28.8116994596        9.3186690355
C         17.5985871766       26.7894182475       10.6102707657
N         19.3431972872       32.2665356028       15.2468911917
C         18.2759397993       28.0341409689        8.1872063262
C         17.8929164196       26.0111444717        9.4785143171
C         20.5289931776       33.1130267854       15.5597084985
S         18.4794224135       31.6276053597       16.5855419014
C         18.2310143597       26.6331437077        8.2665847349
C         21.0794507655       33.9567758456       14.3783844739
O         17.0693003430       31.7201565055       16.1852385023
C         18.7185138911       32.8042201256       17.9402028664
O         19.1245086168       30.3534248448       16.9238059915
C         19.9807528666       34.8454784374       13.7511286677
C         22.2503836103       34.8382790569       14.8625641826
C         17.9640451744       33.9932457681       17.9827682355
C         19.6722629415       32.5521216603       18.9459583059
C         18.1557965939       34.9234648734       19.0156319235
C         19.8664443502       33.4797937717       19.9819111107
O         17.3881453180       36.0692154601       18.9967918766
C         19.1112080580       34.6637839746       20.0186114286
C         17.4954278293       37.1069761751       19.9904562484
H         22.1751001759       23.7244351467        5.2684662032
H         22.4865045214       22.4059971852        7.3594447985
H         21.5477308988       26.1320382105        5.3993015634
H         22.1731069039       23.4833068471        9.5705987929
H         21.2246050892       27.2170335516        7.6026367107
H         23.1191846147       27.3938615241       10.1337032148
H         21.5468305289       28.1309064022        9.6695865680
H         22.6167280087       27.6347261909       12.3792128522
H         19.3785621081       27.8211092802       12.7371770942
H         18.9206725195       30.4743642804       11.5454756165
H         16.8978085464       28.4198030417       12.5592149289
H         16.5675939550       29.7848032459       11.5120419104
H         17.9582913581       29.8800129079       14.3750047652
H         17.0045159044       31.8965848008       14.2312599353
H         20.3051631167       30.5716811520       14.4094921401
H         19.9718980506       31.8533617562       13.2471965176
H         18.0153828435       29.8957156767        9.2513139575
H         17.3449942093       26.2980731359       11.5457658247
H         18.5403271993       28.5170319331        7.2498948434
H         17.8667525328       24.9260857925        9.5435566107
H         20.2805056677       33.8337343652       16.3470002033
H         21.3364490709       32.4782719859       15.9501273529
H         18.4629766539       26.0298960587        7.3922990681
H         21.4800664838       33.2881711657       13.6044695788
H         19.5520111616       35.5279690337       14.4960280850
H         20.3875610676       35.4498171817       12.9304844106
H         19.1639719291       34.2380602789       13.3403965597
H         23.0541674887       34.2235196607       15.2877832683
H         22.6760949634       35.4141061517       14.0307202196
H         21.9218249532       35.5485944421       15.6324074598
H         17.2296936492       34.2004413403       17.2088681442
H         20.2643695755       31.6400632659       18.9227972600
H         20.6038942616       33.2823632876       20.7563829412
H         19.2767854587       35.3690449104       20.8269459455
H         17.2620688514       36.7137761219       20.9884116908
H         18.5086594152       37.5291391026       20.0020738431
H         16.7888727994       37.9161608313       19.7664986205
    79
VM2 Rank=21     G=208.480           E=114.041           -TS=94.439              
C         22.2194841394       24.2937875463        6.2515031956
C         21.5094375860       25.5043180314        6.2269047076
C         22.7647594014       23.8272205098        7.4578741523
C         21.3440605671       26.2468124741        7.4077989779
C         22.5978585766       24.5694233380        8.6389285610
C         21.8819496798       25.7826275997        8.6245624253
N         21.7161002894       26.5372460533        9.8199966786
C         21.4126886379       26.0378472202       11.0730454973
C         21.8882326392       27.9853294251        9.8365791930
O         21.1969422770       24.8768056625       11.3756772709
O         21.3900327119       27.0871612954       11.9429813040
C         21.7239742852       28.3548002885       11.3208432267
C         20.6536746650       29.4392675902       11.5500432191
O         20.6852026757       30.5210101173       10.9887387488
N         19.6157625487       29.0834682986       12.3836120966
C         18.2833805142       29.7073666824       12.3324906164
C         17.2268999717       28.6003755058       12.0889017055
C         18.0011346097       30.5505578307       13.6080287308
C         17.5587142244       27.7204994243       10.8883935850
O         16.6626499039       31.0505711186       13.5769169482
C         18.9909629070       31.7419081370       13.7387854878
C         17.9209490005       26.3729646709       11.0712186630
C         17.5249295552       28.2552384103        9.5874220870
N         19.0750746985       32.3416392961       15.0982406686
C         18.2389850723       25.5675685446        9.9651524043
C         17.8466789720       27.4516674146        8.4809199176
C         19.5229616563       31.4415872206       16.1958527017
S         17.8953413290       33.5107705161       15.4985164967
C         18.2009093655       26.1063120545        8.6696873983
C         20.8415153816       30.6739900194       15.9142309027
O         17.9704344067       34.5013041024       14.4179222944
C         18.5750570243       34.3239195310       16.9627137498
O         16.6572705487       32.7790447963       15.7972382519
C         22.0189074958       31.6430727051       15.6616595137
C         21.1748624125       29.7434975306       17.0990568503
C         18.0003467765       34.1026570232       18.2294899199
C         19.7001999396       35.1628620389       16.8477140324
C         18.5387251819       34.7135756627       19.3724199601
C         20.2419637463       35.7762825199       17.9885320562
O         17.9312512698       34.4546956686       20.5833696183
C         19.6637829936       35.5536845044       19.2494554661
C         18.3889503623       35.0122616205       21.8305807186
H         22.3479820100       23.7191313704        5.3374791781
H         21.0864663811       25.8670967214        5.2933482411
H         23.3173421802       22.8910916165        7.4780584167
H         20.7861066692       27.1782004628        7.3733261814
H         23.0295288064       24.1984838898        9.5649115548
H         22.8838475633       28.2627817929        9.4680075213
H         21.1146462242       28.4690802725        9.2259766656
H         22.6722602114       28.7298260485       11.7249818364
H         19.6880254575       28.1554209218       12.7826277476
H         18.2456311267       30.3920143345       11.4734222845
H         17.1308875356       27.9880339108       12.9943071115
H         16.2439691757       29.0627665338       11.9329968085
H         18.1242844639       29.8806960595       14.4684421784
H         16.4994774863       31.5092810571       14.4354093585
H         19.9910833147       31.4077499987       13.4438020604
H         18.7133821820       32.5078072799       13.0024173819
H         17.9604977209       25.9483137152       12.0707055261
H         17.2520513366       29.2960248247        9.4349419649
H         18.5222333182       24.5283056580       10.1133755903
H         17.8196416949       27.8709742785        7.4783811606
H         19.6814677460       32.0212194338       17.1137642479
H         18.7287917164       30.7176765706       16.4223668216
H         18.4500806106       25.4829886350        7.8144631686
H         20.7118209852       30.0375551468       15.0285022701
H         21.8299064798       32.2814238992       14.7896135522
H         22.1845882685       32.2965322349       16.5278317826
H         22.9470992838       31.0893668314       15.4716648332
H         21.3279589639       30.3161049801       18.0230582065
H         20.3634208167       29.0254295983       17.2742848915
H         22.0895557749       29.1701762476       16.9005924753
H         17.1354628442       33.4525228934       18.3308398228
H         20.1548781059       35.3337868919       15.8744400288
H         21.1113297401       36.4229889281       17.8962950639
H         20.0973990735       36.0358641954       20.1198976577
H         19.4205595166       34.7003777363       22.0391751602
H         18.3471325876       36.1088527174       21.8035252278
H         17.7520806984       34.6646782214       22.6538371817
    79
VM2 Rank=22     G=208.504           E=114.940           -TS=93.565              
C         21.1126600517       23.1549082355        6.3117738897
C         21.7679492903       24.3745081376        6.5426094309
C         20.3010825710       22.5969145152        7.3118894224
C         21.6105472246       25.0359835878        7.7717928037
C         20.1430072137       23.2594516090        8.5405684658
C         20.7922075684       24.4868687563        8.7788548527
N         20.6351654152       25.1559136395       10.0255494662
C         19.4581016580       25.3087743863       10.7339347386
C         21.7703222843       25.7528145211       10.7193909382
O         18.3440469358       24.9370539849       10.4068118377
O         19.7540536707       25.9572248852       11.8952327636
C         21.1581696892       26.2989782102       12.0228901963
C         21.3774516847       27.8139949338       12.2111046708
O         22.4202802464       28.3727814628       11.9135683795
N         20.2908598261       28.5133935687       12.6902104665
C         20.1086688899       29.9628500479       12.5280399835
C         19.1067202938       30.2396314723       11.3743618160
C         19.6988442468       30.5969146780       13.8875058880
C         19.4581005141       29.5084043005       10.0833306542
O         18.4318376361       30.0924352548       14.3241290673
C         19.6627361562       32.1478150910       13.8480787347
C         18.6476017850       28.4556065980        9.6192305236
C         20.6020707494       29.8726790035        9.3499116180
N         19.2163657584       32.7840224682       15.1138516284
C         18.9731947041       27.7791111839        8.4319813071
C         20.9311895739       29.1940423987        8.1646471373
C         18.7983771573       34.1967429805       14.9534872876
S         19.9208136664       32.2540187438       16.5854712183
C         20.1140901683       28.1497453019        7.7032198949
C         17.3250966581       34.4200725951       15.3746929190
O         19.1388699700       31.0688192605       16.9601818716
C         19.6142138874       33.5564104032       17.8082594023
O         21.3647901216       32.2068910153       16.3272565990
C         17.0030534504       35.9277049812       15.4234682569
C         16.3520702992       33.6959299506       14.4177558798
C         18.4768996838       33.4961470197       18.6390119872
C         20.5196959786       34.6274443706       17.9485688650
C         18.2303590279       34.5132607020       19.5818989122
C         20.2776879292       35.6388275132       18.8914317446
O         17.1230855131       34.5100109855       20.4043734500
C         19.1331366546       35.5811219241       19.7027045243
C         16.0875241964       33.5107753218       20.3309665067
H         21.2348061974       22.6425115394        5.3606015173
H         22.3976600194       24.8075975056        5.7693277830
H         19.7951780226       21.6507791272        7.1358179386
H         22.1213411921       25.9810067104        7.9326774768
H         19.5155715111       22.8130936837        9.3077036817
H         22.2036603789       26.5619651950       10.1175139354
H         22.5348386728       24.9947704369       10.9310310175
H         21.5901548870       25.7884397144       12.8921846457
H         19.4716919457       27.9639071552       12.9206977284
H         21.0740600590       30.4041214073       12.2436933365
H         18.0968712226       29.9571968697       11.6981283624
H         19.0669578229       31.3149868743       11.1676126135
H         20.4695908773       30.2951872513       14.6099870982
H         18.3431856413       30.3632577911       15.2676209082
H         20.6641356073       32.5153037978       13.5872288377
H         18.9820797344       32.4521935388       13.0441993426
H         17.7662109084       28.1571760351       10.1807647732
H         21.2400562876       30.6783327884        9.7028816366
H         18.3440655780       26.9649325921        8.0802927007
H         21.8175774214       29.4791980054        7.6037179738
H         19.4580219072       34.8616668695       15.5239270235
H         18.8963797106       34.5084847078       13.9046472817
H         20.3654012042       27.6266105850        6.7839931579
H         17.1695590224       34.0130882192       16.3805787075
H         15.9662960974       36.0959757056       15.7420237986
H         17.6582145050       36.4445759530       16.1368332194
H         17.1355763533       36.3938907504       14.4385812593
H         16.4610526775       34.0631571909       13.3893723951
H         16.5362075144       32.6136041725       14.4120547769
H         15.3106952767       33.8533933653       14.7259031260
H         17.7890579455       32.6627446826       18.5352669801
H         21.4073110532       34.6780345384       17.3219500379
H         20.9751264747       36.4669424953       18.9930434366
H         18.9438548802       36.3652837116       20.4305334721
H         15.3060693220       33.7248833414       21.0710123874
H         15.6252827558       33.5044104049       19.3352642444
H         16.4947663580       32.5133535027       20.5413451871
    79
VM2 Rank=23     G=208.504           E=114.718           -TS=93.787              
C         22.3110800959       23.9328810586        6.5471708453
C         21.9584563218       25.2912387515        6.5204958207
C         22.4070272207       23.2591752781        7.7748936493
C         21.7011675976       25.9747359007        7.7204055278
C         22.1481446065       23.9427947310        8.9745844351
C         21.7884290946       25.3046901885        8.9567768945
N         21.5294011213       25.9988463884       10.1720027315
C         20.8064256023       25.5260834936       11.2514657575
C         22.0563084777       27.3374486632       10.4118225456
O         20.2350053373       24.4535880845       11.3483252826
O         20.8334379310       26.4849544850       12.2201353545
C         21.6253135667       27.6452282732       11.8560702228
C         20.8470668401       28.9699836604       11.9730528892
O         21.3199567911       30.0402631377       11.6306394570
N         19.5486192957       28.8605085056       12.4204805053
C         18.4961526084       29.8347317032       12.0919060876
C         17.2792310604       29.0796702812       11.5028600276
C         18.1234739191       30.7156283867       13.3160683794
C         17.6589300691       28.1723368808       10.3378756054
O         17.0999041582       31.6484806524       12.9598534951
C         19.3527756364       31.4917341313       13.8597931899
C         18.0800237173       28.7283321986        9.1159675594
C         17.6119221116       26.7729981825       10.4795249140
N         19.0441450426       32.4829286882       14.9225935622
C         18.4479067540       27.8953114353        8.0462490727
C         17.9761224226       25.9392377793        9.4092824001
C         20.1455110486       33.4493779288       15.1479218110
S         18.0976749503       31.9461650070       16.2497647162
C         18.3935242353       26.5000188981        8.1922133709
C         19.6739307195       34.9204211393       15.0388462588
O         16.7098922722       32.0688414809       15.7853070093
C         18.3562626841       33.1280568489       17.5992630562
O         18.6884873935       30.6643176251       16.6517364449
C         20.7916293148       35.8773616899       15.5018385059
C         19.2406539790       35.2623746255       13.5959772587
C         19.4528004749       32.9799578266       18.4720685294
C         17.4514458101       34.1892923869       17.8024065805
C         19.6652200625       33.8939942270       19.5150716526
C         17.6587004285       35.1050157862       18.8463120168
O         20.7666427432       33.6997479491       20.3220615033
C         18.7648839742       34.9620100593       19.6999528078
C         21.1093125093       34.5762356023       21.4129622657
H         22.5106534808       23.4037307578        5.6185452506
H         21.8834397706       25.8144431761        5.5704133738
H         22.6825348110       22.2076630418        7.7973798746
H         21.4221951800       27.0238792754        7.6824628446
H         22.2304716151       23.4098571218        9.9182953542
H         21.6111585207       28.0550800710        9.7103322886
H         23.1492675699       27.3480971154       10.3148073801
H         22.5056618935       27.7153231254       12.5066590288
H         19.2613425673       27.9226291243       12.6727107590
H         18.8743930998       30.5079989473       11.3095471207
H         16.7953794285       28.4975469708       12.2972330174
H         16.5300786127       29.8062530113       11.1633566963
H         17.7516778164       30.0470392215       14.1045760101
H         16.8014180743       32.0593674349       13.8051463241
H         20.0850718401       30.7683270437       14.2418805011
H         19.8200675642       32.0025333567       13.0072409554
H         18.1249145512       29.8076357037        8.9972020042
H         17.2970952840       26.3289190511       11.4200345398
H         18.7736205180       28.3308730988        7.1050603929
H         17.9423980500       24.8587738486        9.5264592878
H         20.6176152662       33.2732983172       16.1220102736
H         20.9390437511       33.3041503233       14.4020150600
H         18.6792797327       25.8539073462        7.3657953685
H         18.8094093765       35.0774051819       15.6935960889
H         20.4595580491       36.9220342410       15.4467886992
H         21.0752319790       35.6727678314       16.5425345511
H         21.6879538636       35.7726246837       14.8769039297
H         20.0709068793       35.1284043508       12.8908861744
H         18.4131718719       34.6188213023       13.2697009370
H         18.8997780555       36.3030973350       13.5258397930
H         20.1495904811       32.1570036869       18.3369789879
H         16.5931818840       34.3097585859       17.1452512315
H         16.9621381536       35.9269515701       18.9937887249
H         18.9092429682       35.6811587229       20.5000420346
H         21.2862267869       35.5967103474       21.0491830553
H         20.3048886140       34.5988214454       22.1595236625
H         22.0245029691       34.2235805419       21.9051093391
    79
VM2 Rank=24     G=208.512           E=113.523           -TS=94.989              
C         21.1165019181       26.3383360068        5.6655850802
C         21.7919883521       25.4544331717        6.5216255099
C         20.5425240047       27.5105057511        6.1820508387
C         21.8912177352       25.7414538524        7.8932628976
C         20.6432908840       27.7978046143        7.5533449666
C         21.3134783600       26.9128447969        8.4210720540
N         21.4169913539       27.2063344116        9.8099585752
C         21.2601458114       26.3132491361       10.8536979444
C         21.7429296965       28.5468732892       10.2828446453
O         20.9729686355       25.1307551604       10.7804386583
O         21.4818355939       26.9908878968       12.0156559572
C         21.8519650831       28.3784658432       11.8079398391
C         20.9555723420       29.3654990720       12.5799540254
O         21.0486791292       30.5741929061       12.4510478301
N         19.9873241120       28.7936465454       13.3762891770
C         18.7338394482       29.4750601862       13.7368382403
C         17.5426266302       28.5641845542       13.3484049188
C         18.7150395993       29.8962026408       15.2331983218
C         17.5993674574       28.1109206384       11.8937943724
O         17.4592933434       30.5024482891       15.5435856765
C         19.8703028957       30.8826883866       15.5609502476
C         17.8547659584       26.7639862777       11.5762097429
C         17.4160023185       29.0419828387       10.8549977670
N         20.0457170846       31.1952460562       17.0080380022
C         17.9197059281       26.3516716237       10.2349445668
C         17.4845495652       28.6313028670        9.5133009128
C         20.3455999666       30.0463611309       17.9006638612
S         19.0946148495       32.4266740907       17.7185345719
C         17.7338823353       27.2849085445        9.2031891289
C         21.5398633559       29.1612478041       17.4546025564
O         17.7829845390       31.8239647293       17.9903892975
C         18.9770883882       33.7009685260       16.4390489317
O         19.9386893201       32.9820801519       18.7834086049
C         22.8487352671       29.9776690458       17.3573779455
C         21.7262980719       27.9889109824       18.4404654433
C         17.8169069912       33.8043762951       15.6460568906
C         20.0579975622       34.5741069746       16.2069797302
C         17.7413003822       34.7648557418       14.6190618677
C         19.9783132837       35.5417587049       15.1927384252
O         16.6380902485       34.8859660521       13.8000945034
C         18.8219144387       35.6338610653       14.4009746817
C         15.5520977599       33.9383133484       13.8013827919
H         21.0389004690       26.1159143165        4.6041330011
H         22.2393307275       24.5473462121        6.1226719830
H         20.0188021120       28.1960616565        5.5204182821
H         22.4211037296       25.0504230813        8.5437064346
H         20.1875485832       28.7054373127        7.9386666048
H         20.9397179152       29.2492220699       10.0242918524
H         22.6928484523       28.8902876146        9.8541185502
H         22.8867912733       28.5410583734       12.1333830786
H         19.9976813713       27.7812401006       13.4005978523
H         18.6503041529       30.3945409740       13.1401501048
H         17.5183116628       27.6954258997       14.0181690871
H         16.6012199801       29.1017743335       13.5186777999
H         18.8431601914       28.9854053638       15.8326467149
H         17.4494449481       30.6899035636       16.5115330794
H         20.8055080299       30.4511807303       15.1882785876
H         19.7290828224       31.7944536329       14.9690436806
H         18.0071199132       26.0350872854       12.3676337166
H         17.2231998915       30.0856099872       11.0887644478
H         18.1219415188       25.3104268393        9.9958573043
H         17.3431255106       29.3555689561        8.7151441834
H         20.5723736673       30.4253633318       18.9069279095
H         19.4506193410       29.4176459059       18.0004485882
H         17.7880612190       26.9655406033        8.1653456573
H         21.3227418461       28.7256184008       16.4697440006
H         23.6860202257       29.3392967043       17.0480278779
H         22.7599688801       30.7871663078       16.6222085733
H         23.1044883366       30.4284988312       18.3248160538
H         20.8169990812       27.3768810410       18.4985637363
H         22.5478016243       27.3352604999       18.1201020078
H         21.9567766117       28.3522980591       19.4503509911
H         16.9874388937       33.1290920675       15.8283265247
H         20.9600657120       34.4977990351       16.8099322100
H         20.8139120158       36.2146495764       15.0153337073
H         18.7631588126       36.3767945166       13.6103894787
H         14.8145523564       34.2104948794       13.0358793395
H         15.9205684109       32.9273531641       13.5817037957
H         15.0466209086       33.9277215833       14.7756189280
    79
VM2 Rank=25     G=208.528           E=113.655           -TS=94.873              
C         20.7448044687       26.2552097498        5.5067643251
C         21.8436297455       25.7728944027        6.2349837394
C         19.8644357255       27.1755689359        6.0967222743
C         22.0603217028       26.2088343505        7.5527890844
C         20.0823449400       27.6122876761        7.4138954601
C         21.1787438372       27.1281286363        8.1546970415
N         21.3999648582       27.5734472291        9.4883841485
C         21.7814195628       26.7929873713       10.5640318716
C         21.2625840833       28.9783439332        9.8548742701
O         21.9614594593       25.5873650667       10.5779978008
O         21.9247727175       27.6149332328       11.6421299935
C         21.6923699953       29.0131178185       11.3314474416
C         20.6364454885       29.6672292450       12.2430181284
O         20.2261944746       30.8009606867       12.0625877071
N         20.1298393360       28.8623673127       13.2401358348
C         18.8014001229       29.0600804685       13.8421932484
C         17.9968790793       27.7424014744       13.7135546642
C         18.9057483955       29.5689093230       15.3075676479
C         17.9627648805       27.2098256655       12.2851656049
O         17.5997259452       29.6739497449       15.8772749841
C         19.6151241367       30.9490775232       15.3833919500
C         18.6457146789       26.0260593170       11.9494616994
C         17.2635808157       27.9101796547       11.2850512713
N         20.0185433613       31.3740816441       16.7536860213
C         18.6241444722       25.5446431131       10.6300019652
C         17.2446325266       27.4316051239        9.9643828691
C         20.9858722259       30.4962190366       17.4617225246
S         18.8592054052       32.1246965974       17.7612803986
C         17.9229739479       26.2467054360        9.6373185692
C         22.2683550264       30.1473513522       16.6601023124
O         17.9950974434       31.0558392538       18.2794524365
C         17.9565616532       33.2336251180       16.6540003176
O         19.6474656908       32.9911374624       18.6460581704
C         23.0571100012       31.4168988938       16.2657997462
C         23.1697992687       29.2073488053       17.4876083105
C         18.5809413725       34.3999141110       16.1688625422
C         16.6408326212       32.9290640108       16.2530996810
C         17.8942034464       35.2586608970       15.2882543009
C         15.9553441906       33.7848968772       15.3765341244
O         18.4607837711       36.4096515669       14.7812063622
C         16.5826237267       34.9463879243       14.8971551637
C         19.8082413990       36.8241139577       15.0793539926
H         20.5765124663       25.9172923988        4.4871236321
H         22.5279508358       25.0619610649        5.7785101393
H         19.0128057095       27.5500248088        5.5341017777
H         22.9178554148       25.8306299107        8.1032197155
H         19.3879705420       28.3194839041        7.8585119049
H         21.9166997019       29.6071498294        9.2377669709
H         20.2192525610       29.3017349537        9.7445092506
H         22.6255999153       29.5791669179       11.4404985935
H         20.5372036413       27.9364527445       13.2894180528
H         18.2651831830       29.8287950171       13.2678181233
H         18.4235239096       26.9912370483       14.3900523727
H         16.9683201863       27.9081304795       14.0583626806
H         19.4948430672       28.8305663900       15.8668511971
H         17.7100024099       29.8852859817       16.8342778190
H         20.5124378811       30.9139452612       14.7568331182
H         18.9704906196       31.6975064844       14.9074752896
H         19.1974930229       25.4790536586       12.7091870554
H         16.7370889231       28.8282247751       11.5319878797
H         19.1575154015       24.6318283871       10.3759529256
H         16.7034965048       27.9777742909        9.1959477233
H         21.3012042264       30.9888180941       18.3920118550
H         20.4848809668       29.5652088372       17.7589492093
H         17.9097593303       25.8752057377        8.6156241260
H         21.9902065806       29.6067982436       15.7450692838
H         22.4554051577       32.0795344235       15.6314535099
H         23.3586233270       31.9851370898       17.1550547325
H         23.9640570685       31.1557868422       15.7058742827
H         22.6376225992       28.2838195957       17.7496281159
H         24.0662616255       28.9256077426       16.9203947170
H         23.4956064561       29.6881496657       18.4191194876
H         19.5972581677       34.6223111252       16.4793295421
H         16.1520749315       32.0277248770       16.6158122881
H         14.9404180461       33.5473111740       15.0668199247
H         16.0526955261       35.6077977596       14.2173306651
H         19.9337364820       36.9896295498       16.1572513842
H         20.5292348055       36.0650613308       14.7490576096
H         20.0360599790       37.7632030193       14.5593613960
    79
VM2 Rank=26     G=208.539           E=114.815           -TS=93.724              
C         22.0700542654       23.9390766957        6.3275103009
C         22.1428114200       23.2079787343        7.5235851278
C         21.7964494374       25.3152880268        6.3645744133
C         21.9397842521       23.8522679262        8.7553674168
C         21.5950134806       25.9593540398        7.5965438524
C         21.6594467911       25.2320290764        8.8015493635
N         21.4572481795       25.8861955827       10.0493033317
C         20.7221908739       25.4091808517       11.1186891441
C         22.0643534237       27.1804374297       10.3379902328
O         20.0907545169       24.3680936396       11.1784886561
O         20.8176505543       26.3217195170       12.1269829725
C         21.6709829830       27.4491840764       11.8006474301
C         20.9729423127       28.8102724235       11.9863820568
O         21.5027048640       29.8653259134       11.6820947067
N         19.6765410793       28.7565812347       12.4496429750
C         18.6782814757       29.8030719881       12.1792773088
C         17.4117099762       29.1455632321       11.5780613835
C         18.3738135163       30.6505056084       13.4452058362
C         17.7223415869       28.2690289777       10.3698329168
O         17.4024667484       31.6559772630       13.1442125598
C         19.6535061603       31.3295205324       14.0023766433
C         18.1594769585       28.8520294263        9.1662806446
C         17.5950568934       26.8699685732       10.4525903765
N         19.4153244460       32.2892259379       15.1107496736
C         18.4639105553       28.0461688174        8.0565670079
C         17.8957452231       26.0636084739        9.3423700223
C         20.5616407074       33.1969641436       15.3531445094
S         18.4504418364       31.7592751981       16.4267488971
C         18.3295779461       26.6513833231        8.1439273277
C         20.1569834799       34.6894248548       15.2700887242
O         17.0698033500       32.0037580828       15.9901553676
C         18.8161095243       32.8549414581       17.8234418245
O         18.9518156190       30.4208853180       16.7602612470
C         21.3123318066       35.5869120086       15.7588640448
C         19.7490709618       35.0786399277       13.8317803845
C         18.0106556116       33.9845054521       18.0711115459
C         19.8944296676       32.5740250581       18.6861932172
C         18.2924684149       34.8417749101       19.1455197495
C         20.1787093442       33.4275908011       19.7639832099
O         17.4743432937       35.9380712312       19.3214709287
C         19.3829382564       34.5620832652       19.9929946374
C         17.6711182063       36.9091109691       20.3674380307
H         22.2263234223       23.4404032681        5.3740536861
H         22.3571206229       22.1424107076        7.4966829874
H         21.7394378946       25.8829341851        5.4390711833
H         22.0034499092       23.2747831118        9.6739798057
H         21.3769272219       27.0234381922        7.6079642453
H         23.1547107207       27.1322848292       10.2244728079
H         21.6526294326       27.9524857902        9.6749168061
H         22.5623666218       27.4398936045       12.4398182081
H         19.3385268510       27.8267964375       12.6664625394
H         19.0846559783       30.4865488509       11.4202262893
H         16.9053842067       28.5585332561       12.3546152283
H         16.7017175796       29.9281146688       11.2815180917
H         17.9733439498       29.9714651814       14.2103839113
H         17.1426253213       32.0509810658       14.0095960416
H         20.3470391211       30.5492896433       14.3426099932
H         20.1392614845       31.8492121577       13.1656711524
H         18.2661253352       29.9310304561        9.0928011843
H         17.2669063165       26.4046070784       11.3781369380
H         18.8024175209       28.5024360211        7.1298144094
H         17.8001398142       24.9828710361        9.4140302234
H         21.0230845538       32.9832001137       16.3247753189
H         21.3486307635       33.0265891376       14.6056386062
H         18.5661761973       26.0261688761        7.2864826635
H         19.2952388875       34.8708532377       15.9225629226
H         21.5790137162       35.3499431797       16.7971112781
H         22.2076419933       35.4548007513       15.1376794717
H         21.0268779355       36.6460822530       15.7223020436
H         19.4555748307       36.1347838513       13.7804173425
H         20.5771445695       34.9213908244       13.1289473114
H         18.8956695925       34.4795377713       13.4880737151
H         17.1683644582       34.2073556337       17.4216114443
H         20.5154478563       31.6973339772       18.5163799834
H         21.0162823865       33.2102572773       20.4226090873
H         19.6193842696       35.2110033080       20.8303425398
H         17.5987252172       36.4353330051       21.3549819208
H         18.6550934526       37.3864319796       20.2727413784
H         16.9029710226       37.6902087242       20.3043760716
    79
VM2 Rank=27     G=208.559           E=114.774           -TS=93.785              
C         22.2689786915       23.9775206439        6.5568666425
C         21.9125230543       25.3349154177        6.5322100739
C         22.3746777825       23.3043327424        7.7840723861
C         21.6611577171       26.0179670220        7.7336274469
C         22.1217000156       23.9874979966        8.9852810123
C         21.7582037653       25.3484145997        8.9695385364
N         21.5051763483       26.0421329930       10.1862792004
C         20.7905716872       25.5676388312       11.2705529578
C         22.0298799583       27.3822667803       10.4223322493
O         20.2227154164       24.4936181601       11.3713725488
O         20.8211833304       26.5268680114       12.2387697617
C         21.6080706172       27.6888859109       11.8695239225
C         20.8279416250       29.0120130087       11.9920549539
O         21.2968030844       30.0834571235       11.6477643176
N         19.5322677177       28.8996915621       12.4467775281
C         18.4759321417       29.8716706659       12.1239909043
C         17.2567658034       29.1138494282       11.5431850173
C         18.1090333542       30.7529075303       13.3496677066
C         17.6308364043       28.2059843443       10.3767998740
O         17.0821746434       31.6840635609       12.9985125362
C         19.3403294568       31.5310768929       13.8859374339
C         17.5873296851       26.8067142018       10.5202350465
C         18.0433010803       28.7614489321        9.1517126534
N         19.0366081473       32.5229513460       14.9495909097
C         17.9463568701       25.9724800345        9.4486169955
C         18.4060157769       27.9279591494        8.0805950148
C         20.1397769026       33.4887984340       15.1689325977
S         18.0979502524       31.9854274232       16.2820315697
C         18.3551563383       26.5327247732        8.2283858376
C         19.6679932732       34.9604672464       15.0700287025
O         16.7072910332       32.1049133581       15.8256526252
C         18.3625127990       33.1675468271       17.6304195485
O         18.6941947347       30.7054927948       16.6819312355
C         19.2226270741       35.3083292909       13.6322936621
C         20.7903203596       35.9147750019       15.5272175082
C         19.4683435620       33.0224121983       18.4929529105
C         17.4526484503       34.2232895395       17.8411763275
C         19.6809308616       33.9428171948       19.5379336513
C         17.6619591492       35.1391770764       18.8841824513
O         20.7555280192       33.8539910370       20.3981235562
C         18.7762411013       34.9990632050       19.7268819205
C         21.7729919146       32.8394477097       20.2899882653
H         22.4639780500       23.4487183689        5.6270721095
H         21.8299526320       25.8577160262        5.5825315587
H         22.6531693607       22.2535742091        7.8049771525
H         21.3791360672       27.0663507579        7.6972850344
H         22.2115603201       23.4549787810        9.9285402391
H         21.5777080810       28.0985311793        9.7239398725
H         23.1220969792       27.3961218652       10.3176608092
H         22.4927123892       27.7606764718       12.5140770520
H         19.2483098243       27.9610562788       12.6999583945
H         18.8480601296       30.5449762338       11.3387341014
H         16.7788421579       28.5316720665       12.3410996060
H         16.5042417410       29.8387628111       11.2075887032
H         17.7426230184       30.0843171422       14.1406935219
H         16.7872590996       32.0947267141       13.8451448930
H         20.0756288849       30.8088464799       14.2644701293
H         19.8021739229       32.0416369519       13.0302741966
H         17.2791886485       26.3630633845       11.4631579687
H         18.0854450438       29.8407055569        9.0315229213
H         17.9153266921       24.8920814948        9.5671364015
H         18.7250085569       28.3631068124        7.1369162262
H         20.6208798406       33.3085735402       16.1377282613
H         20.9263924014       33.3467896159       14.4151038082
H         18.6368438311       25.8862545646        7.4008516332
H         18.8092488476       35.1156527552       15.7327026091
H         20.0468476500       35.1770468717       12.9196558747
H         18.3922727538       34.6662506440       13.3104375432
H         18.8814332733       36.3494041890       13.5692431914
H         20.4587050387       36.9599127777       15.4785232086
H         21.0822209349       35.7064727225       16.5648708537
H         21.6814013464       35.8115499577       14.8945756639
H         20.1562364583       32.1972928464       18.3364123558
H         16.5885967193       34.3390558442       17.1907941265
H         16.9623873680       35.9571468408       19.0391442387
H         18.9396381328       35.7091129495       20.5328571074
H         22.5248393833       32.9763998657       21.0774969265
H         21.3365843931       31.8385560607       20.4029580838
H         22.2792019053       32.9001179761       19.3178542903
    79
VM2 Rank=28     G=208.587           E=114.855           -TS=93.732              
C         20.6221091827       24.8741775239        5.8659074478
C         21.9457526253       25.0149701256        6.3121590542
C         19.5568571678       25.1243736416        6.7452824059
C         22.2040827897       25.4064105730        7.6365843109
C         19.8159549988       25.5151142678        8.0694001354
C         21.1404753477       25.6581651077        8.5251756419
N         21.4005889571       26.0649311094        9.8629676001
C         20.7822471109       25.5845341559       11.0014996122
C         22.3737007654       27.1078971237       10.1661399402
O         19.9544288989       24.6924498612       11.0723613116
O         21.3058693309       26.2527286985       12.0679641393
C         22.2491143732       27.2899617781       11.6899608797
C         21.7644625372       28.6998321952       12.0860989610
O         22.2456320245       29.7203779977       11.6223301842
N         20.7136189693       28.7381504185       12.9739312672
C         19.9120089469       29.9366914030       13.2509081624
C         18.4153709796       29.5471279271       13.3556478744
C         20.4590465362       30.6809894900       14.5012152362
C         17.9144627422       28.8501681266       12.0972313547
O         20.2628468454       29.8903150054       15.6770683906
C         19.8077361990       32.0788034491       14.6714497768
C         17.7731604363       27.4503807738       12.0652285754
C         17.6083216534       29.6019745574       10.9483475456
N         20.4961165718       32.9752756781       15.6431307943
C         17.3258881818       26.8096346024       10.8981036613
C         17.1620391276       28.9620402024        9.7800378127
C         21.9057076019       33.3317792105       15.3364741536
S         20.1522778972       32.8013761785       17.3098594471
C         17.0190379192       27.5655180098        9.7552093055
C         22.1486360578       33.8959560242       13.9115884002
O         20.9067154716       31.6302141787       17.7753792756
C         18.3681626330       32.5089827797       17.3698863172
O         20.3631604317       34.1417165349       17.8700396802
C         21.3218633825       35.1772953721       13.6585494552
C         23.6493134421       34.1934707659       13.7101241468
C         17.4755212290       33.5674209117       17.1082550668
C         17.8625811430       31.2236118935       17.6474663047
C         16.0847848285       33.3434344855       17.1244125343
C         16.4769298525       30.9995355386       17.6637024342
O         15.1688129041       34.3431220493       16.8705320222
C         15.5923979832       32.0586347296       17.4027724564
C         15.5452039234       35.6974555442       16.5536169236
H         20.4223529221       24.5714585680        4.8408742254
H         22.7715924279       24.8204377020        5.6322155553
H         18.5311429285       25.0161566825        6.4013762694
H         23.2334577062       25.5067911589        7.9693065903
H         18.9842328188       25.7077655391        8.7403771762
H         22.1260079004       28.0301975407        9.6240438471
H         23.3869350771       26.7816689929        9.9016593445
H         23.2154377329       27.1213428289       12.1806225505
H         20.3834331217       27.8460217885       13.3190901381
H         20.0148660584       30.6157253169       12.3925417561
H         18.2640003449       28.9012612865       14.2301516407
H         17.8078563291       30.4418323689       13.5341785894
H         21.5348658781       30.8207449420       14.3317125252
H         20.7504043834       30.3284079421       16.4131204728
H         19.7926643787       32.5651781704       13.6889022769
H         18.7546894755       31.9476279689       14.9437785499
H         18.0145562221       26.8571305690       12.9431654130
H         17.7198738888       30.6828577850       10.9601735103
H         17.2218594251       25.7274179228       10.8795672095
H         16.9275881160       29.5481545583        8.8949798445
H         22.2461800021       34.0909117744       16.0544092179
H         22.5471866550       32.4533253659       15.4884432568
H         16.6729291107       27.0702200627        8.8514674141
H         21.8659480640       33.1393598444       13.1667639947
H         21.5065408440       35.5692316122       12.6502674889
H         20.2459608233       34.9820928691       13.7464247324
H         21.5811696184       35.9621462173       14.3806391973
H         23.8415929657       34.5647439540       12.6952533906
H         24.0030699856       34.9515194560       14.4209353422
H         24.2511407787       33.2865259441       13.8520978816
H         17.8752091450       34.5528105773       16.8891326319
H         18.5423594519       30.3976758032       17.8437386121
H         16.0888640508       30.0060783349       17.8755557404
H         14.5199620163       31.8848291699       17.4137864181
H         14.6481885402       36.3080853765       16.3902703300
H         16.1186366222       36.1433741887       17.3766325961
H         16.1520149244       35.7274059830       15.6393342575
    79
VM2 Rank=29     G=208.600           E=114.255           -TS=94.345              
C         22.2742421386       24.0987714394        6.5661081719
C         22.4128487605       23.4240229537        7.7891771873
C         21.8866655271       25.4477599698        6.5515711826
C         22.1617552630       24.0972036262        8.9964019164
C         21.6371938865       26.1208635639        7.7589828348
C         21.7672268860       25.4495232991        8.9908778155
N         21.5160553996       26.1331814847       10.2136587064
C         20.8273368214       25.6391198129       11.3059047101
C         22.0144793067       27.4836915527       10.4475912678
O         20.2851764513       24.5522812609       11.4106301954
O         20.8499263923       26.5955098169       12.2771557642
C         21.6048073469       27.7764196164       11.9011020893
C         20.7958564291       29.0806917010       12.0372146063
O         21.2404735929       30.1653527881       11.7022731160
N         19.5035021168       28.9354593626       12.4923979021
C         18.4253446154       29.8861876846       12.1785698173
C         17.2141352795       29.1033970483       11.6146771534
C         18.0546725062       30.7659500128       13.4045298176
C         17.5921117944       28.2003130307       10.4458984064
O         17.0169351799       31.6842275929       13.0534660226
C         19.2802531664       31.5610584949       13.9298823792
C         17.5838799115       26.8009397446       10.5945916024
C         17.9735247801       28.7609479675        9.2131435901
N         18.9879337168       32.5572477737       15.0010911749
C         17.9472056006       25.9715630917        9.5206560409
C         18.3403789076       27.9323921626        8.1396155623
C         20.1355918654       33.4514026202       15.3234033511
S         18.0746074005       31.9673771895       16.3293193991
C         18.3249415106       26.5368932809        8.2927782889
C         20.7363147924       34.2322064784       14.1234586461
O         16.6815881829       32.0223474434       15.8671836620
C         18.2508604213       33.2007574812       17.6430653582
O         18.7217299445       30.7188369113       16.7493417469
C         19.6590357839       35.0568517880       13.3819583636
C         21.8620404056       35.1667927237       14.6152673958
C         19.2048149427       33.0181005672       18.6647114019
C         17.4495733298       34.3596147945       17.6374773649
C         19.3566321144       33.9882214615       19.6750271020
C         17.5997395255       35.3260789806       18.6444408717
O         20.2770351006       33.8607108758       20.6945496898
C         18.5517840537       35.1382521255       19.6595103607
C         21.1727888494       32.7384784258       20.8153379640
H         22.4676787259       23.5776484396        5.6316637800
H         22.7153831647       22.3798054552        7.8022071236
H         21.7784976468       25.9717222575        5.6051107360
H         22.2772274576       23.5637094301        9.9363169337
H         21.3308146980       27.1626354692        7.7305848697
H         21.5380320804       28.1922708001        9.7575500788
H         23.1047104131       27.5215683672       10.3290571605
H         22.4959506143       27.8672753608       12.5341994576
H         19.2408146703       27.9886140719       12.7378203892
H         18.7761742535       30.5627458243       11.3862813295
H         16.7574093923       28.5138682297       12.4195868430
H         16.4435546944       29.8126537760       11.2866662418
H         17.7000037593       30.0944515777       14.1983807484
H         16.7101156852       32.0796799338       13.9033444488
H         20.0269232815       30.8460408167       14.2995773965
H         19.7174390079       32.0558625558       13.0562790711
H         17.2999851283       26.3535514628       11.5433425192
H         17.9883680100       29.8404626179        9.0888467862
H         17.9436639594       24.8911745472        9.6431966920
H         18.6353349183       28.3715233885        7.1899831187
H         19.8255478476       34.2140739076       16.0470161788
H         20.9326673657       32.8630183969       15.7985630812
H         18.6101626314       25.8942897278        7.4634418986
H         21.1921577471       33.5257901129       13.4165385765
H         19.1786143797       35.7764058506       14.0571160094
H         20.1003137651       35.6161068191       12.5472755950
H         18.8762562993       34.4084289420       12.9677797609
H         22.3232191446       35.6996468123       13.7737459114
H         21.4780191983       35.9156749277       15.3201437683
H         22.6517794994       34.5967845455       15.1214393760
H         19.8218969705       32.1250155096       18.6606547060
H         16.7145975344       34.5115477104       16.8501395708
H         16.9808566245       36.2202182037       18.6377529665
H         18.6691821347       35.8868416115       20.4382001768
H         21.8099673882       32.8602201246       21.7004324769
H         20.6096491160       31.8025088600       20.9242221327
H         21.8216654569       32.6634674972       19.9331111776
    79
VM2 Rank=30     G=208.615           E=113.760           -TS=94.855              
C         21.1574646012       26.3008233147        5.6244606323
C         20.5614950559       27.4651228361        6.1337649597
C         21.8467684946       25.4334788570        6.4863946305
C         20.6540026846       27.7610331183        7.5038128105
C         21.9377458148       25.7290857140        7.8567778709
C         21.3379454923       26.8925650321        8.3774618650
N         21.4331166089       27.1948093307        9.7650940748
C         21.2915543833       26.3040271483       10.8129966066
C         21.7324914282       28.5436336291       10.2319453625
O         21.0262601347       25.1161079344       10.7451473182
O         21.4992503477       26.9912576415       11.9718880205
C         21.8443641655       28.3842900072       11.7578137970
C         20.9305811839       29.3583293029       12.5259543162
O         20.9954970697       30.5675220116       12.3850189531
N         19.9816407069       28.7721527482       13.3350047762
C         18.7177142516       29.4294330150       13.7046380754
C         17.5415652042       28.4997126806       13.3144411497
C         18.6991559748       29.8373202444       15.2047361913
C         17.6058342681       28.0477468705       11.8596029046
O         17.4311378099       30.4071790458       15.5335134664
C         19.8265382319       30.8547895916       15.5332954266
C         17.8794374225       26.7043626810       11.5420211615
C         17.4116453749       28.9765062717       10.8207207037
N         20.0497467242       31.1002888024       16.9863221593
C         17.9515024586       26.2931829773       10.2007739974
C         17.4873529193       28.5670391226        9.4790223132
C         20.4419991336       29.9234661403       17.8041109225
S         19.0656440030       32.2409902502       17.7951230545
C         17.7546933716       27.2240928276        9.1689620156
C         21.6466604211       29.1125258576       17.2561949788
O         17.7805675707       31.5770919884       18.0509461883
C         18.8875320150       33.5990717951       16.6136787739
O         19.9107435426       32.7526699561       18.8809969447
C         22.9157316143       29.9869910736       17.1380728592
C         21.9287501844       27.9018522956       18.1703645984
C         17.6794539547       33.7810822676       15.9120405482
C         19.9674609580       34.4701365355       16.3714954976
C         17.5471314867       34.8194229547       14.9774343260
C         19.8388755184       35.5116173400       15.4387477167
O         16.3398900438       34.9414738880       14.3215010134
C         18.6320354264       35.6876040102       14.7416362373
C         16.0840219436       35.9451108906       13.3200707821
H         21.0863497618       26.0717998637        4.5639576637
H         20.0271567450       28.1379148872        5.4675322862
H         22.3112183011       24.5325899938        6.0929808398
H         20.1813692833       28.6623746789        7.8835091803
H         22.4785213232       25.0509227662        8.5117847939
H         22.6755253590       28.9038584671        9.8018195448
H         20.9155399895       29.2287056659        9.9700872813
H         22.8761399183       28.5666956446       12.0824441455
H         20.0144366531       27.7604381716       13.3673305815
H         18.6152324509       30.3518328438       13.1154899726
H         17.5310190845       27.6301704414       13.9835450542
H         16.5917174744       29.0221920935       13.4851034129
H         18.8574587876       28.9240347071       15.7928538207
H         17.4186101632       30.5643253199       16.5069951629
H         20.7625436241       30.4864798514       15.1002830844
H         19.6189534571       31.7888957121       14.9981023900
H         18.0404684020       25.9773763390       12.3334866985
H         17.2048736336       30.0174730682       11.0544971801
H         18.1676990218       25.2547277142        9.9617640359
H         17.3374102887       29.2895613217        8.6808390737
H         20.7043125884       30.2625355084       18.8159250121
H         19.5796848923       29.2526441221       17.9162188416
H         17.8141840050       26.9056251391        8.1311350575
H         21.3977143703       28.7169320793       16.2620194833
H         22.7582169832       30.8278283008       16.4512179336
H         23.2021463095       30.3991969118       18.1141030745
H         23.7607816236       29.4005049442       16.7557441748
H         22.1949482085       28.2243198050       19.1853470946
H         21.0485667013       27.2498342982       18.2405411159
H         22.7584776512       27.3001013571       17.7776721492
H         16.8403257382       33.1126714857       16.0847109715
H         20.9063508131       34.3351106546       16.9038816209
H         20.6753202568       36.1814842659       15.2539137962
H         18.5521448165       36.4975501226       14.0234919369
H         15.0606529983       35.8419314677       12.9377133676
H         16.1924463523       36.9519759898       13.7436217312
H         16.7784431149       35.8367140245       12.4768531276
