    84
VM2 Rank=1      G=215.943           E=117.073           -TS=98.869              
C         20.9936798813       24.7715205995        5.3692872929
C         20.8716307489       24.2254652399        3.9661236651
C         20.7966371803       26.1478226499        5.6034639352
C         21.3032613371       23.9404850696        6.4674764798
O         20.6039020085       24.9527091866        3.0226991329
C         21.0852702397       22.7362638947        3.7191298989
C         20.9035160253       26.6808327282        6.8983878929
C         21.4086167309       24.4742990754        7.7627968505
C         21.2047603937       25.8473850206        7.9908698260
N         21.3128848701       26.3863706018        9.3037317556
C         22.0251256899       27.6324126426        9.5614288970
C         20.8094211920       25.8292372740       10.4641071484
C         21.9046060286       27.8154878978       11.0862433293
O         20.1635281044       24.8008090401       10.5707130623
O         21.1751900153       26.6323872452       11.5022521146
C         21.1785200808       29.1163861722       11.4864361678
O         21.3366993279       30.1711581109       10.8942748778
N         20.2891842098       28.9993538603       12.5328155653
C         19.1965297126       29.9468919083       12.7936075126
C         19.1819784572       30.3448671843       14.2962732894
C         17.8519857858       29.3548951009       12.2927024667
O         18.9381705763       29.1919660915       15.1089062408
C         18.1347428779       31.4506580364       14.5974369045
C         17.9039750146       28.8922610197       10.8409963489
N         18.3249569906       32.1597792426       15.8923472635
C         18.0269062871       29.8312162345        9.8005563363
C         17.8393262264       27.5214714794       10.5288872486
S         17.6742858849       31.4110148408       17.2841116951
C         19.6076693866       32.8925545144       16.0714977638
C         18.0820209703       29.4052246363        8.4629326553
C         17.8903736881       27.0944776928        9.1916097567
O         16.2716517490       31.1459415300       16.9420393752
O         18.5996002821       30.3336196796       17.6588045784
C         17.6403751122       32.7401791651       18.5100980399
C         19.9427234612       33.9018638315       14.9428447659
C         18.0092814958       28.0366907321        8.1580373913
C         18.5264353176       32.7229292892       19.6050900844
C         16.7432552881       33.8153897815       18.3611572587
C         18.8478333581       34.9849655337       14.8098913135
C         21.3070178502       34.5683089647       15.2181751776
C         18.5133430279       33.7690336313       20.5437742856
C         16.7320827400       34.8602414348       19.3002696604
C         17.6133621115       34.8435112648       20.3931157539
O         17.5571198304       35.8977466991       21.2811742861
C         18.4105624530       36.0019141714       22.4374246545
H         20.5576325680       26.8114234539        4.7759501727
H         21.4656089127       22.8754141774        6.3315189597
H         20.9591249263       22.5109015272        2.6537229050
H         22.0974511275       22.4475556778        4.0240510934
H         20.3558248611       22.1531854272        4.2925245618
H         20.7403898904       27.7445048941        7.0470946848
H         21.6520972355       23.8131419109        8.5906430626
H         21.5528397732       28.4642075207        9.0233587154
H         23.0760524754       27.5425886626        9.2591374550
H         22.8971290104       27.8301525140       11.5527037946
H         20.2331715764       28.0895455607       12.9745952628
H         19.3898684718       30.8636314154       12.2193384402
H         20.1814146471       30.7404920179       14.5182513517
H         17.5634380533       28.5168835425       12.9399325556
H         17.0573703041       30.1028923200       12.3973559450
H         19.0260815653       29.4697118532       16.0512988469
H         18.1632543951       32.1822650981       13.7812250090
H         17.1322319194       31.0042884838       14.5630468390
H         18.0856362802       30.8917662231       10.0295772814
H         17.7534867544       26.7843791591       11.3230010058
H         19.5858853532       33.4608170419       17.0097574228
H         20.4319740351       32.1733478495       16.1681742835
H         18.1786843425       30.1357756165        7.6638033860
H         17.8422490346       26.0336675624        8.9576489517
H         20.0288524989       33.3664921734       13.9875259366
H         18.0476615267       27.7062634406        7.1230723764
H         19.2271518775       31.9000685353       19.7269788589
H         16.0598377934       33.8412871186       17.5154029472
H         19.0987164639       35.6991047484       14.0152683475
H         17.8757784362       34.5412127943       14.5612462475
H         18.7322348875       35.5461453274       15.7461360857
H         21.5724364619       35.2636624352       14.4114298198
H         21.2909163130       35.1327167888       16.1596217448
H         22.1043889984       33.8169944894       15.2856366873
H         19.2051172235       33.7350318047       21.3795769211
H         16.0393106824       35.6888193637       19.1817482074
H         18.2557178351       35.1496339646       23.1116727305
H         19.4663509031       36.0322311026       22.1384784705
H         18.1838033573       36.9223608002       22.9901566532
    84
VM2 Rank=2      G=215.964           E=117.092           -TS=98.872              
C         20.9326117476       24.7988774286        5.3369476904
C         20.7952637647       24.2653955795        3.9303658878
C         20.7530428953       26.1754593625        5.5832194098
C         21.2395457542       23.9556419522        6.4265352352
O         20.5301000850       25.0031547873        2.9944112942
C         20.9897987025       22.7757874237        3.6703564004
C         20.8742502663       26.6968941396        6.8815960647
C         21.3592562426       24.4778939369        7.7253093395
C         21.1726419895       25.8513673600        7.9655576793
N         21.2950126669       26.3785124357        9.2820058094
C         22.0215301764       27.6151739432        9.5450839654
C         20.7935564163       25.8170477853       10.4411753515
C         21.9142750626       27.7861342743       11.0723012407
O         20.1371916400       24.7948537691       10.5436856958
O         21.1747545544       26.6076148171       11.4833964756
C         21.2058222527       29.0914072378       11.4894830748
O         21.3712079533       30.1495901408       10.9054373184
N         20.3232438907       28.9748484631       12.5416292238
C         19.2430076119       29.9317996433       12.8192248291
C         19.2413408059       30.3124206553       14.3264936591
C         17.8889243646       29.3607476306       12.3195657634
O         18.9901789138       29.1526394415       15.1270485733
C         18.2076161671       31.4255303861       14.6467625174
C         17.9272443414       28.9131314206       10.8627441005
N         18.4106284996       32.1149072705       15.9503447142
C         18.0538884748       29.8617911711        9.8316033142
C         17.8459298735       27.5465228734       10.5365061722
S         17.7568352560       31.3552724209       17.3346921053
C         19.7017886535       32.8314344135       16.1341199373
C         18.0961785479       29.4495585127        8.4892103665
C         17.8841659921       27.1333235298        9.1944784533
O         16.3505823950       31.1085851814       16.9937422949
O         18.6722116147       30.2640026013       17.6932866433
C         17.7393017107       32.6697603607       18.5766429173
C         20.0408372564       33.8551019091       15.0197235033
C         18.0068288330       28.0852179171        8.1702532152
C         16.8571740547       33.7591596290       18.4393484050
C         18.6233767022       32.6272224361       19.6721907996
C         18.9559731253       34.9508192072       14.9098534597
C         21.4130858088       34.5037224157       15.2980660946
C         16.8561259886       34.7952638382       19.3888837179
C         18.6202008791       33.6637188329       20.6208208128
C         17.7404549607       34.7496632504       20.4856041002
O         17.7853417509       35.7376621194       21.4473949672
C         16.9416713568       36.9053660955       21.4188974068
H         20.5165226332       26.8483265548        4.7625028393
H         21.3887129069       22.8898869685        6.2811628278
H         20.8541627699       22.5603241490        2.6040685297
H         22.0004556082       22.4728547294        3.9664031864
H         20.2572544633       22.1967733333        4.2439215698
H         20.7244520042       27.7611696879        7.0396728943
H         21.6003402001       23.8073737054        8.5462949226
H         21.5533582049       28.4562335033        9.0179198177
H         23.0692069942       27.5177433814        9.2339934165
H         22.9103287001       27.7855218447       11.5314091014
H         20.2605258627       28.0617912728       12.9757571158
H         19.4436727392       30.8527695867       12.2543051498
H         20.2461357693       30.6949899997       14.5471817161
H         17.5942421357       28.5192111566       12.9594166706
H         17.1036315366       30.1166918319       12.4367064025
H         19.0855542446       29.4184107151       16.0721494657
H         18.2410919775       32.1677159942       13.8403463055
H         17.2001017431       30.9907535241       14.6104791800
H         18.1254499002       30.9191386643       10.0715247959
H         17.7569879646       26.8019601160       11.3232772425
H         19.6909699446       33.3848399333       17.0814206413
H         20.5191607363       32.1024267224       16.2148373964
H         18.1957731228       30.1875378383        7.6972988055
H         17.8231467369       26.0756544939        8.9495595322
H         20.1165335886       33.3340345727       14.0556528366
H         18.0352234017       27.7654981583        7.1316105620
H         16.1760506283       33.8028779294       17.5924396193
H         19.3132091478       31.7941903121       19.7866132357
H         19.2097818178       35.6750809322       14.1253861980
H         17.9783704079       34.5205445898       14.6592635003
H         18.8507180022       35.4980551575       15.8555155171
H         21.6810888285       35.2091098267       14.5009455666
H         21.4075557235       35.0533000156       16.2483675939
H         22.2033375210       33.7436593717       15.3493445040
H         16.1681782497       35.6251943205       19.2618237561
H         19.3034133689       33.6285214921       21.4649624681
H         17.1182419331       37.4889523907       20.5060789205
H         15.8825905471       36.6195917524       21.4595329549
H         17.1576036018       37.5461769923       22.2831240751
    84
VM2 Rank=3      G=215.974           E=117.105           -TS=98.869              
C         20.9958473894       24.7425104557        5.3863552005
C         20.8845637929       24.1379386087        4.0064807203
C         21.3100308361       23.9194750571        6.4872605402
C         20.7943338673       26.1209410856        5.6136191123
O         21.0633728339       22.9447530313        3.8195221749
C         20.5425919318       25.0328332764        2.8204702790
C         21.4171237416       24.4562803987        7.7807839325
C         20.9030917210       26.6572388697        6.9074398733
C         21.2094137431       25.8294940440        8.0031122855
N         21.3188470045       26.3745622561        9.3133258328
C         22.0286654027       27.6233904698        9.5641666255
C         20.8192370036       25.8211436257       10.4771328620
C         21.9106011822       27.8128712667       11.0883953131
O         20.1756191268       24.7919134952       10.5894993319
O         21.1852730694       26.6296100443       11.5110406541
C         21.1815540514       29.1134330460       11.4843037377
O         21.3354095403       30.1660319041       10.8871602547
N         20.2948263848       28.9984180159       12.5331144554
C         19.2004331104       29.9442435045       12.7927674928
C         19.1867646751       30.3455703116       14.2945757355
C         17.8565796900       29.3479819933       12.2950355737
O         18.9467883274       29.1938245595       15.1099963043
C         18.1372799141       31.4495292934       14.5946607397
C         17.9073974377       28.8824393508       10.8442307253
N         18.3263056788       32.1607184698       15.8886180329
C         17.8477330515       27.5107285055       10.5351865534
C         18.0240807260       29.8196771308        9.8015357394
S         17.6773055061       31.4126519262       17.2815335238
C         19.6075702907       32.8962683121       16.0666121952
C         17.8973513827       27.0811014945        9.1986992653
C         18.0776685729       29.3910843075        8.4646799610
O         16.2754175772       31.1433802274       16.9396839871
O         18.6052922422       30.3382545436       17.6582110678
C         17.6396854667       32.7438306609       18.5052109239
C         19.9399937469       33.9053153570       14.9369581205
C         18.0098054252       28.0216190789        8.1628568893
C         16.7402957473       33.8168027450       18.3538492556
C         18.5251097106       32.7304319208       19.6007689460
C         18.8427557994       34.9859847282       14.8035784035
C         21.3030032444       34.5748666138       15.2111186140
C         16.7261876392       34.8632150159       19.2911813157
C         18.5090645237       33.7780809066       20.5376833308
C         17.6068040237       34.8503038362       20.3846139226
O         17.5475127231       35.9058217745       21.2709484859
C         18.3994111443       36.0134344804       22.4280217096
H         21.4731093113       22.8544390569        6.3409958027
H         20.5512637229       26.7907522274        4.7942001690
H         19.5678255827       25.5078765580        2.9786375429
H         21.3073874040       25.8089859772        2.7042141169
H         20.5006325366       24.4372547979        1.9010585806
H         21.6644884042       23.7983886261        8.6100251860
H         20.7372536529       27.7209141653        7.0534206764
H         21.5534655818       28.4517477676        9.0233785356
H         23.0792297416       27.5346450463        9.2602971107
H         22.9039697399       27.8324016495       11.5528733076
H         20.2423654390       28.0903983353       12.9790048109
H         19.3911193463       30.8600145339       12.2160647161
H         20.1855058239       30.7441119489       14.5144717266
H         17.5709492413       28.5106386815       12.9444208109
H         17.0603264392       30.0942849090       12.3992972268
H         19.0345522778       29.4738659812       16.0517168932
H         18.1640357961       32.1801406280       13.7774960143
H         17.1357052186       31.0010140554       14.5611499815
H         17.7667343104       26.7750010981       11.3310773164
H         18.0789575613       30.8809411147       10.0281960373
H         19.5850067428       33.4652528637       17.0044198573
H         20.4333989907       32.1788455780       16.1635336310
H         17.8529425518       26.0196030146        8.9671211975
H         18.1692834233       30.1203529753        7.6637900775
H         20.0268001941       33.3693063884       13.9820591511
H         18.0466724079       27.6892020864        7.1285212416
H         16.0573605691       33.8397306090       17.5076201754
H         19.2275747893       31.9093395205       19.7245031559
H         17.8715475415       34.5399570274       14.5556923924
H         18.7263513155       35.5476813471       15.7394147296
H         19.0917947256       35.7000051648       14.0082691768
H         21.2861242295       35.1400426515       16.1520914076
H         22.1019829500       33.8252893550       15.2788761007
H         21.5666063421       35.2700889115       14.4036658479
H         16.0316274220       35.6900293810       19.1708272387
H         19.2003538461       33.7470217120       21.3740018489
H         18.1701947426       36.9342671861       22.9790941354
H         18.2454698537       35.1618707828       23.1033815519
H         19.4554831473       36.0453872763       22.1302532262
    84
VM2 Rank=4      G=215.984           E=117.120           -TS=98.864              
C         20.9359971932       24.7771375121        5.3522289358
C         20.8096790374       24.1882066085        3.9668941863
C         20.7544179873       26.1557908977        5.5944461430
C         21.2444900726       23.9387693311        6.4431247012
O         20.9713177938       22.9946725639        3.7669741451
C         20.4740174904       25.0996724116        2.7917503082
C         20.8768574896       26.6773627210        6.8930590642
C         21.3652657892       24.4608725831        7.7414501124
C         21.1773234215       25.8344361897        7.9787383768
N         21.3003339028       26.3645370175        9.2938962640
C         22.0276437000       27.6013718206        9.5539492796
C         20.7992184003       25.8057411911       10.4544897938
C         21.9192423509       27.7768384957       11.0805798069
O         20.1426852615       24.7839268901       10.5595782595
O         21.1809724016       26.5986072568       11.4947667297
C         21.2085361299       29.0823489616       11.4932325130
O         21.3724228825       30.1389026354       10.9058220091
N         20.3258806165       28.9678172680       12.5455262996
C         19.2447472968       29.9244828598       12.8205547102
C         19.2427379093       30.3089865292       14.3268385047
C         17.8912449058       29.3507764181       12.3224026408
O         18.9927474060       29.1509950805       15.1303412398
C         18.2079407079       31.4218965283       14.6443323170
C         17.9296125266       28.9006668683       10.8663559798
N         18.4103510038       32.1147792483       15.9461490256
C         18.0534547638       29.8478014277        9.8334768532
C         17.8508492946       27.5333341231       10.5425427267
S         17.7576035198       31.3578984462       17.3325029574
C         19.7007107532       32.8332526589       16.1279338584
C         18.0953324565       29.4333578759        8.4917515476
C         17.8887496284       27.1179001583        9.2011938409
O         16.3515792370       31.1087928468       16.9923725035
O         18.6742339710       30.2685568862       17.6937414118
C         17.7387796585       32.6754893339       18.5711330045
C         20.0383629905       33.8545897560       15.0109785970
C         18.0084254001       28.0682967396        8.1752234748
C         16.8555898424       33.7636719572       18.4310716064
C         18.6229170918       32.6366045970       19.6667666001
C         18.9521852758       34.9487533347       14.8986164356
C         21.4098871226       34.5055137981       15.2875061915
C         16.8535771286       34.8022139253       19.3779353517
C         18.6187827905       33.6755399376       20.6127203031
C         17.7380034992       34.7602966784       20.4747246482
O         17.7820241453       35.7508499152       21.4339226587
C         16.9372677527       36.9176897157       21.4024040826
H         20.5164119340       26.8371409743        4.7830939745
H         21.3923695504       22.8731698807        6.2852641770
H         20.4193569065       24.5140941944        1.8665994813
H         19.5066148319       25.5862708406        2.9597012450
H         21.2487294673       25.8665126891        2.6794193429
H         20.7261837955       27.7416399131        7.0506217959
H         21.6077585416       23.7912597501        8.5627087796
H         21.5608526254       28.4413529137        9.0238773108
H         23.0755167366       27.5019774571        9.2441429331
H         22.9149619256       27.7791291539       11.5404056766
H         20.2644242935       28.0560922161       12.9826281724
H         19.4445312247       30.8441663178       12.2532319496
H         20.2471630648       30.6931068353       14.5465180596
H         17.5978837537       28.5100021503       12.9638628701
H         17.1049908475       30.1058830567       12.4384631909
H         19.0880147190       29.4192320714       16.0747561565
H         18.2406257360       32.1620532450       13.8360219576
H         17.2008536706       30.9860368974       14.6092374047
H         18.1230052082       30.9057056631       10.0715244582
H         17.7640541041       26.7899558705       11.3306753892
H         19.6894114931       33.3889705163       17.0738740245
H         20.5189478277       32.1054003186       16.2102941657
H         18.1926190171       30.1701999290        7.6984986015
H         17.8296417772       26.0596807646        8.9581746118
H         20.1145178402       33.3312541598       14.0481747111
H         18.0363001151       27.7468854597        7.1371358561
H         16.1744087477       33.8045561818       17.5840678886
H         19.3135513539       31.8045306567       19.7833104953
H         18.8464021785       35.4981271425       15.8429793566
H         19.2050364663       35.6714375070       14.1123871584
H         17.9750615659       34.5167206317       14.6491830776
H         21.4038283758       35.0574763228       16.2364219768
H         22.2010343691       33.7465062641       15.3405967394
H         21.6769612131       35.2092051078       14.4885761018
H         16.1648289752       35.6311535125       19.2487612109
H         19.3020632232       33.6431780543       21.4569210560
H         17.1131498599       37.4989688707       20.4879822686
H         15.8784607606       36.6310389679       21.4439796310
H         17.1527421094       37.5610388416       22.2648569495
    84
VM2 Rank=5      G=216.029           E=116.884           -TS=99.145              
C         21.6224945798       25.6292399732        5.5385192273
C         21.7088770610       25.0083443361        4.1641361326
C         20.6669774083       26.6342974101        5.7927755107
C         22.4771132517       25.2329782137        6.5897412168
O         20.9652089896       25.3582564768        3.2612978609
C         22.7436225530       23.9214102814        3.8953562339
C         20.5650619128       27.2268755952        7.0619268526
C         22.3734492502       25.8251924931        7.8595607809
C         21.4135165816       26.8228829888        8.1088408992
N         21.3097900066       27.4229287300        9.3953739054
C         21.1422348995       28.8630492108        9.5532794781
C         21.3728294499       26.7725761389       10.6138759331
C         21.1642506565       29.0679511006       11.0778487031
O         21.4957101409       25.5755277450       10.8089223126
O         21.2707450036       27.7155949336       11.5929267410
C         19.9180625360       29.8120345544       11.5952348994
O         19.5811289716       30.9029117921       11.1678956085
N         19.1655330585       29.1342598158       12.5296837064
C         17.7343748688       29.3907124445       12.7604356691
C         17.4897979141       30.0401833711       14.1519671197
C         16.9551470916       28.0660699002       12.5626898360
O         16.0866833759       30.1756836531       14.3876421905
C         18.1655909323       31.4357801529       14.2608513676
C         17.2646718962       27.3904065136       11.2310702889
N         18.3398866459       31.9421599371       15.6493682307
C         17.9715940873       26.1740160711       11.1965867776
C         16.8605211359       27.9876730482       10.0229356089
S         17.0012641733       32.7363553518       16.3536904799
C         19.1806622845       31.1162378593       16.5583361246
C         18.2644004586       25.5582250870        9.9684445997
C         17.1562476768       27.3745891295        8.7939898499
O         16.6399681934       33.7825260803       15.3895500811
O         16.0519977055       31.6910576409       16.7585675231
C         17.7124815402       33.5992612334       17.7750879058
C         20.5767604130       30.7411791932       15.9949661944
C         17.8555879907       26.1575103341        8.7669238385
C         18.5737802988       34.6959475008       17.5769010193
C         17.4322928515       33.1656580952       19.0854861947
C         21.4160043243       31.9994038966       15.6757632260
C         21.3320362247       29.8504951413       17.0034938051
C         19.1477542652       35.3552676277       18.6773525400
C         18.0065926790       33.8266518990       20.1843514038
C         18.8643570982       34.9208166076       19.9880175067
O         19.3993581388       35.5275765197       21.1055250808
C         20.2975794246       36.6522439213       21.0388095353
H         19.9957094689       26.9591196017        5.0014828253
H         23.2290413825       24.4646440163        6.4365544672
H         22.6694455638       23.5818217522        2.8556586479
H         23.7521809407       24.3136437393        4.0679839456
H         22.5703984477       23.0670992307        4.5594345600
H         19.8131804254       27.9930646412        7.2285978331
H         23.0465507856       25.5044623099        8.6505963975
H         20.1823155716       29.1859832753        9.1296355293
H         21.9652864077       29.4046935563        9.0702862670
H         22.0468873305       29.6499093845       11.3702263430
H         19.5340735466       28.2308479136       12.8011596177
H         17.3747299105       30.0997319698       12.0013844022
H         17.9259202931       29.3668517050       14.9007263031
H         17.1802943797       27.3874706341       13.3950040759
H         15.8775145505       28.2651773725       12.6204582651
H         15.9731480755       30.5150529158       15.3073923459
H         19.1486384422       31.3936834602       13.7805744872
H         17.5836453047       32.1519574816       13.6655815258
H         18.2980536587       25.7050375776       12.1209063302
H         16.3185500743       28.9294892535       10.0372964184
H         19.3504875563       31.6519292121       17.5006317159
H         18.6413681074       30.1961920370       16.8205294744
H         18.8141456935       24.6203326065        9.9484595609
H         16.8414941988       27.8412656043        7.8640487570
H         20.4538071336       30.1557535823       15.0737743592
H         18.0844323485       25.6813246046        7.8167435482
H         18.8007354890       35.0326916041       16.5678360291
H         16.7731647560       32.3166588632       19.2517430755
H         20.9254438026       32.6247545990       14.9194810417
H         21.5655273724       32.6121136200       16.5740585886
H         22.4035936365       31.7220372000       15.2859290077
H         20.7661800376       28.9350198948       17.2190787490
H         22.3099483509       29.5511332809       16.6049713983
H         21.4999202329       30.3778999525       17.9515178384
H         19.8092640062       36.1974151518       18.5001697040
H         17.7888903672       33.4899509145       21.1942175084
H         19.8140147216       37.5059724119       20.5465878125
H         20.5901322675       36.9600819964       22.0506397384
H         21.2072058796       36.3894108908       20.4833939937
    84
VM2 Rank=6      G=216.050           E=116.913           -TS=99.137              
C         21.4778634437       25.7484776913        5.4314223555
C         21.5657261078       25.0632841769        4.0880355387
C         20.3931429365       26.5855094967        5.7705532210
C         22.5007555834       25.5565090616        6.3826962389
O         22.5096448176       24.3434056499        3.8027305471
C         20.4550999822       25.2727679790        3.0647877134
C         20.3356581706       27.2098156707        7.0276360937
C         22.4416674255       26.1797737790        7.6400317660
C         21.3554454008       27.0078663230        7.9757631922
N         21.2940771936       27.6411985705        9.2489456911
C         20.8959488291       29.0373897975        9.3871552831
C         21.6073126883       27.0691726172       10.4680897846
C         21.0509869764       29.3137442491       10.8926074580
O         21.9593750256       25.9212908306       10.6789634680
O         21.4524565405       28.0257443862       11.4268591566
C         19.7577717157       29.8535793515       11.5333543191
O         19.1874503665       30.8488791001       11.1207218023
N         19.2457986845       29.0992782166       12.5666955285
C         17.8268724438       29.1155494964       12.9586230015
C         17.6290409629       29.7767991219       14.3520608202
C         17.2767837908       27.6686408274       12.8892538334
O         16.2594970426       29.6790813673       14.7488336677
C         18.0554937126       31.2715679991       14.3441169371
C         17.5483095399       26.9957284595       11.5480026520
N         18.2936824480       31.8634332382       15.6886449337
C         18.4525115560       25.9209146202       11.4601516543
C         16.9086838166       27.4559098726       10.3823462812
S         16.9241605508       32.4457534109       16.5277416719
C         19.3648795127       31.2376639631       16.5109993435
C         18.7083123262       25.3084176957       10.2221408141
C         17.1666691670       26.8464713526        9.1431190057
O         16.2773204403       33.3694958691       15.5881288567
O         16.2262469697       31.2717279141       17.0683534627
C         17.6276958845       33.4813903525       17.8328583376
C         20.7321843832       31.0835197451       15.7941379528
C         18.0643232777       25.7699059211        9.0636003580
C         17.5784076199       33.0651538679       19.1774714884
C         18.2535252525       34.7003686807       17.5068744655
C         21.2941642147       32.4515783555       15.3447577186
C         21.7424920101       30.3838653548       16.7272212007
C         18.1472100546       33.8640208034       20.1837050731
C         18.8224853724       35.4976074777       18.5147661662
C         18.7702392698       35.0799870466       19.8600434787
O         19.3124002113       35.8194852584       20.8907744139
C         19.9842262814       37.0782749809       20.6902232531
H         19.5840099455       26.7608285178        5.0678968041
H         23.3496124970       24.9190887612        6.1473028352
H         19.4989347492       24.9276477915        3.4740522881
H         20.3758590763       26.3357274933        2.8104634843
H         20.6741786608       24.7062261776        2.1521952746
H         19.4847369904       27.8424051667        7.2643209289
H         23.2467122106       26.0164445364        8.3519385899
H         19.8534205462       29.1720620951        9.0706447825
H         21.5530301814       29.6883181288        8.7967235075
H         21.8431005496       30.0529881271       11.0637288335
H         19.7963957283       28.2867116465       12.8161814077
H         17.2648232752       29.7159477726       12.2293507484
H         18.2584108959       29.2240623483       15.0609952894
H         17.7108470072       27.0781768796       13.7058798251
H         16.1944615442       27.6812779803       13.0700564065
H         16.1918909084       30.0353825683       15.6667062774
H         18.9696600266       31.3778255072       13.7509880023
H         17.2925089591       31.8485834660       13.8048340306
H         18.9608679871       25.5600077415       12.3502116663
H         16.2124198549       28.2884550711       10.4375113695
H         19.5432341534       31.8374104856       17.4122287298
H         19.0299861212       30.2514319720       16.8592237026
H         19.4107668548       24.4807595849       10.1604119519
H         16.6693277048       27.2067654684        8.2461950193
H         20.6108774443       30.4438636690       14.9095218217
H         18.2642626787       25.2964312356        8.1056247671
H         17.1028194001       32.1233965745       19.4416679615
H         18.3018959404       35.0256502751       16.4700675596
H         22.2644488215       32.3310265417       14.8465098316
H         20.6181753898       32.9474968260       14.6371018500
H         21.4341460929       33.1215706301       16.2027900810
H         22.7062439398       30.2396269445       16.2221188034
H         21.9210713346       30.9754235941       17.6345569826
H         21.3755009146       29.3954275322       17.0322987843
H         18.1079752726       33.5404133495       21.2202046935
H         19.3003882780       36.4325436016       18.2396208598
H         19.3048407196       37.8127057435       20.2385416042
H         20.3302139006       37.4770426565       21.6522152154
H         20.8572830232       36.9519130058       20.0369299672
    84
VM2 Rank=7      G=216.084           E=116.936           -TS=99.148              
C         21.4865529226       25.6695152383        5.4562321312
C         21.5760331868       24.9618207269        4.1246689227
C         22.5125019560       25.5002924625        6.4085297649
C         20.3972597063       26.5054524224        5.7832120099
O         22.5237967879       24.2428963654        3.8498955389
C         20.4622125099       25.1469021650        3.1001934262
C         22.4520262857       26.1447506697        7.6550633396
C         20.3383761620       27.1509545944        7.0294850288
C         21.3613030274       26.9717062102        7.9787859186
N         21.2987394800       27.6267371252        9.2408733254
C         20.8923808013       29.0226760752        9.3556423052
C         21.6183687048       27.0780416954       10.4690421484
C         21.0509057625       29.3266874813       10.8553860129
O         21.9773594274       25.9360106315       10.6991251169
O         21.4603661497       28.0504052458       11.4112599283
C         19.7573073996       29.8717941677       11.4908396805
O         19.1804483791       30.8564707558       11.0621296216
N         19.2530926188       29.1341233907       12.5398694642
C         17.8357601759       29.1508521901       12.9374654726
C         17.6412869629       29.8341148547       14.3207047127
C         17.2916446644       27.7006699425       12.8941775576
O         16.2743014874       29.7360835498       14.7260889009
C         18.0598861368       31.3307303633       14.2857795195
C         17.5613726349       27.0067444954       11.5633014803
N         18.3061762900       31.9447711459       15.6188683785
C         18.4705245680       25.9350206392       11.4899121565
C         16.9153225894       27.4444711156       10.3925530834
S         16.9400692629       32.5313589291       16.4606321073
C         19.3879875803       31.3378632644       16.4415301860
C         18.7248978807       25.3033731073       10.2612660290
C         17.1718560027       26.8158703030        9.1626294410
O         16.2804877767       33.4381503530       15.5133899597
O         16.2533766812       31.3609601620       17.0230519768
C         17.6476843192       33.5885839690       17.7461857171
C         20.7494077841       31.1776200170       15.7148245209
C         18.0744957027       25.7425017690        9.0976263152
C         18.2573925626       34.8098238518       17.3998235449
C         17.6174858897       33.1869472054       19.0960839209
C         21.3011994760       32.5402908812       15.2373530412
C         21.7712915228       30.4981320464       16.6502047930
C         18.8277672780       35.6209611425       18.3950720164
C         18.1883610025       34.0001110494       20.0903175867
C         18.7967640654       35.2228281300       19.7410912869
O         19.3742639141       36.0600832579       20.6731469603
C         19.4139045210       35.7638448418       22.0826856506
H         23.3648721766       24.8642225870        6.1823546851
H         19.5856552971       26.6636101348        5.0793332574
H         20.6831017780       24.5662014985        2.1969846174
H         19.5089806044       24.8029289996        3.5171908199
H         20.3758949007       26.2048466955        2.8278965563
H         23.2595301430       25.9987745224        8.3679540782
H         19.4840435484       27.7823059731        7.2570280599
H         19.8479004095       29.1451052507        9.0405763908
H         21.5432470237       29.6671034944        8.7513569070
H         21.8400634941       30.0725813994       11.0105650241
H         19.8086874284       28.3289748568       12.8020034337
H         17.2680491869       29.7368221256       12.2008806976
H         18.2769976059       29.2963992249       15.0355043406
H         17.7311727119       27.1257107739       13.7189045981
H         16.2099324267       27.7117389549       13.0787007840
H         16.2101018661       30.1055891506       15.6389894588
H         18.9683985824       31.4324379655       13.6832460635
H         17.2893650648       31.8953472108       13.7440881614
H         18.9838728047       25.5914039562       12.3839407844
H         16.2152446067       28.2744832910       10.4364927828
H         19.5719098809       31.9536366909       17.3307389183
H         19.0609359707       30.3561559547       16.8094464084
H         19.4311766879       24.4782177683       10.2106527288
H         16.6695511886       27.1588746728        8.2617004612
H         20.6229676830       30.5226153521       14.8422677616
H         18.2732916284       25.2541939267        8.1468872808
H         18.2919768050       35.1255250154       16.3595415812
H         17.1539486811       32.2431794015       19.3742594541
H         20.6165366344       33.0214421652       14.5278486500
H         21.4461657475       33.2252021726       16.0826944009
H         22.2673553633       32.4155058470       14.7321746084
H         21.4115134918       29.5134026392       16.9752125516
H         22.7310240061       30.3495496157       16.1387473711
H         21.9555189724       31.1056594985       17.5457812304
H         19.2982061510       36.5621495535       18.1241940492
H         18.1536232215       33.6705861177       21.1239901894
H         19.9615017220       34.8305755756       22.2674086197
H         19.9223334757       36.5726964090       22.6225126541
H         18.3980742055       35.6667025839       22.4871860367
    84
VM2 Rank=8      G=216.087           E=116.932           -TS=99.155              
C         21.4551317467       25.6631895842        5.4510194887
C         21.4898764963       24.9893583007        4.0994859171
C         20.3928895901       26.5331555142        5.7713174128
C         22.4629964598       25.4493620590        6.4158738973
O         20.6135190178       25.1813779679        3.2714016963
C         22.6403697192       24.0486162912        3.7592906492
C         20.3361196970       27.1711486350        7.0211241391
C         22.4046418556       26.0868023149        7.6665427225
C         21.3385901596       26.9485405875        7.9827000739
N         21.2806281264       27.5944424849        9.2497748200
C         20.9183893401       29.0018769907        9.3718469929
C         21.5651624297       27.0249808330       10.4771489949
C         21.0660384522       29.2875459939       10.8763060985
O         21.8840531720       25.8699937747       10.7016052536
O         21.4260058909       27.9937929546       11.4259767674
C         19.7822650875       29.8691968400       11.4991906483
O         19.2436387626       30.8757281817       11.0714868319
N         19.2398585089       29.1395397103       12.5347005444
C         17.8180547230       29.1981224051       12.9118896858
C         17.6245387142       29.8769069743       14.2974670916
C         17.2291196350       27.7662656079       12.8491677442
O         16.2490588713       29.8196312318       14.6813706578
C         18.0912294348       31.3595436590       14.2806728248
C         17.4966230561       27.0739869100       11.5169796382
N         18.3336120708       31.9565429539       15.6222027383
C         18.3698520595       25.9724429323       11.4490963360
C         16.8849394283       27.5427130418       10.3397829695
S         16.9727265575       32.5820456693       16.4441562554
C         19.3803784804       31.3093926668       16.4593557444
C         18.6225953248       25.3422294105       10.2193725553
C         17.1400557805       26.9155469868        9.1088425146
O         16.3589219309       33.5148472590       15.4914169498
O         16.2392858004       31.4312155064       16.9876080951
C         17.6916609543       33.6088586919       17.7479379288
C         20.7487511280       31.1104204977       15.7556631178
C         18.0066820010       25.8126007231        9.0491917623
C         17.6244474175       33.2015118443       19.0947845978
C         18.3467237009       34.8113695085       17.4193172413
C         21.3524152896       32.4579082896       15.2982884774
C         21.7313787073       30.3919276148       16.7038724179
C         18.2036306509       33.9905747272       20.1035272747
C         18.9253438657       35.5984057025       18.4290517143
C         18.8574378293       35.1946523039       19.7720378963
O         19.4451541596       36.0078796010       20.7188655436
C         19.4492079159       35.7038082622       22.1272872778
H         19.6027925955       26.7163371039        5.0471316970
H         23.3004289469       24.7895586949        6.2095558010
H         22.5101414116       23.6474540971        2.7474099735
H         23.5923633395       24.5893793008        3.8053256875
H         22.6646632509       23.2146247635        4.4697294490
H         19.5003945380       27.8294841342        7.2409046801
H         23.1959075106       25.9078856581        8.3901142948
H         19.8828832833       29.1610831124        9.0438562306
H         21.5981210441       29.6299302501        8.7822806803
H         21.8768839569       30.0058424556       11.0488986693
H         19.7654106988       28.3145809147       12.7972039592
H         17.2800619352       29.8072453304       12.1717943483
H         18.2318035822       29.3138270569       15.0174557786
H         17.6379228288       27.1716136001       13.6757286343
H         16.1456577701       27.8102346982       13.0178393658
H         16.1823126456       30.1853395652       15.5956064446
H         19.0130125155       31.4359920247       13.6947737749
H         17.3487880647       31.9521537363       13.7297493839
H         18.8565957037       25.6044376963       12.3482827864
H         16.2128308664       28.3957363420       10.3794944926
H         19.5679380946       31.9127426331       17.3562946942
H         19.0154051721       30.3362095415       16.8140204606
H         19.3011854940       24.4939164814       10.1730735387
H         16.6645841966       27.2826676090        8.2028637045
H         20.6170125479       30.4659076958       14.8760882500
H         18.2044470038       25.3255822949        8.0975256932
H         17.1256215869       32.2719378747       19.3593823529
H         18.4099755434       35.1311141934       16.3816210266
H         21.5040322412       33.1319368807       16.1511777590
H         22.3230008657       32.3056054037       14.8094110832
H         20.6963799433       32.9657261618       14.5803698419
H         21.9188895405       30.9870005830       17.6070975971
H         21.3344367589       29.4170663976       17.0150724254
H         22.6948769353       30.2160732006       16.2083947747
H         18.1398485376       33.6570704073       21.1345355762
H         19.4308157273       36.5251584434       18.1718560964
H         19.9738854832       36.4929397960       22.6805854715
H         18.4234885538       35.6381871157       22.5127269261
H         19.9624419641       34.7521803515       22.3169431387
    84
VM2 Rank=9      G=216.092           E=116.602           -TS=99.490              
C         19.6271665922       24.7979789742        6.2213531504
C         19.1253754310       24.1438063556        4.9555714149
C         19.6204329746       26.2035171978        6.3319756489
C         20.1097404110       24.0404753554        7.3102668450
O         18.7103185753       24.8079631948        4.0189648294
C         19.1347161643       22.6234847013        4.8419502990
C         20.0806213101       26.8366477389        7.4980497695
C         20.5686108171       24.6746168954        8.4769768486
C         20.5532839595       26.0772676338        8.5838568254
N         21.0198377402       26.7179556275        9.7662436610
C         21.8795738313       27.8943509641        9.7086720522
C         20.7627187129       26.3289869162       11.0674720719
C         22.1542400274       28.2213114683       11.1887175055
O         20.0720005617       25.3949355099       11.4371816014
O         21.4375596437       27.1758625993       11.8944721141
C         21.6797833328       29.6306870826       11.5985111735
O         21.7885421468       30.6031383246       10.8699628607
N         21.0695374048       29.7136134045       12.8314270136
C         20.1708933146       30.8045627714       13.2332250672
C         20.5557307946       31.3123060989       14.6515087088
C         18.6927627853       30.3415361539       13.1179898300
O         20.3981451192       30.2589778190       15.6070757681
C         19.7318110138       32.5597590850       15.0688931596
C         18.3529980726       29.7402669481       11.7589570671
N         20.2104804834       33.2460113980       16.3025856648
C         18.3252697881       30.5519094475       10.6101993575
C         18.0712217435       28.3665687232       11.6399542455
S         19.7237246873       32.6433502246       17.8285536851
C         21.5897742951       33.7963462611       16.2657722849
C         18.0169354408       29.9974095821        9.3567342298
C         17.7586313059       27.8117108075       10.3879087835
O         20.5893437094       31.4917183911       18.1152605394
O         19.6810115302       33.8275236407       18.6951140053
C         18.0047648453       32.1301029226       17.5842532731
C         21.8899332541       34.7381210228       15.0699203879
C         17.7289545214       28.6277362150        9.2462554698
C         16.9885375161       33.0989586652       17.4724275262
C         17.6742615591       30.7650486406       17.4711679962
C         20.9394938360       35.9570276843       15.0533745227
C         23.3553678712       35.2180138699       15.1300294141
C         15.6587207234       32.7050653400       17.2479210554
C         16.3439844885       30.3731766253       17.2441713386
C         15.3298285213       31.3452563085       17.1307150418
O         14.0085845571       31.0196853278       16.9039694519
C         13.5487745861       29.6652500816       16.7304364406
H         19.2549137925       26.8120022689        5.5083179582
H         20.1354173731       22.9557582035        7.2661603687
H         18.7388314603       22.3178469940        3.8664223462
H         20.1589575981       22.2468441435        4.9415063082
H         18.5112444823       22.1853095454        5.6294389623
H         20.0574616425       27.9212556602        7.5544747063
H         20.9391211056       24.0678812305        9.2993567412
H         21.3628923962       28.7237561805        9.2090188087
H         22.8118020583       27.6628581311        9.1783361985
H         23.2273264341       28.1542758814       11.4052583827
H         21.0361005338       28.8592160240       13.3745181486
H         20.3126742502       31.6438317585       12.5381799925
H         21.6142990520       31.6000342038       14.6027142599
H         18.4799384571       29.6119156707       13.9097134127
H         18.0234811610       31.1895119464       13.3034422233
H         20.7652984456       30.5767656492       16.4647640568
H         19.7540462723       33.2706678778       14.2343798013
H         18.6802197261       32.2715522457       15.1724479788
H         18.5487992906       31.6123586189       10.6884481112
H         18.0978073912       27.7259564393       12.5175388349
H         21.7712840248       34.3662804467       17.1877157731
H         22.3143844786       32.9709934397       16.2648341212
H         17.9988214924       30.6297421596        8.4727352093
H         17.5440435291       26.7491545235       10.3026899070
H         21.7683577343       34.1831317675       14.1298497934
H         17.4857469731       28.1985015992        8.2775567793
H         17.2321384442       34.1559634773       17.5525756772
H         18.4493214413       30.0064391008       17.5505940291
H         19.8920623005       35.6450033127       14.9582181613
H         21.1663783919       36.6188257112       14.2078554647
H         21.0333112189       36.5421967286       15.9771951367
H         23.5480982945       35.7918193409       16.0458233154
H         24.0481664269       34.3668627229       15.1100515251
H         23.5922614210       35.8603277700       14.2720603637
H         14.8781288633       33.4556577996       17.1595696245
H         16.1149735837       29.3158627102       17.1560726378
H         14.0394700935       29.1972178816       15.8671762391
H         13.7579134766       29.0668699495       17.6266105433
H         12.4653497916       29.6555963341       16.5565769713
    84
VM2 Rank=10     G=216.093           E=116.607           -TS=99.487              
C         19.6742909013       24.7041705222        6.3012452031
C         19.1826932576       23.9585856717        5.0828965686
C         19.6134534626       26.1116967507        6.3874369630
C         20.2124525183       23.9876016425        7.3897936345
O         19.2423151306       22.7409439473        5.0164944223
C         18.5998763930       24.7390579717        3.9100387401
C         20.0769392770       26.7801496330        7.5327571490
C         20.6742947173       24.6566730670        8.5351667131
C         20.6056157999       26.0590603698        8.6191182684
N         21.0744621934       26.7381786919        9.7789259574
C         21.8853015901       27.9462220544        9.6809344054
C         20.8642035604       26.3620549303       11.0922915421
C         22.1803107863       28.3105551326       11.1482944967
O         20.2199548783       25.4083395716       11.4942580231
O         21.5245598060       27.2489923922       11.8883955158
C         21.6564648446       29.7059365633       11.5457482932
O         21.7067493423       30.6690180137       10.7986116859
N         21.0727473141       29.7851000124       12.7916832625
C         20.1397221095       30.8450721620       13.1979489412
C         20.5346602078       31.3885582444       14.6001786245
C         18.6793654149       30.3212466870       13.1227549911
O         20.4418450145       30.3433581411       15.5730172217
C         19.6697665769       32.6073593314       15.0194044433
C         18.3337410886       29.6871469965       11.7802494646
N         20.1439192293       33.3269826358       16.2357033553
C         18.2448923267       30.4806672390       10.6219828859
C         18.1069422340       28.3013969261       11.6861344539
S         19.7102139951       32.7246747501       17.7777717084
C         21.4992122555       33.9310532163       16.1659168039
C         17.9302023591       29.8962691455        9.3837750832
C         17.7881517907       27.7164579918       10.4494406397
O         20.6286857273       31.6142694029       18.0626473804
O         19.6329987566       33.9173851457       18.6301102796
C         18.0104944169       32.1360438885       17.5715548260
C         21.7384438380       34.8703145771       14.9544655045
C         17.6970780788       28.5144281694        9.2983047005
C         17.7363707185       30.7568994735       17.4808534510
C         16.9521887701       33.0595405297       17.4664052045
C         20.7398321787       36.0501450518       14.9436270733
C         23.1843894712       35.4088019342       14.9807053337
C         16.4202281598       30.3062509952       17.2823733937
C         15.6366137158       32.6069198479       17.2705104293
C         15.3638617584       31.2330412095       17.1753488627
O         14.0539415098       30.8490012019       16.9760618234
C         13.6495525244       29.4743781673       16.8246622765
H         19.2073456288       26.7025268058        5.5718555134
H         20.2742618116       22.9027771966        7.3494926249
H         17.7251844569       25.3114640126        4.2388587507
H         19.3514256388       25.4279435880        3.5082267609
H         18.2924941927       24.0487040269        3.1158594683
H         20.0125707227       27.8638465391        7.5732798172
H         21.0880453498       24.0782123552        9.3572473973
H         21.3251119788       28.7455550195        9.1791856203
H         22.8137311793       27.7417552643        9.1331141806
H         23.2599823485       28.2921921504       11.3403049586
H         21.0883040326       28.9398366315       13.3496876550
H         20.2322590832       31.6788869208       12.4881847375
H         21.5791702218       31.7185567601       14.5236304492
H         18.5139542006       29.5952650893       13.9290192191
H         17.9804718214       31.1441494052       13.3118127536
H         20.8129465567       30.6884246094       16.4183557143
H         19.6478258560       33.3083563051       14.1765377337
H         18.6326466111       32.2791560260       15.1467030098
H         18.4256184355       31.5504823937       10.6809242208
H         18.1809867484       27.6749127754       12.5711704505
H         21.6755516978       34.5181984259       17.0780142389
H         22.2559769458       33.1351026172       16.1594475347
H         17.8645470546       30.5148263385        8.4923180793
H         17.6161252949       26.6448289467       10.3834225622
H         21.6211240954       34.3002285160       14.0229301106
H         17.4487449692       28.0619494840        8.3416095505
H         18.5442270736       30.0328026941       17.5554265780
H         17.1520014160       34.1268420170       17.5293696554
H         19.7041097402       35.6955806507       14.8722593316
H         20.8277729302       36.6490140315       15.8592104075
H         20.9238336933       36.7108316035       14.0868946769
H         23.9101755480       34.5857208430       14.9562114474
H         23.3789076636       36.0501994289       14.1114713468
H         23.3715314823       36.0002382717       15.8863866225
H         16.2348911112       29.2391611046       17.2110343357
H         14.8233992075       33.3226358380       17.1871467901
H         14.1448101905       29.0181880763       15.9576729019
H         13.8995747320       28.8953554758       17.7230742474
H         12.5646853985       29.4166700666       16.6701905779
    84
VM2 Rank=11     G=216.130           E=117.121           -TS=99.009              
C         21.5498686645       25.1403905038        5.7580885965
C         21.7079619630       24.5922403530        4.3593696287
C         21.1335549483       26.4681953099        5.9945236010
C         21.8226614740       24.3145414784        6.8679065031
O         22.0716995440       23.4431293206        4.1648420144
C         21.4084013158       25.4893189419        3.1635750407
C         20.9933882889       26.9523115212        7.3057357384
C         21.6805558113       24.7988597222        8.1786631088
C         21.2593896169       26.1208589469        8.4091286585
N         21.1144977972       26.6136112385        9.7364144040
C         21.6007632469       27.9351426142       10.1162389393
C         20.5468662132       25.9439614930       10.8045009800
C         21.3056558769       28.0130267575       11.6240151056
O         20.0471830522       24.8320625058       10.8007720032
O         20.6373578774       26.7541671628       11.8970900178
C         20.4528918147       29.2415817720       11.9952679183
O         20.8197496536       30.3835686869       11.7771164177
N         19.2098150124       28.9672900291       12.5227419837
C         18.0702330279       29.8934476707       12.4306941784
C         17.7746840557       30.5843566772       13.7909057104
C         16.8459275940       29.1291394323       11.8696468074
O         16.6731765192       31.4850742368       13.6542025148
C         19.0082601008       31.3670568860       14.3160973201
C         17.1503334855       28.4136528003       10.5582076324
N         18.7723503131       32.1986777546       15.5319363373
C         17.3853038035       29.1550567261        9.3857687838
C         17.2165049609       27.0087121733       10.5111018487
S         18.0105292813       31.3929377994       16.8422065153
C         19.9081772706       33.1010165636       15.8727812204
C         17.6798518673       28.4998462758        8.1784705460
C         17.5078305329       26.3525481266        9.3036810906
O         16.5818714280       31.4174832808       16.5019035003
O         18.7547914853       30.1445868212       17.0469573298
C         18.2277086262       32.4684330678       18.2834545519
C         20.3550695292       34.0707273526       14.7455613534
C         17.7383244912       27.0977139010        8.1368267481
C         17.3891923068       33.5860866949       18.4651581137
C         19.2473897815       32.2089042098       19.2203846010
C         19.1756250364       34.9251314163       14.2264638478
C         21.4805681394       34.9929560724       15.2607942418
C         17.5672394398       34.4350357554       19.5709503426
C         19.4233225568       33.0588002917       20.3252694612
C         18.5881118291       34.1726109984       20.5066417605
O         18.8108107119       34.9711488041       21.6093130625
C         18.0285496543       36.1445998531       21.9046299198
H         20.9127660817       27.1380909497        5.1689125502
H         22.1474732021       23.2881652215        6.7152033492
H         22.0686136754       26.3638402298        3.1768081612
H         21.5713139664       24.9373684475        2.2305143781
H         20.3655742522       25.8241910803        3.1986441907
H         20.6627387163       27.9758853906        7.4580653743
H         21.9011271728       24.1404812717        9.0150143564
H         21.0559437381       28.7166044170        9.5707002705
H         22.6767651488       28.0232310361        9.9199107078
H         22.2423325094       28.0713947592       12.1918315050
H         19.0097400891       27.9838064791       12.6583820740
H         18.3210254183       30.6853242928       11.7105493992
H         17.5198947045       29.7969386651       14.5134034343
H         16.4905506076       28.4128334954       12.6210679103
H         16.0192005199       29.8332447583       11.7109232556
H         16.4242088947       31.7444716550       14.5726666161
H         19.8132714309       30.6498314725       14.5234372536
H         19.3459357947       31.9937319451       13.4840092200
H         17.3412268140       30.2406086351        9.4116723261
H         17.0454176864       26.4227603384       11.4101517096
H         19.6402033262       33.7389401039       16.7227148713
H         20.7714558538       32.4972767283       16.1851970707
H         17.8608222367       29.0782846991        7.2760898412
H         17.5618512496       25.2669540321        9.2747107601
H         20.7712167852       33.4940841673       13.9084004880
H         17.9668209130       26.5891359413        7.2035223623
H         16.6019998461       33.7985923556       17.7452605992
H         19.9046629006       31.3521184039       19.0910387115
H         18.7301529137       35.5167280306       15.0363743118
H         19.5092178580       35.6177365104       13.4433930393
H         18.3868424404       34.2950566877       13.7956615858
H         21.1336593913       35.6164043796       16.0951237761
H         22.3399064589       34.4057558193       15.6094229999
H         21.8344318319       35.6602801014       14.4644077699
H         16.9097216578       35.2905870815       19.6890688857
H         20.2113377360       32.8561405535       21.0453839780
H         16.9721815841       35.8811757454       22.0448661980
H         18.3903868547       36.6149466066       22.8276699371
H         18.1077631199       36.8779834785       21.0916995155
    84
VM2 Rank=12     G=216.141           E=116.635           -TS=99.505              
C         19.6078312649       24.8541667908        6.1389903913
C         19.1030250555       24.2310927361        4.8588012881
C         19.6279816963       26.2575379091        6.2729807194
C         20.0668403968       24.0693432780        7.2187011401
O         18.7090325404       24.9187591740        3.9300959407
C         19.0823428925       22.7129491609        4.7202954006
C         20.0913061715       26.8620437133        7.4529195859
C         20.5289350020       24.6748798312        8.3992516295
C         20.5403253463       26.0756001847        8.5294612369
N         21.0095584786       26.6872458164        9.7261035658
C         21.8924841348       27.8473943805        9.6952658498
C         20.7340749166       26.2817767081       11.0185096476
C         22.1574507260       28.1469304350       11.1828986258
O         20.0229378993       25.3548967755       11.3669353929
O         21.4182217908       27.1014838144       11.8649950442
C         21.6993729705       29.5565082231       11.6104614215
O         21.8290427216       30.5386294571       10.8984995298
N         21.0788673786       29.6289617638       12.8389191658
C         20.1935268407       30.7271153388       13.2505499134
C         20.5733282909       31.2062538014       14.6800384894
C         18.7096595784       30.2891900362       13.1147758797
O         20.3934313226       30.1400883002       15.6172584470
C         19.7622115731       32.4571624195       15.1117142759
C         18.3723791005       29.7199196413       11.7414195941
N         20.2520342423       33.1275731157       16.3496795875
C         18.3661287534       30.5544234840       10.6088282993
C         18.0715756016       28.3531607642       11.5928513750
S         19.7691065597       32.5113221108       17.8712532324
C         21.6352676865       33.6680613307       16.3115813013
C         18.0602327736       30.0294244185        9.3421350870
C         17.7614731424       27.8278170684       10.3275213859
O         20.6191204451       31.3429768546       18.1362629356
O         19.7516136409       33.6841892293       18.7539352816
C         18.0399948905       32.0296662721       17.6353057960
C         21.9377201209       34.6173778890       15.1222735809
C         17.7532640304       28.6665975788        9.2021127899
C         17.0398779566       33.0169688920       17.5374248523
C         17.6847661206       30.6714877384       17.5178615613
C         20.9963708048       35.8434401487       15.1195305113
C         23.4069248199       35.0858544507       15.1804441962
C         15.6996871269       32.6516360428       17.3235570125
C         16.3448374185       30.3084002032       17.3027035873
C         15.3480176193       31.2919539870       17.2042246995
O         14.0508026791       30.8742784316       16.9899215530
C         12.9410154779       31.7834602998       16.8567491990
H         19.2809774704       26.8866910604        5.4568784519
H         20.0714535188       22.9852067640        7.1567093163
H         18.6877917515       22.4313800123        3.7370147629
H         20.0979244624       22.3138747412        4.8211456259
H         18.4440884338       22.2748644288        5.4959039365
H         20.0888744181       27.9458099714        7.5273026033
H         20.8808852011       24.0473797994        9.2141676030
H         21.3978118836       28.6941241299        9.2024833631
H         22.8257532406       27.6052822720        9.1715437403
H         23.2272237865       28.0607772534       11.4088632420
H         21.0280070324       28.7667418695       13.3681291497
H         20.3544693551       31.5751686593       12.5704990839
H         21.6360162900       31.4802077028       14.6439915013
H         18.4793978642       29.5476831499       13.8904491126
H         18.0518532686       31.1435888956       13.3115572273
H         20.7646782572       30.4368879494       16.4807597578
H         19.7872005055       33.1756159032       14.2837818748
H         18.7085886392       32.1766298521       15.2171914606
H         18.6044334869       31.6097086678       10.7099313356
H         18.0813317892       27.6950489064       12.4577566149
H         21.8248497949       34.2290988618       17.2373379721
H         22.3537835930       32.8374796796       16.3010137591
H         18.0587639247       30.6793003483        8.4707642978
H         17.5321082403       26.7704367526       10.2194667128
H         21.8083799830       34.0710220978       14.1781845652
H         17.5119840640       28.2602271814        8.2231232585
H         17.3045677710       34.0686240637       17.6214011893
H         18.4459229946       29.8978253421       17.5856666670
H         21.0983545010       36.4203665574       16.0476601695
H         21.2247677889       36.5103794633       14.2784703966
H         19.9462428109       35.5400711690       15.0261998050
H         23.6075637328       35.6506357971       16.1001418280
H         24.0932637127       34.2297704487       15.1506795847
H         23.6452186351       35.7334427568       14.3268387962
H         14.9470249536       33.4302659217       17.2498459668
H         16.0757675464       29.2599463459       17.2088982271
H         12.8203345388       32.3840203752       17.7676324299
H         13.0922273093       32.4571722330       16.0033955785
H         12.0130653588       31.2218417584       16.6905331986
    84
VM2 Rank=13     G=216.145           E=116.643           -TS=99.502              
C         19.6580377452       24.7501404067        6.2140462504
C         19.1645465567       24.0328444347        4.9795857898
C         19.6165085506       26.1566941848        6.3243158131
C         20.1783263995       24.0072155355        7.2935838767
O         19.2072619790       22.8157984747        4.8924683933
C         18.6013438428       24.8417442782        3.8164480510
C         20.0813933108       26.7985389644        7.4842005224
C         20.6415780196       24.6496991325        8.4535156353
C         20.5922428999       26.0512557391        8.5613339985
N         21.0626052284       26.7033996736        9.7358746277
C         21.8926803887       27.9001688848        9.6643435677
C         20.8366348003       26.3084236432       11.0410528294
C         22.1809682548       28.2358310188       11.1398674520
O         20.1751105766       25.3578908570       11.4219407073
O         21.5042525007       27.1716211559       11.8569548356
C         21.6736026118       29.6317496308       11.5563841922
O         21.7437173260       30.6062849896       10.8258818619
N         21.0807298508       29.6985971436       12.7987197657
C         20.1596519233       30.7651279235       13.2150034080
C         20.5530249967       31.2833465051       14.6270834903
C         18.6929234517       30.2628588107       13.1227737738
O         20.4401500969       30.2264424058       15.5850325259
C         19.7009837828       32.5067500681       15.0587507536
C         18.3470849686       29.6576888471       11.7670088409
N         20.1912828652       33.2169138628       16.2741628920
C         18.1032920644       28.2768951676       11.6463048196
C         18.2759311383       30.4730745940       10.6227770589
S         19.7693629437       32.6067635866       17.8162042100
C         21.5498618004       33.8126348085       16.1948119924
C         17.7851799585       27.7185390557       10.3972034089
C         17.9619001083       29.9152442919        9.3722070750
O         20.6727880790       31.4787378056       18.0791784288
O         19.7238110227       33.7924108963       18.6806217754
C         18.0566471245       32.0508782182       17.6288122288
C         21.7853919799       34.7538429605       14.9841166340
C         17.7118666680       28.5382672175        9.2601724626
C         17.7553056210       30.6775755443       17.5401149390
C         17.0145464922       32.9946457488       17.5398360899
C         20.7946542923       35.9403523632       14.9848970076
C         23.2350580407       35.2826487508       15.0000080502
C         16.4269467665       30.2564579327       17.3621782319
C         15.6860467987       32.5712927036       17.3632512007
C         15.3882865900       31.1966076858       17.2725657054
O         14.1048624072       30.7227210461       17.0953570674
C         12.9556171767       31.5833830511       16.9750477593
H         19.2245079686       26.7672872789        5.5164239792
H         20.2250264666       22.9224775007        7.2348327755
H         17.7324317336       25.4207345938        4.1490386162
H         19.3654308333       25.5267396300        3.4320070421
H         18.2900635186       24.1697043624        3.0082034481
H         20.0320968627       27.8821810341        7.5432103700
H         21.0412979077       24.0512859967        9.2682264221
H         21.3491760304       28.7161817069        9.1711737955
H         22.8224259430       27.6902018943        9.1208530467
H         23.2586804888       28.1989605284       11.3400532527
H         21.0796674230       28.8440455594       13.3426110401
H         20.2679998144       31.6078427737       12.5181090034
H         21.6021976910       31.6003595158       14.5607694982
H         18.5132090939       29.5249421147       13.9150493948
H         18.0042981437       31.0918194092       13.3228879969
H         20.8184904636       30.5528914101       16.4346421577
H         19.6769258819       33.2119807917       14.2194968385
H         18.6626318329       32.1849591705       15.1936861098
H         18.1635755170       27.6336270829       12.5202865540
H         18.4699313368       31.5392312343       10.7022258295
H         21.7375940397       34.3960440288       17.1070184575
H         22.3014923118       33.0119626723       16.1799748949
H         17.5999322660       26.6505776203       10.3106749637
H         17.9099488805       30.5506029034        8.4917284966
H         21.6567413554       34.1872685305       14.0519256675
H         17.4640191525       28.1063845376        8.2938774886
H         18.5491843004       29.9369614393       17.6014287493
H         17.2373535741       34.0574788268       17.6017534125
H         19.7559971161       35.5929915043       14.9213011343
H         20.8943345318       36.5360772487       15.9013279173
H         20.9759098160       36.6021709512       14.1284520722
H         23.4266757740       35.9253294776       14.1310771387
H         23.4335868027       35.8701311081       15.9058385660
H         23.9551288557       34.4548547947       14.9671026050
H         16.1993973814       29.1964907772       17.2904557672
H         14.9003125910       33.3171231341       17.2957436325
H         12.0481206879       30.9816091709       16.8392037498
H         12.8312233991       32.1927875890       17.8795345922
H         13.0590898600       32.2491786713       16.1084594554
    84
VM2 Rank=14     G=216.151           E=117.690           -TS=98.461              
C         21.6230047703       24.9630860779        5.7903176512
C         21.8093351701       24.3918163046        4.4043832926
C         21.2622817473       26.3119393476        5.9971221339
C         21.8118457708       24.1380651497        6.9180637012
O         22.1243499397       23.2243843682        4.2356415513
C         21.6009820102       25.2883510937        3.1889751177
C         21.0943034901       26.8173975360        7.2969689920
C         21.6419833938       24.6438137536        8.2173715948
C         21.2764039727       25.9870391840        8.4180824283
N         21.1038906723       26.5016072590        9.7337415576
C         21.6378726113       27.8028617986       10.1193665983
C         20.4639656899       25.8721963124       10.7853026948
C         21.2915692554       27.9108357500       11.6143748715
O         19.9113464954       24.7856913814       10.7726316622
O         20.5516740345       26.6894796940       11.8728200475
C         20.4883311821       29.1839169828       11.9439985197
O         20.9137104194       30.3038301973       11.7178226898
N         19.2210587039       28.9766356714       12.4433887655
C         18.1291787707       29.9537184174       12.3095027718
C         17.8188843245       30.6599892177       13.6581274339
C         16.8919212817       29.2447208142       11.7056979785
O         16.7550050717       31.6006201664       13.4894103278
C         19.0643022894       31.3958940876       14.2208254577
C         17.2100963558       28.5097516613       10.4083161832
N         18.8033020064       32.2328062776       15.4200258324
C         17.5274430180       29.2337401419        9.2444149653
C         17.2066801695       27.1030884940       10.3664660935
S         17.9536451346       31.5071181676       16.7222064796
C         19.8866890731       33.2057374449       15.6971130309
C         17.8347861423       28.5597775219        8.0507006358
C         17.5106140371       26.4283261960        9.1724769809
O         16.5372382403       31.6595092852       16.3653024027
O         18.5869432936       30.1971495015       16.9143152254
C         18.2867924618       32.5100703402       18.1960649352
C         19.3640761538       34.6611108536       15.7803693073
C         17.8234893000       27.1563357720        8.0140063707
C         19.4306566405       32.2630344574       18.9813573720
C         17.3923641819       33.5283519844       18.5832315367
C         20.4732376291       35.6011298664       16.2956971138
C         18.8448646179       35.1477191717       14.4090891574
C         19.6895914221       33.0441799144       20.1199011744
C         17.6532292246       34.3090335769       19.7223449271
C         18.8082047050       34.0706283578       20.4937951124
O         19.1171429804       34.8061986301       21.6191813495
C         18.3057121447       35.8973118174       22.0956859741
H         21.1067102783       26.9820132959        5.1569178968
H         22.0925247273       23.0956319045        6.7883645144
H         20.5749299397       25.6730231607        3.1789368498
H         22.3015171042       26.1304377001        3.2203136810
H         21.7739842494       24.7185503089        2.2685466451
H         20.8079161828       27.8573740855        7.4261108101
H         21.7976432830       23.9854021567        9.0681726613
H         21.1507741920       28.6029004630        9.5468206401
H         22.7233012214       27.8384066440        9.9623215534
H         22.2084591171       27.9280503233       12.2161996895
H         18.9715635938       28.0058611083       12.5884070860
H         18.4410360732       30.7319576089       11.5984641865
H         17.5131805198       29.8856480533       14.3750293160
H         16.4762624615       28.5492049633       12.4456252084
H         16.1053728806       29.9858698014       11.5147503439
H         16.5033031739       31.8923827248       14.3971307973
H         19.8351810440       30.6516435454       14.4603212382
H         19.4643050660       32.0254290436       13.4147216697
H         17.5375471356       30.3202209898        9.2664923811
H         16.9716126856       26.5300446595       11.2593623608
H         20.4158119980       32.9396691805       16.6201167627
H         20.6425685512       33.1728271349       14.9004109293
H         18.0795365666       29.1248258558        7.1549028551
H         17.5104561195       25.3412837821        9.1476883334
H         18.5303033187       34.7095885470       16.4899348110
H         18.0615003250       26.6332200149        7.0911762363
H         20.1218722659       31.4701026756       18.7049414707
H         16.4984271051       33.7217537191       17.9946887997
H         20.1057347169       36.6321888461       16.3763351826
H         20.8167064951       35.2916716259       17.2914531661
H         21.3388795877       35.6011250828       15.6207357651
H         18.4683814217       36.1763361615       14.4755818164
H         19.6405739572       35.1253041903       13.6536051357
H         18.0217796671       34.5151323987       14.0517332025
H         20.5771781711       32.8549081977       20.7173197653
H         16.9536175616       35.0929761376       19.9946916839
H         18.7529007673       36.3317118677       22.9987136467
H         18.2316934680       36.6858525842       21.3356046284
H         17.2955760977       35.5486052827       22.3466181591
    84
VM2 Rank=15     G=216.160           E=117.137           -TS=99.023              
C         21.5586521222       25.1493762843        5.7530948486
C         21.7059173966       24.6528339393        4.3340685614
C         21.1458952191       26.4765269100        5.9900280722
C         21.8241045334       24.3195768670        6.8637162658
O         21.4740302198       25.3785078051        3.3800143636
C         22.1517357042       23.2164810807        4.0840537729
C         20.9998380210       26.9625729197        7.2994892284
C         21.6761589105       24.8061105693        8.1734062868
C         21.2577638132       26.1293566853        8.4032073082
N         21.1078579161       26.6213209340        9.7302709935
C         21.5943531833       27.9418748397       10.1131891456
C         20.5346165467       25.9517798788       10.7954442522
C         21.2958991072       28.0176849406       11.6204071006
O         20.0329321434       24.8407871339       10.7886243612
O         20.6222604819       26.7607586395       11.8891650913
C         20.4472027101       29.2487174129       11.9926899313
O         20.8186181481       30.3897535139       11.7772877780
N         19.2023268856       28.9780110329       12.5177383592
C         18.0660599645       29.9081015639       12.4244273659
C         17.7690153594       30.5970970734       13.7852494647
C         16.8409244909       29.1490951692       11.8580126652
O         16.6708256951       31.5016938259       13.6474774542
C         19.0038132858       31.3746088323       14.3152741723
C         17.1476482355       28.4339850552       10.5468868808
N         18.7674999798       32.2041611977       15.5324265820
C         17.3925525600       29.1759115956        9.3768116833
C         17.2067536868       27.0287857060       10.4979731827
S         17.9991486696       31.3979503229       16.8385920935
C         19.9053323416       33.1019647142       15.8785112052
C         17.6901814542       28.5209875059        8.1701226823
C         17.5010517967       26.3729230599        9.2911054228
O         16.5713565180       31.4303751677       16.4953227978
O         18.7370795404       30.1454265587       17.0407926143
C         18.2189820455       32.4674581585       18.2839001358
C         20.3592259895       34.0721784473       14.7545214418
C         17.7417339269       27.1186439301        8.1266579806
C         19.2366193614       32.2005316394       19.2209777504
C         17.3846101691       33.5876865464       18.4688106072
C         19.1845137329       34.9318555599       14.2333959317
C         21.4864609289       34.9893359148       15.2749854980
C         19.4147207313       33.0457288314       20.3291098072
C         17.5648273311       34.4319348882       19.5778517174
C         18.5836759529       34.1621271236       20.5136527154
O         18.8084499731       34.9558710245       21.6193591740
C         18.0307732166       36.1315492004       21.9178952529
H         20.9343120223       27.1378358415        5.1532844893
H         22.1468404181       23.2918577091        6.7265008503
H         22.2049760219       23.0224869101        3.0064068141
H         23.1421518352       23.0501263017        4.5225062702
H         21.4364279372       22.5187369883        4.5338797849
H         20.6716299018       27.9872204165        7.4495229992
H         21.8904312729       24.1474026682        9.0111862132
H         21.0511086166       28.7244295545        9.5676218003
H         22.6708257147       28.0296262788        9.9193015795
H         22.2315319980       28.0709945164       12.1904383218
H         18.9985210277       27.9949759824       12.6510986018
H         18.3215627796       30.7007139890       11.7067557725
H         17.5097064420       29.8089959937       14.5053879951
H         16.4801539838       28.4332281381       12.6072779982
H         16.0174540486       29.8565177563       11.6971180090
H         16.4205596415       31.7605151300       14.5657525444
H         19.8059789500       30.6543117855       14.5229977994
H         19.3456053222       32.0020828598       13.4854681818
H         17.3540605762       30.2616389041        9.4041277777
H         17.0280161329       26.4423930835       11.3952428668
H         19.6367706991       33.7392608740       16.7287403990
H         20.7655207500       32.4946798188       16.1925753219
H         17.8790688092       29.0997919467        7.2695893637
H         17.5496595593       25.2871140694        9.2607671274
H         20.7758846211       33.4956051664       13.9175643380
H         17.9728380112       26.6103778756        7.1937754254
H         19.8906699925       31.3416491395       19.0892234065
H         16.5989952295       33.8058657815       17.7488873241
H         18.7387536111       35.5236254893       15.0430206570
H         19.5230376890       35.6246452768       13.4526064835
H         18.3947269758       34.3054839517       13.7990523710
H         22.3425824835       34.3983605573       15.6251452675
H         21.8452052384       35.6568784544       14.4809689817
H         21.1392376509       35.6124588944       16.1094266823
H         20.2011915918       32.8373901163       21.0492929380
H         16.9105453875       35.2896282962       19.6983854807
H         16.9731601130       35.8720611862       22.0560640749
H         18.3935537486       36.5971708590       22.8429585393
H         18.1139518188       36.8674098780       21.1076034444
    84
VM2 Rank=16     G=216.181           E=117.146           -TS=99.035              
C         21.6019605801       25.1311590172        5.7952247815
C         21.7598109475       24.6214646032        4.3820129799
C         21.1701509203       26.4548989975        6.0167772877
C         21.8760416253       24.3171552524        6.9154024172
O         21.5201657121       25.3334623964        3.4196080115
C         22.2264547759       23.1889362539        4.1486295744
C         21.0139314957       26.9529424150        7.3205434139
C         21.7179249817       24.8156631193        8.2193892198
C         21.2805634329       26.1353448163        8.4338294475
N         21.1202836720       26.6394226427        9.7551116195
C         21.5878623977       27.9704456347       10.1251106346
C         20.5530037240       25.9736768314       10.8258362382
C         21.2831464677       28.0587935145       11.6303935972
O         20.0667427884       24.8558342081       10.8296870287
O         20.6262929184       26.7955762129       11.9109521783
C         20.4159181434       29.2818320676       11.9859479503
O         20.7720607621       30.4254806270       11.7589217547
N         19.1730936813       28.9995854267       12.5098058008
C         18.0242410633       29.9125123698       12.4020428384
C         17.7134704485       30.6138262922       13.7534950139
C         16.8114775972       29.1296633910       11.8414793407
O         16.6034561712       31.5015391470       13.6012775481
C         18.9358221147       31.4146074143       14.2777159225
C         17.1318547616       28.4034856093       10.5397409844
N         18.6841172331       32.2559514181       15.4836347934
C         17.2106087085       26.9987681361       10.5075945405
C         17.3698818369       29.1349235950        9.3616687284
S         17.9219647091       31.4557287791       16.7971040791
C         19.8082555066       33.1735257430       15.8225520562
C         17.5175002353       26.3329059900        9.3093687216
C         17.6801087980       28.4700471134        8.1636276628
O         16.4948572867       31.4661684228       16.4496484389
O         18.6750409205       30.2150457625       17.0158036369
C         18.1253383489       32.5442609724       18.2306204263
C         20.2554000799       34.1338343879       14.6874111457
C         17.7512979844       27.0681451115        8.1368812617
C         17.2735371139       33.6528685957       18.4037369464
C         19.1476855071       32.3037828643       19.1701413020
C         19.0725278464       34.9713072270       14.1488843556
C         21.3683960926       35.0722737730       15.2005317432
C         17.4439384028       34.5091981115       19.5044066324
C         19.3162348878       33.1617758148       20.2705430542
C         18.4622652872       34.2701358923       20.4407621824
O         18.5815803008       35.1464432333       21.4995363790
C         19.5877317307       35.0156007957       22.5226063294
H         20.9515484711       27.1041307550        5.1724139427
H         22.2133909860       23.2926123017        6.7901013594
H         23.2178717893       23.0412377012        4.5914788973
H         21.5197489741       22.4860571416        4.6040215041
H         22.2854500757       22.9841885379        3.0732746691
H         20.6710755088       27.9744592909        7.4586926876
H         21.9391298061       24.1690776674        9.0647770667
H         21.0362869566       28.7397208369        9.5691219272
H         22.6637616660       28.0703181158        9.9339239020
H         22.2159271429       28.1316823145       12.2029265502
H         18.9825882315       28.0153498629       12.6535682044
H         18.2708255820       30.6998402858       11.6754881396
H         17.4626503024       29.8310762775       14.4824249820
H         16.4587055918       28.4177182808       12.5982530397
H         15.9785972516       29.8234533627       11.6700081992
H         16.3469204514       31.7685956538       14.5154581701
H         19.7470063515       30.7079585351       14.4969670071
H         19.2717807663       32.0363125776       13.4412143737
H         17.0373937573       26.4205445809       11.4112270785
H         17.3162298541       30.2202564821        9.3760468662
H         19.5267528253       33.8190459362       16.6623629515
H         20.6747095487       32.5821089725       16.1494077493
H         17.5812392159       25.2475956677        9.2919852574
H         17.8635690850       29.0407819961        7.2568443599
H         20.6834713471       33.5511167816       13.8605225540
H         17.9921047599       26.5521968830        7.2106931773
H         16.4837693994       33.8522218717       17.6829419818
H         19.8143278789       31.4534783993       19.0458566168
H         18.6155435854       35.5686572348       14.9480928343
H         19.4060849632       35.6573517161       13.3600439626
H         18.2926866546       34.3290864129       13.7197575467
H         21.0092303113       35.7023131322       16.0246631356
H         22.2301916770       34.4970755658       15.5628306618
H         21.7225639231       35.7333753213       14.3991068152
H         16.7857123995       35.3639479412       19.6336722321
H         20.1111992229       32.9570390759       20.9807530048
H         19.4862391132       35.8261429542       23.2553241055
H         19.4810418843       34.0595538653       23.0513413870
H         20.5935587916       35.0710094956       22.0864622338
    84
VM2 Rank=17     G=216.209           E=117.737           -TS=98.472              
C         21.6585308515       24.9798249502        5.8136858528
C         21.8502261445       24.4030543840        4.4307655287
C         21.2715976214       26.3225091768        6.0130917126
C         21.8688755705       24.1664259555        6.9460620186
O         22.1883199021       23.2411879435        4.2683994591
C         21.6179674226       25.2868259933        3.2103491937
C         21.0990692188       26.8332468794        7.3102702459
C         21.6944241463       24.6774104031        8.2427155796
C         21.3026621244       26.0143145963        8.4360855063
N         21.1251414261       26.5341219792        9.7490214586
C         21.6343116534       27.8484331749       10.1237774333
C         20.5019472715       25.8991779423       10.8072879966
C         21.2897659872       27.9605079062       11.6188936996
O         19.9717509958       24.8014892491       10.8042676529
O         20.5768306920       26.7256727902       11.8887957653
C         20.4602450197       29.2186559394       11.9406993256
O         20.8614975098       30.3456009207       11.7055499738
N         19.1983727587       28.9883744672       12.4437363771
C         18.0858593051       29.9410915665       12.3040472174
C         17.7640379168       30.6532973806       13.6468752557
C         16.8620850202       29.2007762849       11.7104293745
O         16.6812747031       31.5708023851       13.4714724779
C         18.9953529290       31.4191472746       14.2005199854
C         17.1915658273       28.4616066806       10.4182905152
N         18.7205990872       32.2626568116       15.3921556797
C         17.4890169652       29.1821556616        9.2470266615
C         17.2180844700       27.0548860941       10.3884727860
S         17.8896230049       31.5317446923       16.7034971271
C         19.7900178089       33.2537221155       15.6594762761
C         17.8062216275       28.5046494423        8.0579087227
C         17.5319149126       26.3765091900        9.1991012088
O         16.4698286084       31.6404659825       16.3440057904
O         18.5581852783       30.2423377794       16.9141935172
C         18.1910594741       32.5653107806       18.1629443108
C         19.2473247199       34.7023943947       15.7301259238
C         17.8247865730       27.1010223983        8.0332340189
C         17.2684273928       33.5647499919       18.5317473183
C         19.3386656895       32.3610970054       18.9555014084
C         20.3450724051       35.6626933395       16.2323794013
C         18.7171220922       35.1681787010       14.3558152828
C         17.5075794686       34.3666293497       19.6602349781
C         19.5762884746       33.1643027566       20.0839250684
C         18.6602139232       34.1749361567       20.4380004737
O         18.8421350861       34.9950094245       21.5322581129
C         19.9901209204       34.9109917083       22.3989063270
H         21.0988872011       26.9836193776        5.1691427541
H         22.1699426663       23.1289999861        6.8220657897
H         22.3014614590       26.1430885897        3.2325352438
H         21.7980490711       24.7143244396        2.2929597198
H         20.5843052547       25.6506170265        3.2027521548
H         20.7922215786       27.8680633717        7.4337149428
H         21.8669348171       24.0280222014        9.0971928879
H         21.1302285974       28.6346021096        9.5467478476
H         22.7184393163       27.9040900337        9.9636142618
H         22.2076218924       28.0021386822       12.2180457425
H         18.9696577313       28.0136662240       12.5964178137
H         18.3794558962       30.7190463092       11.5849631071
H         17.4752215938       29.8796441039       14.3714947860
H         16.4636140446       28.5030078608       12.4576556251
H         16.0593420110       29.9233599099       11.5157610690
H         16.4236282188       31.8632261639       14.3773310550
H         19.7811059229       30.6924785392       14.4456305990
H         19.3815863819       32.0485752102       13.3876385417
H         17.4758789952       30.2687548424        9.2597743578
H         16.9985949177       26.4846625769       11.2871233621
H         20.3236316212       33.0034404918       16.5843143920
H         20.5457264663       33.2244645971       14.8624538967
H         18.0354663538       29.0670502601        7.1563621936
H         17.5549254605       25.2895389565        9.1835929197
H         18.4153389794       34.7464699573       16.4420846198
H         18.0704968187       26.5751758421        7.1139793577
H         16.3713209568       33.7267140013       17.9386098399
H         20.0507334858       31.5823175204       18.6919851403
H         19.9635351204       36.6893022517       16.3041918190
H         20.6960574096       35.3678825664       17.2299333863
H         21.2083940277       35.6680559762       15.5544728115
H         18.3268504635       36.1921865074       14.4133534815
H         19.5106375915       35.1490527869       13.5979357802
H         17.9015991216       34.5209154452       14.0075200577
H         16.7975403662       35.1417305631       19.9351572162
H         20.4712121097       32.9923190014       20.6736289100
H         19.9170148374       35.6642885126       23.1934753524
H         20.0494054516       33.9208651422       22.8690932363
H         20.9146920197       35.0939561515       21.8361663564
    84
VM2 Rank=18     G=216.229           E=117.765           -TS=98.464              
C         21.6033579852       24.9992251369        5.7574234010
C         21.7702598396       24.4823289123        4.3478688156
C         21.2334933057       26.3430423155        5.9700122765
C         21.8082843534       24.1723555058        6.8829451770
O         21.5907947954       25.2056074935        3.3807818854
C         22.1696303869       23.0280800965        4.1241816713
C         21.0704370188       26.8482438344        7.2701877027
C         21.6433553727       24.6781143616        8.1832894289
C         21.2679169435       26.0181652345        8.3886464548
N         21.1010310048       26.5296686240        9.7062761609
C         21.6247856290       27.8359730997       10.0888584923
C         20.4761471102       25.8928601832       10.7624406431
C         21.2922410863       27.9377208453       11.5874210106
O         19.9341735565       24.8009625478       10.7530853295
O         20.5650460951       26.7096938950       11.8501906944
C         20.4820646654       29.2034112473       11.9282750454
O         20.8956304634       30.3272959747       11.6998948569
N         19.2220017569       28.9845239545       12.4407680650
C         18.1203661889       29.9522295422       12.3192935393
C         17.8163416501       30.6525545461       13.6724018070
C         16.8839590615       29.2338435020       11.7249094550
O         16.7427450081       31.5841826497       13.5157748707
C         19.0604642458       31.3980260774       14.2252835583
C         17.1973137631       28.5036854109       10.4236323660
N         18.8033260409       32.2297480130       15.4289200241
C         17.5013392736       29.2321717237        9.2589805882
C         17.2032745256       27.0971144219       10.3789263667
S         17.9722724038       31.4934705810       16.7371513221
C         19.8807046481       33.2114672501       15.6983294273
C         17.8049616553       28.5627238530        8.0617894961
C         17.5033927675       26.4268468787        9.1814417333
O         16.5513143743       31.6341205161       16.3937744169
O         18.6189019718       30.1887242331       16.9201825932
C         18.3101754538       32.4958541256       18.2103117818
C         19.3461861741       34.6619947041       15.7901659070
C         17.8031782376       27.1593181460        8.0223154738
C         17.4104249980       33.5052742915       18.6082045988
C         19.4634680725       32.2571851045       18.9843190303
C         20.4518663653       35.6104341729       16.2974856621
C         18.8098939791       35.1473984812       14.4250448148
C         17.6749629341       34.2855880204       19.7467229610
C         19.7260696010       33.0379526708       20.1222808521
C         18.8391652488       34.0556848495       20.5068007273
O         19.1519615918       34.7912290916       21.6311369877
C         18.3353183967       35.8739038804       22.1178725275
H         21.0688995701       27.0025520932        5.1213685754
H         22.0965792712       23.1321206607        6.7646528220
H         21.4172719595       22.3617443208        4.5609983613
H         22.2448490176       22.8207116079        3.0503418878
H         23.1410458128       22.8304524755        4.5912300963
H         20.7764178561       27.8858056932        7.4011792271
H         21.8108439275       24.0211295269        9.0329966326
H         21.1231466924       28.6315025867        9.5225977209
H         22.7081225388       27.8837092818        9.9209751424
H         22.2148931126       27.9608638530       12.1801726142
H         18.9823068439       28.0113646282       12.5863674172
H         18.4188453633       30.7349145811       11.6073977600
H         17.5240869759       29.8738809853       14.3902173552
H         16.4805640923       28.5336262843       12.4671851098
H         16.0896076357       29.9686674971       11.5419804712
H         16.4969774601       31.8716742430       14.4264782716
H         19.8400363573       30.6600038845       14.4557518303
H         19.4474016737       32.0329619519       13.4170394961
H         17.5041883423       30.3186492962        9.2831967220
H         16.9785995050       26.5206857670       11.2723179564
H         20.4207697685       32.9477727033       16.6156601896
H         20.6293342001       33.1871526640       14.8945043000
H         18.0396185287       29.1311922271        7.1654443865
H         17.5106087038       25.3398856445        9.1544351953
H         18.5187131674       34.7014229705       16.5076196045
H         18.0385518820       26.6397769988        7.0967425259
H         16.5093721444       33.6921048405       18.0284553880
H         20.1590748210       31.4710666661       18.6995836175
H         21.3110983527       35.6197055859       15.6144459630
H         20.0761232347       36.6380233712       16.3842096402
H         20.8073691235       35.3015334743       17.2891830164
H         19.5986469809       35.1338418921       13.6620915628
H         17.9890708745       34.5084845536       14.0737941588
H         18.4250455922       36.1724989455       14.4976757051
H         16.9709920060       35.0626378552       20.0274597888
H         20.6208169626       32.8551727837       20.7109745478
H         18.7869498844       36.3100222864       23.0178556198
H         18.2473066413       36.6636341981       21.3605228735
H         17.3306702965       35.5156150784       22.3771976702
    84
VM2 Rank=19     G=216.232           E=117.202           -TS=99.030              
C         21.6100867784       25.1174136843        5.8068680571
C         21.7855548779       24.5552589429        4.4158012829
C         21.1749405426       26.4423422156        6.0248291375
C         21.8853618466       24.3080439639        6.9281544930
O         22.1653584595       23.4087483596        4.2372889443
C         21.4835169617       25.4345978774        3.2075219254
C         21.0189805539       26.9397263323        7.3292749762
C         21.7274683088       24.8055977757        8.2321277240
C         21.2876722580       26.1246104880        8.4441387283
N         21.1270115974       26.6308257649        9.7645067098
C         21.5941199529       27.9626102603       10.1323241638
C         20.5601130926       25.9664990410       10.8362938778
C         21.2882284981       28.0537691130       11.6371954610
O         20.0742112374       24.8485165978       10.8419347033
O         20.6327776707       26.7903106424       11.9200065391
C         20.4190333953       29.2764165172       11.9892906604
O         20.7741274664       30.4200733996       11.7606715186
N         19.1758301207       28.9936313344       12.5119431323
C         18.0262422287       29.9053724734       12.4020948378
C         17.7139452859       30.6081875548       13.7524285097
C         16.8145485934       29.1205849354       11.8419467613
O         16.6031148475       31.4945803967       13.5984511280
C         18.9351343699       31.4109058692       14.2764083811
C         17.1360601781       28.3933953358       10.5410577978
N         18.6817262706       32.2531894582       15.4813068686
C         17.3708075902       29.1237232613        9.3616415505
C         17.2185937589       26.9888531376       10.5109091761
S         17.9195313951       31.4534068565       16.7950192208
C         19.8043930480       33.1726386235       15.8199856517
C         17.6813554634       28.4579057806        8.1641949145
C         17.5259187120       26.3220424099        9.3133278002
O         16.4925090007       31.4633411181       16.4471953860
O         18.6729057159       30.2130113917       17.0143308948
C         18.1227052134       32.5423425474       18.2282655943
C         20.2512960369       34.1320539539       14.6839950775
C         17.7561651654       27.0561494161        8.1394349459
C         17.2699315860       33.6501373050       18.4018056444
C         19.1458163332       32.3029076321       19.1672230561
C         19.0678391454       34.9673611422       14.1433865252
C         21.3626737852       35.0725479656       15.1968641589
C         17.4401185181       34.5066747705       19.5023505777
C         19.3141500630       33.1611046536       20.2674964285
C         18.4591862619       34.2686273948       20.4381609881
O         18.5782059044       35.1450487558       21.4968754631
C         19.5847319100       35.0149135501       22.5196706266
H         20.9515871374       27.0997329940        5.1899095626
H         22.2245067901       23.2842805038        6.7897459949
H         20.4362319692       25.7563126696        3.2309884145
H         22.1323032297       26.3176913641        3.2155330258
H         21.6605739682       24.8741397502        2.2821420431
H         20.6741268927       27.9606373444        7.4673305717
H         21.9504208095       24.1598713695        9.0776620414
H         21.0429834461       28.7308323014        9.5744590494
H         22.6701726960       28.0621618931        9.9418358828
H         22.2204574198       28.1292296860       12.2102913479
H         18.9862272912       28.0094603247       12.6572963219
H         18.2725631857       30.6918950677       11.6745770826
H         17.4634690770       29.8261153952       14.4822013990
H         16.4622964653       28.4090374976       12.5993368145
H         15.9809450104       29.8132635025       11.6695000583
H         16.3458929906       31.7627283847       14.5121188231
H         19.7469990729       30.7054227560       14.4968845891
H         19.2708478157       32.0321059660       13.4394338316
H         17.3141873738       30.2089256083        9.3744924020
H         17.0478950705       26.4115033808       11.4155796907
H         19.5212849890       33.8188833915       16.6587044457
H         20.6713220184       32.5827658644       16.1483629106
H         17.8620806442       29.0278235688        7.2563590471
H         17.5925355529       25.2368763181        9.2974867023
H         20.6808024836       33.5488046322       13.8582258483
H         17.9970689879       26.5393832938        7.2137799997
H         16.4795540013       33.8486878800       17.6814583864
H         19.8132108042       31.4532410937       19.0426065799
H         19.4012102520       35.6527898252       13.3539325458
H         18.2891439438       34.3236258164       13.7144479096
H         18.6094533468       35.5651888978       14.9414345667
H         21.7167209052       35.7330474342       14.3948893384
H         21.0019962520       35.7032139183       16.0198553635
H         22.2248662121       34.4988998785       15.5606756481
H         16.7811256296       35.3607819201       19.6319612426
H         20.1097087305       32.9571643855       20.9772702606
H         19.4828071857       35.8253238384       23.2524746545
H         19.4789260189       34.0587448418       23.0483647479
H         20.5904013067       35.0711294928       22.0832676782
    84
VM2 Rank=20     G=216.236           E=117.753           -TS=98.483              
C         21.6549710422       24.9909096230        5.8025216659
C         21.8333841574       24.4658106984        4.3974156893
C         21.8643708804       24.1744607955        6.9348077807
C         21.2691828934       26.3319678818        6.0038999119
O         21.6498804998       25.1800972669        3.4244210768
C         22.2497444578       23.0145208456        4.1858310446
C         21.6882805107       24.6876144964        8.2307895435
C         21.0949441105       26.8445716076        7.2997157068
C         21.2969030096       26.0247731545        8.4249470683
N         21.1185176158       26.5437615756        9.7381529789
C         21.6255493289       27.8587451580       10.1134867521
C         20.4961508887       25.9075434583       10.7961692934
C         21.2834112230       27.9684062538       11.6093331383
O         19.9673260984       24.8091844160       10.7926091114
O         20.5702853252       26.7334650402       11.8781598122
C         20.4553566545       29.2264865815       11.9351038150
O         20.8563339981       30.3535874120       11.7002238274
N         19.1948436183       28.9960168937       12.4414292910
C         18.0819560288       29.9486786298       12.3043995193
C         17.7617498955       30.6590430789       13.6485578127
C         16.8577042023       29.2089990999       11.7109519594
O         16.6781171945       31.5760479626       13.4759709075
C         18.9935364952       31.4250233030       14.2009684450
C         17.1865045106       28.4706822863       10.4181289611
N         18.7202237911       32.2672483242       15.3938401290
C         17.2097752766       27.0639393256       10.3865581348
C         17.4873078949       29.1920073161        9.2481929778
S         17.8921732459       31.5344892296       16.7059983582
C         19.7892870367       33.2589795119       15.6601291114
C         17.5237585679       26.3863303380        9.1967835123
C         17.8048088111       28.5152617432        8.0587319247
O         16.4716658154       31.6421108932       16.3489999924
O         18.5623460494       30.2455723788       16.9145690669
C         18.1950405573       32.5672678834       18.1657100519
C         19.2455224435       34.7071474491       15.7329256059
C         17.8202848557       27.1116355282        8.0323273280
C         17.2720405776       33.5655236256       18.5367900996
C         19.3442006453       32.3636472886       18.9561669610
C         20.3433831319       35.6679602890       16.2339495977
C         18.7124180939       35.1736035577       14.3599643961
C         17.5123267823       34.3668672227       19.6654159729
C         19.5829631868       33.1663247600       20.0847285764
C         18.6664976065       34.1758124342       20.4410562357
O         18.8494916924       34.9953547462       21.5355323552
C         19.9994792980       34.9125186354       22.3996344996
H         22.1647664999       23.1367025108        6.8251956136
H         21.1007742486       26.9835007915        5.1498597547
H         21.5031236400       22.3430234636        4.6245830472
H         22.3314610405       22.8002544641        3.1138214376
H         23.2214559201       22.8310981846        4.6580283502
H         21.8594959438       24.0386314732        9.0858843157
H         20.7886652364       27.8796454233        7.4219710010
H         21.1184841707       28.6443217229        9.5382449733
H         22.7092398556       27.9171373452        9.9513474612
H         22.2023296320       28.0081824133       12.2069806269
H         18.9663582179       28.0211439649       12.5934494692
H         18.3745650288       30.7277233986       11.5861000240
H         17.4746129857       29.8843737233       14.3727606901
H         16.4595723550       28.5107653157       12.4579235100
H         16.0549870571       29.9318649916       11.5172241098
H         16.4218130134       31.8672966837       14.3825874303
H         19.7800992024       30.6985560121       14.4440820584
H         19.3781061886       32.0554439864       13.3880675547
H         16.9877457019       26.4930994998       11.2841892210
H         17.4767605005       30.2786156054        9.2622727212
H         20.3247152246       33.0083731875       16.5838293410
H         20.5436351478       33.2310127178       14.8617728967
H         17.5442690732       25.2993346516        9.1799253139
H         18.0368459005       29.0782220455        7.1582389938
H         18.4148026728       34.7499634037       16.4464357645
H         18.0663627850       26.5864584502        7.1127373333
H         16.3737653935       33.7270091489       17.9452940554
H         20.0565928647       31.5857630449       18.6908893132
H         19.9611108314       36.6941879577       16.3073021397
H         20.6964455270       35.3726293752       17.2306166196
H         21.2054533812       35.6746058810       15.5544621149
H         18.3214027758       36.1972394651       14.4190488128
H         19.5045566003       35.1557542911       13.6006154003
H         17.8967931713       34.5259509498       14.0126336609
H         16.8019907991       35.1410761369       19.9420800458
H         20.4790666570       32.9948314183       20.6727819867
H         20.0612774760       33.9221929604       22.8690756065
H         20.9225477213       35.0972274404       21.8350000329
H         19.9269610278       35.6652110631       23.1948305837
    84
VM2 Rank=21     G=216.246           E=116.623           -TS=99.622              
C         20.6594340794       26.8918560370        5.5223693967
C         20.4619259644       26.6659382955        4.0418821709
C         19.9699161944       27.9385934333        6.1678972114
C         21.5221877223       26.0809456461        6.2908481287
O         19.7134346166       27.3730247362        3.3858469076
C         21.2097487516       25.5320970628        3.3494005165
C         20.1347927023       28.1692195035        7.5433570011
C         21.6853314028       26.3113243322        7.6671537725
C         20.9894622812       27.3532455876        8.3067830520
N         21.1557045223       27.5863317179        9.7010325744
C         21.3129823376       28.9344158878       10.2348274305
C         21.2131769676       26.6263506997       10.6944368959
C         21.5456731362       28.7064486975       11.7382696537
O         21.1030308885       25.4192053751       10.5651295421
O         21.4171958795       27.2680513511       11.8797337704
C         20.5517086401       29.4897281212       12.6171827379
O         20.4344316459       30.7014956663       12.5537649524
N         19.7481087498       28.7251781665       13.4348443956
C         18.4311460355       29.1699010231       13.9186904099
C         18.4548223772       29.4880757462       15.4404313574
C         17.3755799123       28.1010753614       13.5399244141
O         17.1434938779       29.8490390659       15.8777815840
C         19.4458667964       30.6390951963       15.7680658571
C         17.4020107185       27.7452995755       12.0574365162
N         19.7317323681       30.8304864717       17.2182304844
C         17.0050559048       28.6919121610       11.0951593676
C         17.8390752006       26.4754747439       11.6367650400
S         18.6496316311       31.7604558918       18.1605954296
C         20.3472535534       29.6802597375       17.9294052317
C         17.0412680792       28.3722712297        9.7276413088
C         17.8720742092       26.1536220907       10.2697952440
O         17.4980960203       30.8952294947       18.4492389414
O         19.4849994744       32.3317342665       19.2240985410
C         18.1885928812       33.1414632240       17.0854045340
C         21.6156796546       29.0913225040       17.2560477105
C         17.4720404049       27.1013559345        9.3149518781
C         19.1100263387       34.1760605234       16.8317108973
C         16.9182824758       33.1817317097       16.4772803741
C         22.7325080233       30.1511908476       17.1192337023
C         22.1345360455       27.8863156077       18.0683928109
C         18.7629683886       35.2376559885       15.9793714043
C         16.5734411569       34.2438988046       15.6240531027
C         17.4978794368       35.2775622190       15.3719580104
O         17.2155126778       36.3430964281       14.5424041158
C         15.9621798745       36.4909638353       13.8471716221
H         19.2988211101       28.5788859095        5.6005300769
H         22.0746433998       25.2657219731        5.8332452744
H         22.2908622030       25.6811933819        3.4484049844
H         20.9353156577       24.5719762729        3.8007409905
H         20.9521408293       25.5085166660        2.2840951117
H         19.5832323944       28.9785197648        8.0134052528
H         22.3588621008       25.6745469905        8.2350798113
H         20.4015105797       29.5224802303       10.0656592697
H         22.1729332199       29.4365340808        9.7739090830
H         22.5589140574       29.0206028492       12.0172997874
H         19.9265470301       27.7289245071       13.3990111754
H         18.1593998766       30.0982101990       13.3963817487
H         18.7795212737       28.5765085660       15.9587742165
H         17.5353361837       27.2033132083       14.1501867914
H         16.3749737361       28.4680985278       13.8014143033
H         17.1717723730       29.9395688162       16.8594180109
H         20.3926070896       30.4378478239       15.2559359819
H         19.0707631175       31.5620362486       15.3102413945
H         16.6701755564       29.6771646821       11.4083928461
H         18.1567242782       25.7367464262       12.3676915077
H         20.6277062164       29.9958250547       18.9439752455
H         19.6016605595       28.8826944710       18.0483814114
H         16.7336976989       29.1081311281        8.9890317989
H         18.2145744562       25.1721523520        9.9509502399
H         21.3577030325       28.7201476750       16.2547831466
H         17.5005366533       26.8523893450        8.2570369461
H         20.0953999245       34.1530225419       17.2916268794
H         16.1992730486       32.3866376995       16.6603184098
H         22.4065587543       30.9968222840       16.5009825221
H         23.0238493645       30.5453039277       18.1012634433
H         23.6249596555       29.7205345260       16.6477258967
H         22.4217248833       28.1865109403       19.0844850859
H         21.3658103330       27.1069519251       18.1485626835
H         23.0133155162       27.4388362120       17.5864519399
H         19.4772093466       36.0329788271       15.7848689738
H         15.5899751857       34.2515981130       15.1648352057
H         15.1289377421       36.5535407339       14.5590283028
H         15.9711375666       37.4100222176       13.2476783019
H         15.7909886153       35.6423124502       13.1722727089
    84
VM2 Rank=22     G=216.278           E=116.657           -TS=99.620              
C         20.1877431105       26.7531542154        5.4964922640
C         19.8743847825       26.3405651969        4.0775241472
C         19.3609241519       27.6457454293        6.2119723821
C         21.3349876427       26.2410940583        6.1365834212
O         20.5972065217       25.5698847675        3.4658193648
C         18.6312018850       26.8960549540        3.3917110082
C         19.6750518454       28.0121612957        7.5312071647
C         21.6474398659       26.6066653678        7.4562678296
C         20.8169508719       27.4915163502        8.1673443049
N         21.1321631630       27.8640590412        9.5043766620
C         21.0232348722       29.2464987573        9.9560408367
C         21.5845065673       27.0261086863       10.5068320974
C         21.5355938154       29.1979116978       11.4057232331
O         21.7651551762       25.8223523921       10.4407009508
O         21.8002577843       27.7869640542       11.6171827781
C         20.5232750958       29.7785227046       12.4117597080
O         20.0925758383       30.9157594760       12.3260581239
N         20.0781016717       28.9054802035       13.3805034542
C         18.7838177106       29.0498285932       14.0662726922
C         18.9645093818       29.4764174576       15.5504773871
C         17.9876982596       27.7302660701       13.9079888372
O         17.6905259504       29.5342570120       16.1944994592
C         19.6668315183       30.8575869599       15.6665520100
C         17.8718643093       27.2816170121       12.4552735828
N         20.1266131699       31.2167750447       17.0379962672
C         18.5461178980       26.1297897300       12.0090413096
C         17.1021432915       28.0270567650       11.5434196525
S         19.0097491078       31.9117814304       18.1303910578
C         21.1251574015       30.3095708305       17.6606284695
C         18.4458486966       25.7240527308       10.6679242852
C         17.0042280732       27.6241714036       10.2011407198
O         18.1801460805       30.8102613242       18.6367546411
O         19.8317322761       32.7437376952       19.0177700477
C         18.0435643766       33.0587943723       17.1172142730
C         22.3741169870       30.0070572793       16.7901034139
C         17.6738940598       26.4702587314        9.7639330897
C         16.7234520520       32.7425679345       16.7398340206
C         18.6170307515       34.2686202155       16.6799015581
C         23.1431149129       31.2982697733       16.4284914004
C         23.3110993867       29.0301324295       17.5309362527
C         15.9851896603       33.6256112977       15.9334101385
C         17.8769625378       35.1506026518       15.8747167611
C         16.5619661685       34.8354525784       15.4972735733
O         15.8861512343       35.7389104657       14.7033630654
C         14.5397200860       35.5260535632       14.2365923034
H         18.4677922454       28.0636865859        5.7572277040
H         21.9912800198       25.5537377460        5.6082907877
H         18.5541660857       26.4963261381        2.3738338040
H         17.7345102397       26.6095801940        3.9527195941
H         18.6895664388       27.9890462410        3.3387256757
H         19.0161494597       28.6947111863        8.0605580202
H         22.5405837593       26.1990137418        7.9228464435
H         19.9777035817       29.5795867494        9.9225080074
H         21.6460079791       29.9065716950        9.3391600697
H         22.4662468459       29.7710181158       11.4986948415
H         20.4966821722       27.9837863808       13.3502568463
H         18.2075012813       29.8420584673       13.5676431773
H         19.5889710892       28.7142155556       16.0343500193
H         18.4627770152       26.9470218105       14.5119324353
H         16.9801986289       27.8602661668       14.3231274960
H         17.8498347977       29.6979999834       17.1539081777
H         20.5367198973       30.8616457842       15.0014798760
H         18.9978141201       31.6235785285       15.2568827414
H         19.1512489484       25.5485193719       12.6995611073
H         16.5810572667       28.9208519589       11.8759572168
H         21.4776008305       30.7569455258       18.6004237788
H         20.6395632104       29.3625480928       17.9317577293
H         18.9723502169       24.8353250438       10.3284811336
H         16.4081205676       28.2045106755        9.5015124124
H         22.0595644619       29.5124379927       15.8609900167
H         17.5988244722       26.1568030568        8.7256670137
H         16.2704377176       31.8092947475       17.0660686762
H         19.6370312959       34.5210071580       16.9608248834
H         22.5140510832       31.9899008148       15.8544812295
H         23.4804809814       31.8218552220       17.3321653604
H         24.0263657437       31.0698279536       15.8186271540
H         22.7923274410       28.0921945926       17.7674121896
H         24.1839705011       28.7813334579       16.9137201168
H         23.6741672916       29.4644270687       18.4714713854
H         14.9709856884       33.3589632346       15.6533492258
H         18.3234688747       36.0821897514       15.5381332750
H         13.8466001423       35.4309301556       15.0824581602
H         14.2163988431       36.3755708878       13.6218369288
H         14.4810867627       34.6169185742       13.6241906718
    84
VM2 Rank=23     G=216.302           E=116.697           -TS=99.604              
C         20.0685602715       26.7587103994        5.4794057388
C         19.7249393198       26.3020952562        4.0810787287
C         21.2974965589       26.3789339069        6.0569705395
C         19.1901882895       27.5632658144        6.2366468199
O         20.4926586449       25.6086923829        3.4326950815
C         18.3933112888       26.7137759385        3.4632632181
C         21.6398081611       26.7876565565        7.3564343798
C         19.5340666610       27.9730394387        7.5355490663
C         20.7583704362       27.5840469898        8.1095096552
N         21.1035875273       28.0000955560        9.4261370061
C         20.8709163506       29.3667408990        9.8790660781
C         21.6971073263       27.2244039543       10.4047680723
C         21.4628599458       29.3860920157       11.2988109484
O         22.0025770264       26.0464940025       10.3323216432
O         21.8891506388       28.0136788087       11.4995266293
C         20.4494258810       29.8632204678       12.3567746292
O         19.8962150695       30.9476458819       12.2924222636
N         20.1517454448       28.9549312370       13.3493889068
C         18.8874951131       28.9658794947       14.1029592810
C         19.0989239536       29.4231837702       15.5739239224
C         18.2309659991       27.5670146020       13.9923833199
O         17.8610179926       29.3523456743       16.2836827928
C         19.6562041197       30.8717426949       15.6475923618
C         18.0869324344       27.0951690307       12.5495878323
N         20.1435242729       31.2912540968       16.9921284203
C         18.8577833431       26.0193998930       12.0710932731
C         17.1926208662       27.7441204797       11.6785657667
S         19.0158366001       31.8771699008       18.1361017802
C         21.2617280537       30.5001848389       17.5679406108
C         18.7303744789       25.5928496006       10.7387674611
C         17.0671471799       27.3206222449       10.3449541674
O         18.3329446765       30.7005442107       18.6903401324
O         19.7892746881       32.8002711483       18.9756910542
C         17.8852675330       32.9059630379       17.1671167233
C         22.4907512576       30.3216837792       16.6368991242
C         17.8341407204       26.2423545984        9.8757231881
C         16.5870802167       32.4514760338       16.8629350404
C         18.3077605725       34.1625543446       16.6907123601
C         23.1005306218       31.6827815179       16.2307815595
C         23.5610693826       29.4559782717       17.3341239801
C         15.7239643658       33.2468508676       16.0907791869
C         17.4426484694       34.9569637176       15.9188529579
C         16.1445315834       34.4991598302       15.6155833057
O         15.2532664893       35.2336397039       14.8609583783
C         15.5672301737       36.5253231100       14.3050526143
H         21.9945622454       25.7616606029        5.4954155028
H         18.2337304899       27.8784767977        5.8304660735
H         17.5649133984       26.3371698314        4.0738220864
H         18.3298850271       27.8061495601        3.4037771682
H         18.3046215588       26.2988747609        2.4524304719
H         22.5957768610       26.4827369909        7.7744420488
H         18.8349742083       28.5852335042        8.0983354173
H         19.7953250245       29.5853791555        9.9015870585
H         21.3848766493       30.0844349815        9.2272645467
H         22.3299044079       30.0567628871       11.3393370877
H         20.6639518178       28.0827591064       13.2983837520
H         18.2036887033       29.6869216836       13.6329271818
H         19.8248366560       28.7357719872       16.0273089676
H         18.8191779629       26.8449261952       14.5724844554
H         17.2388772490       27.5918297368       14.4608322987
H         18.0509752695       29.5430275087       17.2324706001
H         20.4864944490       30.9606239159       14.9392453659
H         18.8902841781       31.5587494027       15.2687188364
H         19.5589127945       25.5137052513       12.7295518678
H         16.5958180629       28.5789945210       12.0360677886
H         21.6113776535       30.9915437660       18.4865752152
H         20.8926422258       29.5102180003       17.8677908438
H         19.3316138775       24.7635298639       10.3740749032
H         16.3745404262       27.8262532720        9.6769339352
H         22.1842319623       29.7874999424       15.7272062148
H         17.7379524270       25.9130489104        8.8441263401
H         16.2486697304       31.4811553960       17.2187168588
H         19.3100375478       34.5199889375       16.9160222638
H         23.9715622102       31.5421890972       15.5782550108
H         22.3743817511       32.2987237184       15.6859121953
H         23.4253012386       32.2479649197       17.1137739730
H         23.1563733120       28.4711868059       17.6009196288
H         24.4235430045       29.2940024319       16.6748354643
H         23.9226458010       29.9353828426       18.2530740005
H         14.7243442865       32.8916526778       15.8561215676
H         17.7910806428       35.9209542468       15.5617770192
H         14.7070050633       36.9122463812       13.7442995379
H         15.8085361378       37.2417241104       15.1009763699
H         16.4209656897       36.4546783194       13.6186600408
    84
VM2 Rank=24     G=216.312           E=116.698           -TS=99.614              
C         20.4869499834       26.9114981250        5.4765245496
C         20.2220598424       26.6288736207        4.0164402602
C         21.5015759704       26.2406602439        6.1927529644
C         19.7072592019       27.8699353306        6.1556963241
O         19.3421372875       27.2147349828        3.4056248680
C         21.0677546457       25.5906633363        3.2875478967
C         21.7247531536       26.5207190664        7.5513056732
C         19.9320411790       28.1504361511        7.5132878902
C         20.9390026656       27.4733681912        8.2251227179
N         21.1661129013       27.7569454893        9.6013266810
C         21.1745629176       29.1251986831       10.1061455203
C         21.4206326626       26.8352464739       10.6000358340
C         21.5372262503       28.9633319436       11.5923248654
O         21.4669604873       25.6217405497       10.4936910327
O         21.6154826560       27.5241572182       11.7601051614
C         20.5076629283       29.6242119556       12.5289329951
O         20.2225940168       30.8074336195       12.4590395948
N         19.8728752696       28.7761024675       13.4102078556
C         18.5437200414       29.0495139548       13.9802198108
C         18.6277306576       29.3997167844       15.4927732165
C         17.6198302231       27.8404949997       13.6890179835
O         17.3125045789       29.5886965637       16.0177964632
C         19.4720523226       30.6811366563       15.7364420587
C         17.5937678902       27.4600223733       12.2126609838
N         19.8312363592       30.9373220228       17.1600285447
C         18.1696701677       26.2519256629       11.7775866990
C         17.0078333349       28.3239500621       11.2692969553
S         18.7006889538       31.7279449049       18.1702065516
C         20.6484661131       29.8958773061       17.8347348759
C         18.1534243182       25.9084442360       10.4155873474
C         16.9944238894       27.9830796635        9.9064992192
O         17.7012236294       30.7198449785       18.5480606154
O         19.5225839049       32.4262548790       19.1662387161
C         17.9816130843       33.0146902457       17.1200721794
C         21.9344729957       29.4727957269       17.0755400577
C         17.5647814499       26.7732203605        9.4798455801
C         18.7358714183       34.1570489412       16.7875116028
C         16.6759783915       32.8750577788       16.6099760186
C         22.8821652190       30.6724132751       16.8471713073
C         22.6709633495       28.3658653806       17.8587664064
C         18.1917563139       35.1495443632       15.9543418409
C         16.1340365950       33.8680583731       15.7768752754
C         16.8853413328       35.0066130552       15.4449174688
O         16.3003410437       35.9460730589       14.6212299575
C         16.9698784026       37.1491369445       14.1964895791
H         22.1271264424       25.4972465474        5.7077592351
H         18.9187756645       28.4018255958        5.6287873230
H         20.9569474087       24.6125319753        3.7690406978
H         20.7441287634       25.5094261454        2.2432970616
H         22.1229585611       25.8855133268        3.3086632369
H         22.5152187105       25.9926485943        8.0785372115
H         19.3089968514       28.8883599076        8.0106945980
H         20.1823282341       29.5813719413        9.9939257676
H         21.9251763123       29.7284139747        9.5800319149
H         22.5148282985       29.4172485465       11.7959466816
H         20.1823760220       27.8124877161       13.3741257821
H         18.1134699256       29.9216147397       13.4676361392
H         19.1087377205       28.5515766648       15.9970941685
H         17.9409994864       26.9855993102       14.2972306692
H         16.5987086390       28.0749528566       14.0155750686
H         17.3953949827       29.7014637472       16.9940343698
H         20.3986198776       30.6012857972       15.1583809479
H         18.9419310898       31.5353548614       15.2989099240
H         18.6333951370       25.5783779419       12.4932447590
H         16.5643360742       29.2616285616       11.5934294351
H         20.9546236348       30.2662909709       18.8229870494
H         20.0301735891       29.0063944391       18.0155812208
H         18.6035634446       24.9754277230       10.0852760006
H         16.5405301553       28.6549813865        9.1825077254
H         21.6591209624       29.0505681953       16.0994472970
H         17.5550176846       26.5078654614        8.4255817904
H         19.7467434370       34.2715399772       17.1723630481
H         16.0836065946       31.9960946772       16.8531699340
H         23.7893620474       30.3586415709       16.3153867029
H         22.3996016237       31.4535258569       16.2467069994
H         23.1859776093       31.1214899064       17.8014326703
H         22.0245327930       27.4905041475       18.0024451057
H         23.5662460800       28.0333814562       17.3177649806
H         22.9859945468       28.7220415077       18.8481760612
H         18.7925922757       36.0201116032       15.7108380860
H         15.1276240497       33.7554126066       15.3832820219
H         16.3094916205       37.7373344666       13.5468329601
H         17.2406874107       37.7682155349       15.0615646537
H         17.8801410307       36.9075574647       13.6325293980
    84
VM2 Rank=25     G=216.352           E=117.994           -TS=98.359              
C         21.0850431459       24.4472334443        5.5008247074
C         21.1949824013       23.9582765905        4.0757702455
C         20.6202309641       23.6133008047        6.5404821416
C         21.4545524839       25.7707557363        5.8163553704
O         21.5987549173       24.6873534874        3.1835657937
C         20.7933945029       22.5262234310        3.7406123101
C         20.5256915256       24.0944414897        7.8570910192
C         21.3610269591       26.2504909373        7.1329742520
C         20.8895402361       25.4181769197        8.1645189486
N         20.7946125730       25.9033245388        9.4994423240
C         21.8534557802       26.7092195439       10.0959132079
C         19.7572871941       25.6763522128       10.3844160083
C         21.3548385391       26.9674323795       11.5302080922
O         18.7297107307       25.0545215535       10.1754574947
O         20.0833582879       26.2698133021       11.5668122183
C         21.2077748477       28.4664349732       11.8625663090
O         22.0050681614       29.3087176016       11.4842774153
N         20.0778895304       28.8057255132       12.5750415906
C         19.5091241736       30.1602765375       12.6208561451
C         19.1946805891       30.5487594209       14.0934234253
C         18.2850481161       30.2477587762       11.6692845830
O         18.1929635779       29.6868785698       14.6449204236
C         18.7601752622       32.0301602634       14.2518192086
C         18.5793961085       29.7440735956       10.2604766458
N         18.3918954702       32.4181123607       15.6377195505
C         17.9878816838       28.5560492458        9.7920349330
C         19.4522509100       30.4578814185        9.4190837692
S         19.4573642337       31.9847607330       16.9110277154
C         17.6206827580       33.6815977799       15.7117887645
C         18.2600294870       28.0907701188        8.4948411098
C         19.7287204388       29.9912625229        8.1231013262
O         19.0891487752       30.6026362927       17.2441809201
O         20.7945118536       32.3594111749       16.4356709400
C         19.0496651487       33.0473147192       18.3231459116
C         16.2463552665       33.4892938228       16.3988113995
C         19.1287668013       28.8097840306        7.6591232042
C         18.1615101593       32.5979633541       19.3210732290
C         19.6359260743       34.3229430633       18.4466689137
C         15.5826010300       34.8563213726       16.6635725348
C         15.3145305555       32.5980944500       15.5475833811
C         17.8407713590       33.4236023709       20.4121700852
C         19.3144970024       35.1467252675       19.5382937341
C         18.4154314128       34.7056540166       20.5218641823
O         18.1359794040       35.5600641799       21.5682384020
C         17.2168795677       35.2340560825       22.6288961138
H         20.3281099946       22.5863768831        6.3422107400
H         21.8168649424       26.4349657811        5.0354407661
H         19.7396509799       22.3638314875        3.9938072674
H         20.9326754547       22.3385353613        2.6695538947
H         21.4129707211       21.8214019057        4.3064678645
H         20.1688080519       23.4298668147        8.6398279320
H         21.6485875211       27.2768295717        7.3427870683
H         21.9759800726       27.6502676825        9.5445104717
H         22.8006357428       26.1554063595       10.1029753748
H         22.0448484223       26.5294040448       12.2616014088
H         19.4789297523       28.0387393088       12.8562424591
H         20.2666546339       30.8672657833       12.2549431171
H         20.1302846176       30.4095047161       14.6523168415
H         17.4516721624       29.6786556978       12.1005551279
H         17.9392024141       31.2854888929       11.6043502555
H         18.2058704193       29.8445976621       15.6177498097
H         19.5750828808       32.6743775431       13.8956377822
H         17.8964480653       32.2028058552       13.5988865460
H         17.3189042063       27.9893731926       10.4343703643
H         19.9213243587       31.3720513812        9.7725795741
H         18.1977712376       34.4554407787       16.2320560235
H         17.4348596632       34.0763513828       14.7035778585
H         17.8010974982       27.1711025968        8.1399554244
H         20.4052710575       30.5467820356        7.4786414261
H         16.3897304064       32.9951794151       17.3667781519
H         19.3381571941       28.4503787004        6.6547500487
H         17.7115880663       31.6106042357       19.2461071516
H         20.3349505920       34.6779181307       17.6928293898
H         16.2160151348       35.4804719267       17.3073970745
H         15.4071051684       35.4005301598       15.7265922832
H         14.6165139313       34.7305550657       17.1690449713
H         15.1313219869       33.0441681424       14.5618023166
H         15.7525868696       31.6033541828       15.3927711933
H         14.3452254816       32.4600226788       16.0431678619
H         17.1475455288       33.0578894798       21.1630927238
H         19.7631582870       36.1325177986       19.6246778697
H         16.2122410010       35.0480523285       22.2275166906
H         17.5535581276       34.3423484774       23.1733645557
H         17.1535600328       36.0669780615       23.3404934295
    84
VM2 Rank=26     G=216.357           E=117.844           -TS=98.513              
C         19.6577553410       25.5256401708        6.2251051704
C         19.1367888307       25.0971980737        4.8735151060
C         20.0882541218       24.5518418241        7.1495298671
C         19.7286810124       26.8849398830        6.5986252106
O         19.0825686815       23.9190349578        4.5579687308
C         18.6682373189       26.1547716032        3.8803388447
C         20.5728641460       24.9235427485        8.4143663266
C         20.2153049494       27.2558971276        7.8630529152
C         20.6356157959       26.2790090277        8.7841172627
N         21.1223252439       26.6575922579       10.0665993135
C         22.0580565398       27.7645506187       10.2315372481
C         20.8166267164       26.0532764435       11.2717997619
C         22.3197182082       27.7987324668       11.7470068315
O         20.0707157737       25.1075944075       11.4588267480
O         21.5066358990       26.7067465278       12.2494392527
C         21.9460211605       29.1575775712       12.3693628290
O         22.6129969079       30.1643418847       12.2026385344
N         20.7519772592       29.1892487097       13.0547287810
C         19.9579857755       30.4137839586       13.2250612660
C         20.3936081809       31.1674144485       14.5125597357
C         18.4497552486       30.0531341895       13.1901097590
O         20.1890348241       30.3302991785       15.6475639553
C         19.6563691155       32.5184609248       14.6922721377
C         18.0777463398       29.2426982141       11.9544465482
N         20.1985919864       33.3871526809       15.7752269158
C         17.8350533651       27.8601915795       12.0556600254
C         17.9975567378       29.8678327512       10.6967366789
S         19.6941650342       33.1438656071       17.3956484550
C         21.6082833901       33.8313221027       15.6329166978
C         17.5125799323       27.1117045994       10.9116305561
C         17.6743504745       29.1200135188        9.5522714148
O         20.6257221211       32.2042721005       18.0314220089
O         19.5117697175       34.5073680755       17.9095669794
C         18.0332457171       32.4265399947       17.2876902903
C         21.9581655887       34.4956972570       14.2751292201
C         17.4311120672       27.7413947116        9.6598489839
C         16.9467604544       33.2247947254       16.8783771858
C         17.8148297545       31.0694098548       17.5956035430
C         21.0918227963       35.7492019773       14.0151927747
C         23.4531756058       34.8768189161       14.2428990345
C         15.6621911079       32.6668839529       16.7664302583
C         16.5299410421       30.5120207349       17.4807168488
C         15.4473781197       31.3114495516       17.0622602464
O         14.1662874180       30.8180191663       16.9263961548
C         13.8253741784       29.4367189235       17.1538035912
H         20.0467980692       23.4973837069        6.8875372582
H         19.4065677178       27.6672779945        5.9179909233
H         17.8418138921       26.7319849966        4.3101216189
H         19.4941523640       26.8330178077        3.6380886522
H         18.3221239848       25.6752410537        2.9572744049
H         20.8998980794       24.1514765777        9.1061454787
H         20.2479528828       28.3089003063        8.1280134151
H         21.6096771279       28.7063670954        9.8899097763
H         22.9848547268       27.5700309876        9.6771699724
H         23.3801414873       27.6122367602       11.9567747837
H         20.2702782411       28.3017049898       13.1282962269
H         20.1635344611       31.0720594710       12.3686368681
H         21.4667664987       31.3758933094       14.4084183071
H         18.1805598581       29.4989645243       14.0986374494
H         17.8471244338       30.9688000692       13.2073037819
H         20.6251733542       29.4821459377       15.4255866928
H         19.7116799606       33.0587348802       13.7399831272
H         18.5910700703       32.3232545158       14.8508097334
H         17.8998442707       27.3626738665       13.0196837819
H         18.1884065003       30.9337405730       10.6060964017
H         21.8334666244       34.5578277245       16.4261280339
H         22.2765729911       32.9752022313       15.7980132579
H         17.3331355805       26.0425424879       10.9946955575
H         17.6146833633       29.6079096562        8.5827475532
H         21.7900288972       33.7747846993       13.4634521536
H         17.1866200670       27.1605140290        8.7740071294
H         17.1020094879       34.2744677518       16.6395819083
H         18.6460135950       30.4426397075       17.9105520380
H         21.3515014050       36.2122404106       13.0547314002
H         20.0246049655       35.4970713926       13.9841790396
H         21.2370199924       36.4986314137       14.8038073451
H         23.7231935159       35.3201602718       13.2757962880
H         23.6947582400       35.6044559247       15.0285180076
H         24.0861276198       33.9924404000       14.3919106770
H         14.8283273234       33.2848945750       16.4451857868
H         16.3896116985       29.4616866859       17.7153480447
H         12.7540751923       29.2797972072       16.9754514163
H         14.3864569108       28.7824770209       16.4739366395
H         14.0467938260       29.1479952679       18.1894265936
    84
VM2 Rank=27     G=216.374           E=117.893           -TS=98.480              
C         19.6478132557       25.5289520648        6.2257469952
C         19.1119418504       25.1470536388        4.8660507340
C         19.7103863149       26.8879332444        6.5958855320
C         20.0934316571       24.5593485230        7.1497783989
O         18.7285393949       25.9932659142        4.0739059874
C         19.0455634347       23.6758377106        4.4717406029
C         20.2020668322       27.2696515664        7.8547385002
C         20.5835277901       24.9419921325        8.4096444518
C         20.6371982996       26.2991892502        8.7754384125
N         21.1295536117       26.6856321022       10.0535322944
C         22.0529986751       27.8041965324       10.2093831589
C         20.8409300650       26.0796505964       11.2621533441
C         22.3294838274       27.8415330325       11.7221455745
O         20.1078097624       25.1255114109       11.4567243794
O         21.5314817008       26.7424357281       12.2331061330
C         21.9502285763       29.1972038490       12.3480258788
O         22.6060544819       30.2099755976       12.1736405240
N         20.7634959774       29.2181957632       13.0463381093
C         19.9592904593       30.4351307306       13.2231991859
C         20.3988046048       31.1932823660       14.5067253445
C         18.4543222355       30.0598241500       13.2011470011
O         20.2122532199       30.3544344135       15.6435356126
C         19.6509528413       32.5377724632       14.6922247267
C         18.0805284963       29.2419760678       11.9709183283
N         20.1847727527       33.4054141877       15.7802100294
C         17.8484165433       27.8581635734       12.0789189583
C         17.9886290131       29.8615807356       10.7112828649
S         19.6760582539       33.1544102900       17.3982331800
C         21.5921554500       33.8584095769       15.6437231360
C         17.5248936141       27.1028606182       10.9396692937
C         17.6645125987       29.1069089414        9.5716026822
O         20.6153124600       32.2242759670       18.0366135374
O         19.4761269883       34.5150244934       17.9132710027
C         18.0242761475       32.4172865282       17.2824606821
C         21.9410281946       34.5323038752       14.2903806927
C         17.4320007016       27.7269921424        9.6858944916
C         16.9292473485       33.2039224920       16.8733733888
C         17.8217214707       31.0560867857       17.5832130596
C         21.0678890065       35.7821252856       14.0355239614
C         23.4338492278       34.9223103296       14.2634416442
C         15.6521585021       32.6305445809       16.7542083851
C         16.5443491801       30.4832186225       17.4609990263
C         15.4533533750       31.2710488245       17.0424805718
O         14.1791177479       30.7621909907       16.8993131874
C         13.8554740587       29.3749423107       17.1154570140
H         19.3728268730       27.6560767320        5.9043731135
H         20.0650189035       23.5018779422        6.9045996598
H         20.0499684363       23.2379755801        4.4886076172
H         18.4022448537       23.1295379828        5.1707064119
H         18.6335376587       23.5767455190        3.4606978383
H         20.2269791454       28.3240028944        8.1148990271
H         20.9226600642       24.1757116654        9.1020875176
H         21.5891027822       28.7402706378        9.8726941259
H         22.9765144656       27.6216789612        9.6455365105
H         23.3935852496       27.6644104819       11.9211450806
H         20.2909705626       28.3261764221       13.1252845812
H         20.1511161982       31.0950783268       12.3648827141
H         21.4690525956       31.4118931448       14.3935166385
H         18.1975671205       29.5059181132       14.1134286924
H         17.8429464139       30.9696217042       13.2201586510
H         20.6543687584       29.5104098873       15.4177044225
H         19.7037212553       33.0829958748       13.7425979894
H         18.5869454875       32.3340936366       14.8480345524
H         17.9223980070       27.3649258483       13.0444779345
H         18.1713056087       30.9284577252       10.6153727308
H         21.8113373027       34.5818010208       16.4414473030
H         22.2648910183       33.0051484090       15.8055985700
H         17.3537340963       26.0327597492       11.0278943910
H         17.5960264282       29.5904079062        8.6004385065
H         21.7787085476       33.8149716462       13.4743641691
H         17.1870808145       27.1409555950        8.8035218417
H         17.0721681131       34.2565664856       16.6400231035
H         18.6595665726       30.4381915545       17.8980355045
H         20.0022593183       35.5238376961       14.0006467202
H         21.2068594609       36.5279393644       14.8286737521
H         21.3269743728       36.2520922180       13.0782733912
H         23.6694993502       35.6470332573       15.0535434337
H         24.0716465469       34.0408438375       14.4089947315
H         23.7033136426       35.3725137237       13.2993586749
H         14.8117452026       33.2396288510       16.4329830886
H         16.4163802814       29.4300696347       17.6900007765
H         12.7869354117       29.2053954241       16.9321732914
H         14.4273971162       28.7330742119       16.4328280896
H         14.0770597398       29.0815392814       18.1497258152
    84
VM2 Rank=28     G=216.385           E=118.033           -TS=98.352              
C         21.1359076793       24.5060212701        5.4764670409
C         21.2770605192       24.0445893435        4.0449997691
C         20.6137483933       23.6643973547        6.4821558849
C         21.5337088339       25.8108251839        5.8328762382
O         21.7307649052       24.7800157558        3.1824942473
C         20.8440789761       22.6329299594        3.6653794800
C         20.4911012995       24.1199570510        7.8055368880
C         21.4119941552       26.2649583909        7.1562436976
C         20.8834533231       25.4253464079        8.1536579780
N         20.7596696390       25.8847054678        9.4953293815
C         21.8221156142       26.6450815639       10.1429867570
C         19.6878060971       25.6707625278       10.3415498472
C         21.2830078151       26.8920260278       11.5645845819
O         18.6501310884       25.0837800649       10.0867256080
O         19.9925877237       26.2293254905       11.5464266370
C         21.1650993646       28.3886503396       11.9187821050
O         21.9967463040       29.2151769878       11.5819715371
N         20.0217573992       28.7465456749       12.6000131481
C         19.4888485015       30.1153736455       12.6524828444
C         19.1398670306       30.4878835057       14.1213893278
C         18.2977447776       30.2527677030       11.6656672917
O         18.0982747423       29.6454066116       14.6270774927
C         18.7415824061       31.9780655335       14.2923056721
C         18.6223642228       29.7663066657       10.2574609416
N         18.3416171014       32.3531952015       15.6729473782
C         18.0126310631       28.6045533632        9.7482845251
C         19.5411628457       30.4698522760        9.4573399684
S         19.3559337917       31.8693112585       16.9696667251
C         17.6044352069       33.6369551533       15.7452949262
C         18.3123474926       28.1553276176        8.4515081704
C         19.8451325822       30.0191291389        8.1618932307
O         18.9392046600       30.4932153747       17.2688850761
O         20.7165840070       32.2127467550       16.5395740006
C         18.9381926716       32.9212284634       18.3868210980
C         16.2076716799       33.4750278693       16.3938313815
C         19.2269760565       28.8640993848        7.6570298313
C         18.0142308628       32.4796396786       19.3549107369
C         19.5525876386       34.1799914054       18.5447964012
C         15.5753462883       34.8569346075       16.6583036107
C         15.2743538695       32.6205822432       15.5072755128
C         17.6893295543       33.2993844785       20.4485918889
C         19.2263340269       34.9986718032       19.6394621205
C         18.2879529674       34.5604981124       20.5951811019
O         17.9268680735       35.3214143469       21.6877257550
C         18.4556867491       36.6373429409       21.9421121632
H         20.2981823372       22.6511642385        6.2519500314
H         21.9401512498       26.4804119448        5.0787349940
H         19.7784436485       22.4971888872        3.8818321111
H         21.0118106097       22.4642015898        2.5952435651
H         21.4241230393       21.8976191848        4.2343307045
H         20.0899095656       23.4498595140        8.5616572415
H         21.7223542656       27.2776037023        7.3977260247
H         21.9932848679       27.5918374989        9.6148422178
H         22.7505255598       26.0609769904       10.1710060092
H         21.9361088724       26.4228805464       12.3104241679
H         19.3934391136       27.9916086677       12.8477453395
H         20.2762413245       30.8071607539       12.3223135596
H         20.0536031267       30.3131543288       14.7059021681
H         17.4365567201       29.6989541903       12.0606848145
H         17.9817544026       31.3004616547       11.6092645715
H         18.0851439511       29.7868564910       15.6023907479
H         19.5844494110       32.6050195911       13.9722076446
H         17.9034063292       32.1855383762       13.6166144155
H         17.3079417608       28.0457987467       10.3585735553
H         20.0244143504       31.3635869566        9.8425657808
H         18.1894547293       34.3870153363       16.2908794181
H         17.4558907359       34.0502286328       14.7383270069
H         17.8391020347       27.2558518629        8.0650751955
H         20.5571102870       30.5665526652        7.5494691855
H         16.3114818004       32.9656703385       17.3589436355
H         19.4577702189       28.5171115758        6.6529784866
H         17.5410825155       31.5054677468       19.2549790377
H         20.2792503607       34.5266852959       17.8135348182
H         14.5931124027       34.7523324049       17.1367718403
H         16.2085418878       35.4553579668       17.3262895306
H         15.4398505325       35.4169207227       15.7239845398
H         15.1297007876       33.0834271360       14.5228153666
H         15.6886280812       31.6158960416       15.3512428993
H         14.2888322428       32.5037788609       15.9755989648
H         16.9697886369       32.9577977784       21.1875752577
H         19.7075525987       35.9669625186       19.7346758321
H         19.5457472476       36.5999651314       22.0658650846
H         18.2142261724       37.3184133158       21.1157796951
H         18.0197280310       37.0460485121       22.8624609076
    84
VM2 Rank=29     G=216.389           E=114.616           -TS=101.773             
C         21.0054226200       24.6684797185        7.6767947175
C         21.2451688850       23.8949683510        6.4016428065
C         21.3886919909       26.0229962606        7.7551820210
C         20.4032538707       24.0737948476        8.8065251606
O         21.7664028944       24.4185860721        5.4296856963
C         20.8278212397       22.4307615039        6.3223873551
C         21.1751529374       26.7652737921        8.9280436163
C         20.1884792938       24.8175456787        9.9789559196
C         20.5671651104       26.1705128723       10.0485076544
N         20.3478500446       26.9234173655       11.2360369617
C         21.3665675719       27.8209804225       11.7688876802
C         19.2118033019       26.9032292328       12.0236212196
C         20.7377779779       28.3544500141       13.0664345828
O         18.1862486248       26.2741701903       11.8290636910
O         19.4202921481       27.7475332250       13.0725589759
C         20.6849260706       29.8924767984       13.1038899431
O         21.6744095262       30.5861334940       13.2612364863
N         19.4496169144       30.4506797189       12.8655775558
C         19.2516325830       31.7943177380       12.2975725671
C         19.1041002474       32.8835763669       13.3990810226
C         18.0554892658       31.7610534780       11.3159880627
O         20.3314505036       32.9814958793       14.1171461525
C         17.9172698085       32.6087688666       14.3644086482
C         18.2381691322       30.7121332599       10.2255771142
N         17.8411729352       33.5008463872       15.5547121271
C         19.1239031893       30.9465699651        9.1581900392
C         17.5423657141       29.4901673805       10.2901815611
S         18.6906158395       33.1052179519       16.9929032747
C         17.7136286726       34.9542985210       15.2845637526
C         19.3083123885       29.9725884681        8.1625973421
C         17.7266588233       28.5156223744        9.2956536324
O         19.8777677439       33.9665073137       17.0645205838
O         17.6550533415       33.1369221482       18.0332219283
C         19.2244069607       31.3789172817       16.8249838355
C         16.5263181278       35.3483068444       14.3669582208
C         18.6073209544       28.7578893498        8.2298869141
C         20.5787661847       31.0650617553       16.5970224538
C         18.2838197290       30.3342326448       16.9296227262
C         15.1730368412       34.8989544999       14.9635114565
C         16.5176106807       36.8744678263       14.1387074121
C         20.9806483276       29.7270892967       16.4521884768
C         18.6854158961       28.9966820671       16.7716294465
C         20.0386041583       28.6895458720       16.5271120779
O         20.4883684353       27.3982468981       16.3459970413
C         19.6050424929       26.2645300065       16.2470300862
H         21.8538415784       26.5070061446        6.8998561860
H         20.0951766521       23.0326429725        8.7900564583
H         21.0712626065       22.0243707762        5.3337637286
H         21.3581613409       21.8484657510        7.0842967180
H         19.7480648480       22.3398241762        6.4858201554
H         21.4715915057       27.8101244369        8.9535464072
H         19.7255220960       24.3348714597       10.8359181088
H         21.5645641719       28.6400441804       11.0653019692
H         22.2946132306       27.2734843287       11.9766702123
H         21.3171807003       28.0140439249       13.9328842396
H         18.6937091216       29.7845174686       12.7688247593
H         20.1439669322       32.0501710510       11.7077039835
H         18.9187983469       33.8448888583       12.9017496195
H         17.1243520334       31.5648375588       11.8608406330
H         17.9362354632       32.7504726580       10.8562329765
H         20.8196572822       32.1415127136       13.9408923567
H         16.9900590652       32.7159210031       13.7912073162
H         17.9369526846       31.5586244228       14.6684535482
H         19.6716433304       31.8834597416        9.1017935380
H         16.8604007572       29.2913560368       11.1126085704
H         17.5869561893       35.4842227091       16.2388568949
H         18.6506243165       35.3230042506       14.8447115831
H         19.9941261468       30.1590276090        7.3400476476
H         17.1905494156       27.5714095764        9.3539821646
H         16.6528711949       34.8729732312       13.3851051575
H         18.7513100104       28.0024544533        7.4613893795
H         21.3182520087       31.8588607900       16.5205628707
H         17.2371935527       30.5635955262       17.1162902422
H         15.1345509329       33.8094689512       15.0870560644
H         15.0055317430       35.3548524235       15.9477354327
H         14.3410774886       35.1883012050       14.3089733235
H         17.4601062454       37.2083905333       13.6858874251
H         15.7021868427       37.1647497436       13.4637527550
H         16.3840687868       37.4164032118       15.0839545365
H         22.0250638717       29.4932293877       16.2655658737
H         17.9398739711       28.2109065620       16.8401225850
H         19.0375943979       26.1327141300       17.1772310809
H         18.9000069978       26.3941916083       15.4155851653
H         20.1853100109       25.3508548715       16.0671250267
    84
VM2 Rank=30     G=216.390           E=114.620           -TS=101.770             
C         21.0940514113       24.6918678480        7.6798687342
C         21.3047826622       23.8639257315        6.4341146086
C         21.3779357259       26.0741285628        7.7116654713
C         20.6007919497       24.0805301667        8.8508243097
O         21.0593617988       22.6680773390        6.4171845713
C         21.8348275851       24.5316888232        5.1701712020
C         21.1712062933       26.8211195167        8.8831940143
C         20.3926362787       24.8285392092       10.0212837222
C         20.6711931050       26.2068899172       10.0459828639
N         20.4603015926       26.9666520674       11.2305660392
C         21.4372731106       27.9463816734       11.6919734847
C         19.3721920126       26.8805419149       12.0789974927
C         20.8414161218       28.4586063409       13.0133779791
O         18.3865461573       26.1752710471       11.9508975251
O         19.5733160505       27.7596569833       13.1004210739
C         20.6801072866       29.9893986598       13.0301095990
O         21.6240981077       30.7544672429       13.1225530922
N         19.3969213384       30.4537494033       12.8508427446
C         19.0729553916       31.7683833876       12.2729612916
C         18.9062240721       32.8661432182       13.3632537234
C         17.8318839398       31.6307938223       11.3585363233
O         20.1595609902       33.0645876132       14.0123990812
C         17.7945307445       32.5276023742       14.3954774129
C         18.0311747479       30.5758138134       10.2768923107
N         17.7185287433       33.4347520416       15.5743431947
C         18.8385970840       30.8514237420        9.1584464986
C         17.4302874969       29.3087797680       10.3996714736
S         18.6684649814       33.1268098430       16.9705046815
C         17.4745751456       34.8703615527       15.2892376302
C         19.0388787429       29.8733415237        8.1699498703
C         17.6306058166       28.3301260589        9.4123096642
O         19.7935206691       34.0704762713       16.9651209914
O         17.6894723077       33.1053696643       18.0644737919
C         19.3141656696       31.4394151999       16.8001408195
C         16.2154402592       35.1630944245       14.4314397005
C         18.4323302400       28.6132807117        8.2955467344
C         18.4571728187       30.3333812138       16.9712338574
C         20.6735773199       31.2172455010       16.5044989223
C         14.9307979648       34.6320701440       15.1073565670
C         16.0869502142       36.6803017404       14.1805969312
C         18.9441324582       29.0245978771       16.8123631174
C         21.1615590548       29.9083088156       16.3588317700
C         20.3010512717       28.8087239487       16.5002608047
O         20.8314563543       27.5490185157       16.3148867833
C         20.0271469130       26.3543047661       16.2812375249
H         21.7583906061       26.5851091874        6.8323116171
H         20.3758467564       23.0167460374        8.8554836751
H         21.9263048146       23.7926211750        4.3656814417
H         21.1474308551       25.3218595617        4.8477198008
H         22.8212652365       24.9683369616        5.3628405151
H         21.3883043050       27.8856251170        8.8756728512
H         20.0141650504       24.3300992998       10.9100601880
H         21.5361718038       28.7633769760       10.9654481190
H         22.4129969828       27.4721630207       11.8571238733
H         21.4890130578       28.1768403553       13.8521582299
H         18.6868828346       29.7337846672       12.8057558328
H         19.9119937684       32.0750928314       11.6313914552
H         18.6267594720       33.8019593753       12.8613113267
H         16.9474973855       31.3800431708       11.9563406946
H         17.6176131441       32.5998878756       10.8900382893
H         20.6967963580       32.2580449038       13.8230712198
H         16.8330601264       32.5587869641       13.8716675031
H         17.9045123618       31.4873928659       14.7140745299
H         19.3131110738       31.8237605400        9.0566617686
H         16.8099482326       29.0783290078       11.2616819747
H         17.3615788712       35.4083159356       16.2407509667
H         18.3585722454       35.2949726251       14.7936257719
H         19.6636986019       30.0918933032        7.3076842144
H         17.1681647592       27.3514136492        9.5154514743
H         16.3229799352       34.6790273240       13.4515900602
H         18.5884505036       27.8548740855        7.5324432391
H         17.4081436250       30.4921205847       17.2104347148
H         21.3496193793       32.0594550496       16.3762335574
H         14.0469463711       34.8502344134       14.4945691157
H         14.9758994161       33.5451063040       15.2494801926
H         14.7839916529       35.0939005473       16.0921203376
H         15.2184216837       36.9001305102       13.5465016020
H         15.9658210720       37.2295950867       15.1232662581
H         16.9781805237       37.0703396836       13.6722400627
H         18.2610640676       28.1898117064       16.9328456556
H         22.2087234439       29.7449261019       16.1199297706
H         20.6607061840       25.4804137981       16.0842705057
H         19.5204735498       26.2007542089       17.2426689327
H         19.2717148066       26.4181177320       15.4872356352
