    77
VM2 Rank=1      G=211.625           E=122.918           -TS=88.708              
C         23.2875837187       23.9952594442        6.7203060779
C         22.6281057225       25.2320553295        6.6722426738
C         23.6329217965       23.4377134133        7.9620453895
F         22.2921525894       25.7677793226        5.4807277224
C         22.3118414648       25.9146138616        7.8561418891
C         23.3142438232       24.1184531042        9.1495390576
C         22.6475281660       25.3592095199        9.1063905119
N         22.3245603231       26.0473192293       10.3091710438
C         22.5584530049       27.4795076909       10.4542623425
C         21.7937363167       25.4895530021       11.4572660877
C         22.1227641298       27.7754184799       11.8997276145
O         21.6636483520       26.4849424104       12.3795309150
O         21.4873716818       24.3240724759       11.6406890398
C         21.0373080676       28.8664810677       11.9738188598
O         21.2252220596       30.0038115308       11.5772520655
N         19.8106074129       28.4559404439       12.4492368895
C         18.5440898701       29.1277188283       12.1171892055
C         17.5159591343       28.0620759822       11.6643637598
C         18.0258712094       29.9972535689       13.2967106020
C         18.0416526672       27.1809812817       10.5366958859
C         19.0590471339       31.0811285679       13.7008644261
O         16.7940485510       30.6306402297       12.9445049601
C         18.3655015402       25.8326626192       10.7768463492
C         18.2236685438       27.7152696116        9.2479635864
N         18.5920660405       32.0707667180       14.7065099203
C         18.8589863490       25.0259782203        9.7380637676
C         18.7196000694       26.9100000312        8.2090831436
C         19.4991217824       33.2394842067       14.7992478358
S         17.9074524947       31.4489632052       16.1497157348
C         19.0343480382       25.5637953725        8.4535185545
C         20.8702105511       32.9272639394       15.4019837671
O         16.5360638545       31.0908977960       15.7643610547
O         18.8612894251       30.4710055590       16.6856914087
C         17.7802590893       32.8678815601       17.2681767799
C         22.0316484070       33.8555822892       15.1398740225
C         22.0106923502       32.4794211355       14.5179431313
C         16.7824452167       33.8411212781       17.0621309761
C         18.6769183532       33.0144566074       18.3449651954
C         16.6860484160       34.9520400142       17.9175685589
C         18.5789342339       34.1258443934       19.1988569378
C         17.5878274133       35.0981249803       18.9908423005
O         17.5422430468       36.1671728046       19.8615815662
C         16.5779575894       37.2323388733       19.7533983889
H         23.5290436290       23.4734754677        5.7986858491
H         24.1459915395       22.4799475724        8.0048220004
H         21.7933556054       26.8660781952        7.7941422704
H         23.5888891937       23.6777411810       10.1046661300
H         21.9479245792       28.0446011011        9.7379815352
H         23.6201345097       27.7146850235       10.3071871428
H         22.9800088755       28.1148541613       12.4939828551
H         19.7686145052       27.4895889175       12.7491716563
H         18.7186758398       29.8006054586       11.2655129476
H         17.2278528774       27.4468925221       12.5261137920
H         16.5972988709       28.5614529276       11.3310296641
H         17.8626233403       29.3300670552       14.1542798574
H         19.9525466363       30.5733148036       14.0866676011
H         19.3607959787       31.6071188459       12.7854637485
H         16.4382259697       31.0058396952       13.7844140733
H         18.2379451918       25.4079622186       11.7689551664
H         17.9814517935       28.7565170692        9.0525654038
H         19.1110248608       23.9859958700        9.9309301480
H         18.8582120481       27.3284608527        7.2153723639
H         19.6485664496       33.6537969451       13.7929015507
H         19.0332895530       34.0447232691       15.3806614323
H         19.4180073162       24.9395432956        7.6503245714
H         20.8227699669       32.4872037867       16.3956611702
H         21.8685787733       34.7099034336       14.4859982818
H         22.7303478101       34.0346850079       15.9544610205
H         21.8343015706       32.4088863357       13.4461722767
H         22.6925223511       31.7302059822       14.9145368106
H         16.0841606152       33.7369654300       16.2346943158
H         19.4491846181       32.2692336872       18.5203745744
H         15.9104712075       35.6897599577       17.7372085612
H         19.2735708224       34.2364171939       20.0270163842
H         16.7381314162       37.9668752600       20.5527488027
H         16.6759529995       37.7474998814       18.7890384372
H         15.5564011152       36.8414268775       19.8460674247
    77
VM2 Rank=2      G=211.697           E=122.987           -TS=88.710              
C         23.3570125523       23.9784307555        6.7867316937
C         22.6827275315       25.2062331127        6.7179713095
C         23.7002630679       23.4412843737        8.0380036380
F         22.3487858022       25.7223300826        5.5172630073
C         22.3495789184       25.9000365114        7.8906519899
C         23.3647078308       24.1332900910        9.2142820447
C         22.6830865240       25.3650197900        9.1503398255
N         22.3430503972       26.0645292682       10.3417912352
C         22.5580761437       27.5012953411       10.4698653893
C         21.8111482195       25.5150221673       11.4933639810
C         22.1085320346       27.8103682495       11.9083187531
O         21.6623273918       26.5204984670       12.4017445968
O         21.5179446552       24.3482748041       11.6897826530
C         21.0088855683       28.8884061600       11.9607361258
O         21.1851495739       30.0228120992       11.5506730123
N         19.7842210173       28.4684665871       12.4331670699
C         18.5116313561       29.1199238288       12.0843085298
C         17.5002219204       28.0357561916       11.6378340598
C         17.9745752856       29.9972392263       13.2495561290
C         18.0448656492       27.1475208166       10.5248420851
C         18.9908065694       31.0998011080       13.6460683644
O         16.7366317202       30.6096677393       12.8820761388
C         18.2289077330       27.6680141360        9.2307603320
C         18.3840827331       25.8065178088       10.7839986841
N         18.5047036081       32.0953487299       14.6366987799
C         18.7421071595       26.8562805864        8.2053815384
C         18.8948674015       24.9933432924        9.7587241515
C         19.3953717470       33.2772898690       14.7201090494
S         17.8198823188       31.4821119674       16.0834729587
C         19.0721550140       25.5173278371        8.4687370113
C         20.7673159963       32.9908558138       15.3336125384
O         16.4553389972       31.1020175509       15.6949236100
O         18.7831372518       30.5228138011       16.6360726559
C         17.6690995418       32.9122914907       17.1845790095
C         21.9187541461       32.5494414750       14.4606237234
C         21.9171554493       33.9324101437       15.0676352285
C         16.6590632540       33.8690707986       16.9633464129
C         18.5598062298       33.0840614605       18.2629386321
C         16.5477615292       34.9869917918       17.8069559409
C         18.4469546183       34.2033014989       19.1054813854
C         17.4382438898       35.1611033485       18.8781876499
O         17.2805639921       36.2790182642       19.6709928204
C         18.1324976598       36.5761815645       20.7943962552
H         23.6114927631       23.4478289515        5.8736892571
H         24.2247652800       22.4905876672        8.0968278116
H         21.8198782310       26.8441177838        7.8126503848
H         23.6378984901       23.7083777495       10.1769556919
H         21.9456487415       28.0494017011        9.7420979570
H         23.6177644958       27.7478346661       10.3270864834
H         22.9572187043       28.1683330939       12.5039832870
H         19.7523578548       27.5056260521       12.7453875112
H         18.6835042025       29.7844404853       11.2255388362
H         17.2139123380       27.4276815291       12.5052094481
H         16.5776723725       28.5192411210       11.2920444169
H         17.8149291869       29.3387580778       14.1144995024
H         19.8887593458       30.6088724735       14.0432237744
H         19.2908524545       31.6184764417       12.7259452660
H         16.3707976271       30.9907673488       13.7149971278
H         17.9748726141       28.7035796258        9.0207232657
H         18.2551010132       25.3925830393       11.7804636605
H         18.8822248675       27.2640930878        7.2074625065
H         19.1587422756       23.9591403832        9.9662779750
H         19.5445997920       33.6815263694       13.7096407374
H         18.9155801083       34.0830469487       15.2893350738
H         19.4692560330       24.8881019183        7.6760241951
H         20.7205508503       32.5608350637       16.3316890978
H         22.6087378203       31.8141481026       14.8689935450
H         21.7492224960       32.4648187665       13.3887660177
H         22.6088237939       34.1300408377       15.8839334200
H         21.7458236556       34.7772451529       14.4036240597
H         15.9645266295       33.7470966358       16.1352269854
H         19.3408490208       32.3505548244       18.4487045526
H         15.7688333091       35.7238574442       17.6311938504
H         19.1458093403       34.3151906486       19.9284993102
H         18.0774842728       35.7769582618       21.5448539701
H         19.1752799825       36.6895901535       20.4707682033
H         17.8161969934       37.5140876795       21.2681562751
    77
VM2 Rank=3      G=211.713           E=123.868           -TS=87.845              
C         21.1798774369       26.0218312572        6.1678383270
C         20.0791869897       26.0521421028        7.0363198724
C         22.4818672367       26.0104974428        6.6940039221
F         18.8271395886       26.0642088497        6.5342020368
C         20.2724091977       26.0716572977        8.4252925112
C         22.6769949014       26.0316575603        8.0858318422
C         21.5738168001       26.0623772721        8.9629973838
N         21.7715158448       26.0981052631       10.3724091190
C         22.7777965631       26.9634247291       10.9786900396
C         21.0519894444       25.3961427387       11.3220113808
C         22.6020148813       26.7266233395       12.4886790438
O         21.5284589530       25.7513902031       12.5488047094
O         20.1537246233       24.5955040079       11.1271312426
C         22.2801647249       28.0215936669       13.2601135678
O         23.0130665525       28.9963749937       13.2497456217
N         21.0706982786       28.0376393889       13.9182497040
C         20.3895549131       29.2768511575       14.3145409547
C         18.8572021849       29.0634727394       14.2322287870
C         20.8870576663       29.7454190766       15.7122777211
C         18.4122879883       28.6278542455       12.8421639542
C         20.3197730695       31.1169322323       16.1495804985
O         20.5565180709       28.7733848703       16.7022977079
C         18.4398093470       29.5425634591       11.7738184205
C         17.9882721481       27.3065456087       12.6092342143
N         20.5552188784       32.2173591548       15.1775179105
C         18.0342165224       29.1466217419       10.4889177059
C         17.5844805608       26.9084376958       11.3240352166
C         21.9794391362       32.5050071142       14.8744515766
S         19.5134962675       33.5665756783       15.3203643663
C         17.6013520400       27.8302818383       10.2648668424
C         22.7622162277       33.1222204461       16.0341460905
O         19.5947371510       34.0258205887       16.7121435797
O         19.8737128394       34.4518569071       14.2055940146
C         17.8984370835       32.8611914805       14.9155702379
C         23.4758659830       32.2500129454       17.0403762161
C         24.2704608710       33.0509273529       16.0367146411
C         17.5431532248       32.6351366130       13.5716413936
C         16.9998849403       32.5017636374       15.9391765186
C         16.3081906598       32.0438941645       13.2573793963
C         15.7649730842       31.9098412940       15.6227622430
C         15.4168652513       31.6751951067       14.2771011902
O         14.2232579229       31.0909005942       13.9077163902
C         13.2508439509       30.6147621428       14.8580618879
H         21.0223494702       26.0066957965        5.0931618281
H         23.3386663164       25.9854179225        6.0248789070
H         19.4074027644       26.0941416710        9.0789488335
H         23.6904158475       26.0179947148        8.4773611454
H         22.5886669965       28.0115623713       10.7108874486
H         23.7871578288       26.6743117327       10.6616985648
H         23.5186559340       26.3034814056       12.9174844347
H         20.5191574425       27.1918482880       13.8370804594
H         20.6576175728       30.0552283695       13.5861856125
H         18.5452461431       28.3233513071       14.9799494405
H         18.3366915538       29.9902814608       14.4944152900
H         21.9800386476       29.8278904137       15.6601563244
H         19.2456331271       30.9869136579       16.3238179357
H         20.7567687088       31.3841752663       17.1206213345
H         20.8594088731       27.9160309348       16.3351860848
H         18.7784017541       30.5608683995       11.9390158200
H         17.9708818796       26.5864402970       13.4228596814
H         18.0552608773       29.8590852189        9.6681748685
H         17.2597989622       25.8855540320       11.1497610130
H         22.4897773926       31.5917865817       14.5428178814
H         22.0355147212       33.1964069614       14.0228900298
H         17.2854799524       27.5235762738        9.2707092413
H         22.3278085317       34.0481861480       16.4069353356
H         23.4849359632       32.5800204084       18.0770340292
H         23.4427667028       31.1711126578       16.9092236848
H         24.7599039555       32.5092688662       15.2296761269
H         24.8178953409       33.9189991417       16.3980780696
H         18.2285699509       32.9084016092       12.7728282941
H         17.2637611418       32.6718148379       16.9805598317
H         16.0413207028       31.8623707622       12.2198669624
H         15.0907729492       31.6357374848       16.4280567439
H         13.6866299025       29.8404585269       15.5026750138
H         12.8868077315       31.4380569202       15.4861633676
H         12.3923076994       30.1798534043       14.3309432368
    77
VM2 Rank=4      G=211.777           E=122.951           -TS=88.825              
C         20.1583104649       25.9427565526        6.5642914405
C         20.3055377463       27.1889141810        7.1905469788
C         20.4992579386       24.7701353188        7.2576254713
F         19.9742838550       28.3164210754        6.5282662458
C         20.7910049719       27.2705424835        8.5039398042
C         20.9823316751       24.8494950163        8.5749898231
C         21.1273988683       26.0990476608        9.2101583399
N         21.6114320582       26.1783940780       10.5458868189
C         22.6217725113       27.1563331310       10.9347521302
C         21.2352712449       25.3726594505       11.6044232518
C         22.8311327617       26.8880953720       12.4350472022
O         21.9460773888       25.7683798508       12.6986000956
O         20.4219165189       24.4650090867       11.5926047511
C         22.5004700242       28.1241596668       13.2934759563
O         23.2048935398       29.1192103840       13.3152664741
N         21.2989219478       28.0782175039       13.9648818354
C         20.5395183335       29.2858189728       14.3124317888
C         19.0238610071       28.9806149337       14.2064079589
C         20.9809254422       29.8255092149       15.7029375956
C         18.6383563589       28.4467722875       12.8325074317
C         20.3278378427       31.1761912125       16.0810548167
O         20.6839573115       28.8684408214       16.7177076708
C         18.6649075655       29.2954468788       11.7108364171
C         18.2732376039       27.0978433327       12.6688279112
N         20.5350649066       32.2576838774       15.0816168604
C         18.3204113874       28.8047830474       10.4407407710
C         17.9320992801       26.6051306007       11.3984104104
C         21.9505170376       32.6190419727       14.8195605859
S         19.4115370220       33.5460138086       15.1407111638
C         17.9530581520       27.4588458570       10.2844657392
C         22.6533830548       33.3131239996       15.9868598170
O         19.4061107070       34.0479787200       16.5200395118
O         19.7669640653       34.4202364456       14.0157302406
C         17.8604048641       32.7334825029       14.6899985697
C         23.3800965769       32.5119163070       17.0415988439
C         24.1621266858       33.3320865537       16.0436232796
C         16.9376031062       32.3550416745       15.6847417355
C         17.5822657392       32.4418272822       13.3404694837
C         15.7552797849       31.6803320523       15.3348739268
C         16.3994840161       31.7683164479       12.9927619939
C         15.4845360511       31.3809932598       13.9842583307
O         14.3454791724       30.7145638660       13.5831237764
C         13.3629634095       30.2061932586       14.5059467496
H         19.7818042960       25.8884753280        5.5468414722
H         20.3885873882       23.8014934876        6.7761370685
H         20.8860315678       28.2454151675        8.9710637773
H         21.2439780237       23.9347101357        9.1008908343
H         22.2608347406       28.1789632434       10.7653688897
H         23.5503610346       26.9913044966       10.3738598349
H         23.8728220730       26.6081493640       12.6344446186
H         20.7856719171       27.2100345453       13.8737330815
H         20.7763785555       30.0569181208       13.5657108695
H         18.7355422536       28.2635017806       14.9853673542
H         18.4457519069       29.8881259451       14.4078845942
H         22.0685468022       29.9674668155       15.6697650454
H         19.2571101461       30.9935490905       16.2272052944
H         20.7192464843       31.4955841278       17.0557524334
H         21.0443829033       28.0190188509       16.3854319141
H         18.9555759909       30.3356142171       11.8230944577
H         18.2562504184       26.4279587823       13.5242939419
H         18.3422011786       29.4652742998        9.5776011813
H         17.6578042067       25.5601249970       11.2769863473
H         22.5238933696       31.7279398558       14.5340321559
H         21.9984443875       33.2879738301       13.9497661164
H         17.6925679752       27.0761527262        9.3008245253
H         22.1518120795       34.2208905557       16.3178016147
H         23.3322497416       32.8690478042       18.0681529374
H         23.4144417834       31.4298048266       16.9399955386
H         24.7114463451       32.7995393421       15.2697456526
H         24.6441832458       34.2405172845       16.3988584255
H         17.1423587916       32.5747824178       16.7301161727
H         18.2877142782       32.7279117389       12.5638682863
H         15.0612933703       31.3932317803       16.1185344827
H         16.1923216929       31.5366864839       11.9515942346
H         13.8164232673       29.4794313030       15.1923684023
H         12.9218767803       31.0228356909       15.0919232124
H         12.5567523988       29.7035907025       13.9568656791
    77
VM2 Rank=5      G=211.780           E=123.036           -TS=88.745              
C         20.3899291982       26.1304949172        6.4512189596
C         20.5897487663       27.3296079293        7.1505168501
C         20.5751799550       24.9025468938        7.1068579458
F         20.4076943836       28.5103748862        6.5242075476
C         20.9733754235       27.3093464000        8.4995074668
C         20.9559727667       24.8800454419        8.4594863496
C         21.1533714363       26.0823237246        9.1675375868
N         21.5337517438       26.0588649926       10.5384005496
C         22.5903390199       26.9236580513       11.0521683475
C         21.0051734153       25.2449724371       11.5229070102
C         22.6531078450       26.5734254237       12.5488729667
O         21.6566227818       25.5271918022       12.6869510737
O         20.1201030178       24.4156560407       11.4028351711
C         22.3614484230       27.7962395189       13.4398975588
O         23.1396985154       28.7277317188       13.5557669969
N         21.1154059225       27.8225758843       14.0257705295
C         20.4329706885       29.0736741259       14.3793119246
C         18.9109965338       28.9082768644       14.1378305726
C         20.8006462156       29.5063450883       15.8279426749
C         18.5964502943       28.4863132686       12.7082050604
C         20.2244708487       30.8855617138       16.2266705570
O         20.3449873428       28.5288154502       16.7612170175
C         18.7762303133       29.3929916323       11.6476849986
C         18.1422690331       27.1833741195       12.4329811140
N         20.5933848826       31.9953480559       15.3071130212
C         18.4961474856       29.0055555095       10.3270431200
C         17.8647989186       26.7938735170       11.1122206217
C         22.0488378191       32.2319416966       15.1375772678
S         19.5886399332       33.3774925790       15.3773310637
C         18.0390405848       27.7054474461       10.0592131050
C         22.7540350173       32.7641371305       16.3850304241
O         19.5300243470       33.7997729171       16.7817444182
O         20.0905945936       34.2770425891       14.3309340677
C         18.0083077405       32.7332654787       14.7799831159
C         24.0636385342       33.5028717610       16.2464462158
C         22.8161237862       34.2487363810       16.6561984284
C         16.9857021984       32.3956043328       15.6879989292
C         17.8055765400       32.5287647893       13.4013026889
C         15.7775405251       31.8480974487       15.2230883826
C         16.5972190432       31.9817721935       12.9386266902
C         15.5814010123       31.6357001331       13.8433971451
O         14.4207303413       31.0946884712       13.3308854061
C         13.3303128128       30.6414792445       14.1561190587
H         20.0930298697       26.1551459255        5.4066366101
H         20.4230689593       23.9699306763        6.5688644843
H         21.1112799950       28.2501374849        9.0225353716
H         21.0973452006       23.9232309110        8.9558732741
H         22.3346804261       27.9811059097       10.9066110433
H         23.5434901787       26.6992542356       10.5569378323
H         23.6471602392       26.1928533757       12.8139387045
H         20.5420607248       27.0047142445       13.8589740493
H         20.7933740188       29.8562987889       13.6968141551
H         18.5011140109       28.1780704036       14.8470406909
H         18.3951376651       29.8506844061       14.3484795088
H         21.8955107217       29.5615553115       15.8914167999
H         19.1344741213       30.7835134009       16.2796103220
H         20.5569464820       31.1231286073       17.2454249808
H         20.6672615432       27.6700612424       16.4138748266
H         19.1358260245       30.3980408290       11.8469959147
H         18.0062540984       26.4693141495       13.2407451362
H         18.6366029702       29.7103941689        9.5114421324
H         17.5207308032       25.7835734202       10.9049684120
H         22.5497747802       31.3071933332       14.8246083494
H         22.2076588803       32.9420771200       14.3147181654
H         17.8275555478       27.4024021936        9.0368119163
H         22.6659128469       32.1083211641       17.2490011802
H         24.8248453658       33.3308299165       17.0045865319
H         24.4518388061       33.6757234730       15.2447092361
H         22.3683137102       34.9238511287       15.9297791452
H         22.7307617451       34.5751126116       17.6904947140
H         17.1319863170       32.5479047052       16.7549745025
H         18.5886617848       32.7837966935       12.6911161497
H         15.0054841165       31.5903678860       15.9411978551
H         16.4476871202       31.8167302085       11.8751362854
H         12.9217403585       31.4701966736       14.7486852653
H         12.5255598283       30.2396885934       13.5276140044
H         13.6640785099       29.8473684438       14.8365364555
    77
VM2 Rank=6      G=211.803           E=123.862           -TS=87.941              
C         21.5288777396       27.7194851197        6.1418687352
C         21.2294662309       28.6187407083        7.1756891625
C         22.0498496590       26.4521280561        6.4496424277
F         20.7229578191       29.8341239195        6.8825829836
C         21.4480007371       28.2601033633        8.5139862286
C         22.2661860106       26.0894241209        7.7900808307
C         21.9637396242       26.9886036452        8.8317211260
N         22.1776058610       26.6186117557       10.1881158856
C         22.8420052799       27.5143035886       11.1281269778
C         21.8220647710       25.4194703695       10.7760532267
C         22.8135621462       26.7350867141       12.4543183898
O         22.2061816772       25.4700919043       12.0833064311
O         21.2661262042       24.4719741417       10.2482221538
C         22.0168041874       27.4825019738       13.5408679200
O         22.4319445123       28.4929992374       14.0825772442
N         20.7536071306       26.9961802240       13.7972345946
C         19.6689979738       27.8449969467       14.3071444123
C         18.3176864954       27.3702991724       13.7167810026
C         19.6959189621       27.8928447432       15.8624420905
C         18.3219155629       27.3885934111       12.1940151161
C         18.6563630359       28.8643440650       16.4704667265
O         19.4826282610       26.5878521916       16.3971441108
C         18.4485738156       26.1921583642       11.4643828783
C         18.2162296119       28.6105206407       11.5051376998
N         18.6914312206       30.2286751145       15.8864577891
C         18.4652359160       26.2176512081       10.0599788612
C         18.2325879744       28.6369502251       10.1007181516
C         19.9753127250       30.9622981318       16.0295996970
S         17.2264353808       31.1018048287       16.0039139230
C         18.3548597947       27.4395194487        9.3778178234
C         20.2868537737       31.4168822310       17.4553944833
O         16.2965654999       30.3540790729       15.1489298269
O         16.9689939401       31.3336029038       17.4302253088
C         17.5676330046       32.6565336337       15.1431563046
C         21.7092539334       31.7491021098       17.8371512892
C         21.0442003165       30.5172203766       18.4033790778
C         17.6305910434       32.6863500243       13.7363474774
C         17.7945830367       33.8408056605       15.8717768038
C         17.9177201278       33.8880862459       13.0677824082
C         18.0818995007       35.0420157471       15.2009743338
C         18.1447722249       35.0685499649       13.7930339055
O         18.4239865100       36.2170668259       13.0816390121
C         18.6817907680       37.4893678696       13.7068151687
H         21.3565128758       28.0052067620        5.1081560925
H         22.2843191911       25.7515967073        5.6517532190
H         21.1966058316       28.9673334490        9.2979649801
H         22.6698860484       25.1057979030        8.0169918406
H         22.2982119416       28.4636117032       11.2166543679
H         23.8742837727       27.7051640793       10.8086308107
H         23.8313687746       26.5771621703       12.8316543784
H         20.4991592379       26.1577318076       13.2900812501
H         19.8463435388       28.8651564391       13.9388756017
H         18.0834726576       26.3638340779       14.0861674210
H         17.5086012297       28.0186898498       14.0740388748
H         20.6954368496       28.2328565568       16.1628417778
H         17.6617832494       28.4244238354       16.3199314044
H         18.8102925064       28.9189830406       17.5558846875
H         20.1003074225       26.0043854850       15.9071773098
H         18.5368153824       25.2414583659       11.9833991019
H         18.1221685959       29.5398303129       12.0600215169
H         18.5694032803       25.2907454784        9.5012051386
H         18.1519624636       29.5839469813        9.5729704998
H         20.8053827963       30.3408807802       15.6698747943
H         19.9794157787       31.8461394387       15.3796109388
H         18.3712745668       27.4589843081        8.2909457542
H         19.5162568164       32.0498262752       17.8908092619
H         22.4878106347       31.6065511944       17.0902812589
H         21.8704822447       32.5923713273       18.5055170186
H         21.3835208722       29.5499130472       18.0401514434
H         20.7544269013       30.5312487481       19.4519386722
H         17.4592044916       31.7781443317       13.1635662778
H         17.7509713750       33.8299936694       16.9583523847
H         17.9661848046       33.9070495305       11.9824946675
H         18.2542233936       35.9418111054       15.7831481432
H         17.8156648765       37.8132713337       14.2983167438
H         19.5588625710       37.4276848186       14.3640181452
H         18.8790265207       38.2508829817       12.9417385401
    77
VM2 Rank=7      G=211.806           E=123.028           -TS=88.779              
C         23.1746269732       24.2547811932        6.4409151260
C         23.5567717165       23.6904228281        7.6666678975
C         22.4838671237       25.4771183561        6.4220038360
F         24.2238910364       22.5180521906        7.6861037373
C         23.2514201265       24.3385189494        8.8729011321
C         22.1780447467       26.1284861343        7.6289532521
C         22.5540373613       25.5623408874        8.8638845943
N         22.2426651813       26.2243466336       10.0847323373
C         22.4295452156       27.6622768846       10.2416554231
C         21.7700320256       25.6342356363       11.2422350365
C         22.0522357817       27.9208550962       11.7104540969
O         21.6381832390       26.6124938938       12.1823939892
O         21.5091932437       24.4567401592       11.4193080948
C         20.9535464639       28.9910093591       11.8570037943
O         21.1032035688       30.1389575476       11.4749670395
N         19.7574725686       28.5492492569       12.3798804931
C         18.4647259734       29.1978296759       12.1084059078
C         17.4440797136       28.1175802894       11.6735546168
C         17.9729860061       30.0344370294       13.3223415052
C         17.9522214337       27.2620389652       10.5184199025
C         18.9967038417       31.1346857357       13.7058045489
O         16.7144638582       30.6448962810       13.0290389031
C         18.2992017070       25.9143986087       10.7280894451
C         18.0979651195       27.8204092696        9.2352875757
N         18.5473287538       32.0956118281       14.7467094953
C         18.7805279798       25.1323964477        9.6650493412
C         18.5822007282       27.0399844943        8.1722619659
C         19.4309170256       33.2831456703       14.8258336516
S         17.9334671474       31.4330697557       16.2035585824
C         18.9213649384       25.6945837489        8.3867254642
C         20.8311507162       32.9921297004       15.3692491658
O         16.5563358558       31.0506603908       15.8648785602
O         18.9288872646       30.4678287227       16.6841015126
C         17.8187341310       32.8286870240       17.3522950374
C         21.9603266645       33.9515971462       15.0797767347
C         21.9460205177       32.5865446520       14.4336473931
C         16.7920449200       33.7821249256       17.2034676820
C         18.7535179241       32.9767412137       18.3959544220
C         16.7044321687       34.8750430201       18.0827114186
C         18.6642667093       34.0701324450       19.2737044366
C         17.6441558759       35.0227388879       19.1226966057
O         17.6087619615       36.0746282307       20.0145531517
C         16.6164746915       37.1181908346       19.9648230939
H         23.4145226929       23.7460980141        5.5116042558
H         22.1847201710       25.9186604320        5.4744434260
H         23.5604043903       23.8857962794        9.8103695365
H         21.6357186712       27.0694431758        7.5988888172
H         21.7632078027       28.2124871149        9.5645635644
H         23.4729094027       27.9412317425       10.0475319705
H         22.9296852553       28.2622886705       12.2732531192
H         19.7471753013       27.5766083798       12.6618775714
H         18.5921492048       29.8897807023       11.2636835656
H         17.1959488909       27.4855430063       12.5355435173
H         16.5056121446       28.6025855588       11.3760955535
H         17.8581967516       29.3489435223       14.1733017001
H         19.9157970306       30.6409666346       14.0472778856
H         19.2505813077       31.6833004086       12.7891525629
H         16.3830258105       30.9972162811       13.8886083140
H         18.1998942745       25.4713879482       11.7154033841
H         17.8377060983       28.8614082271        9.0631979517
H         19.0510687772       24.0929822794        9.8344213859
H         18.6932226646       27.4772955816        7.1832764691
H         19.5316111056       33.7183979349       13.8222724640
H         18.9702395969       34.0670785992       15.4395756219
H         19.2972178091       25.0896828539        7.5652382845
H         20.8324345399       32.5335417107       16.3556524457
H         21.7527093794       34.8133522243       14.4486804273
H         22.6860855258       34.1323907864       15.8699649173
H         21.7295512204       32.5309109892       13.3683661959
H         22.6594694566       31.8464238583       14.7896211794
H         16.0642716474       33.6766181328       16.4020228533
H         19.5485737531       32.2465549898       18.5272368136
H         15.9060051782       35.5977101775       17.9465258146
H         19.3882395764       34.1819244151       20.0761766524
H         16.7912701922       37.8416962921       20.7711406695
H         16.6639905176       37.6529972381       19.0073759291
H         15.6087683804       36.7013060993       20.0901797121
    77
VM2 Rank=8      G=211.837           E=123.900           -TS=87.938              
C         21.5171860896       27.8587347010        6.1620290402
C         21.2314573302       28.7401404221        7.2149188995
C         22.0166826813       26.5765007588        6.4425965684
F         20.7455224052       29.9698614214        6.9479283869
C         21.4423555538       28.3488866054        8.5452751353
C         22.2253052897       26.1811717036        7.7750108868
C         21.9365221015       27.0623779498        8.8357130337
N         22.1424270832       26.6594613710       10.1839363169
C         22.8202697459       27.5233715304       11.1438861247
C         21.7661414991       25.4539476806       10.7453448607
C         22.7760181925       26.7166151939       12.4530623100
O         22.1488621635       25.4699758042       12.0538953091
O         21.1955561969       24.5273761586       10.1964225654
C         21.9890063569       27.4537644185       13.5536414450
O         22.4191440473       28.4459104593       14.1171349575
N         20.7175754727       26.9826512368       13.7974417786
C         19.6456679955       27.8382412430       14.3226562359
C         18.2881541328       27.3977111599       13.7201766216
C         19.6699459196       27.8538910920       15.8786681421
C         18.2958580231       27.4474664928       12.1981213921
C         18.6452936696       28.8299617057       16.5044546617
O         19.4339359662       26.5419850409       16.3862075224
C         18.2121848544       28.6850027387       11.5345537040
C         18.4035836921       26.2644257859       11.4440299779
N         18.7040666678       30.2049894650       15.9480736883
C         18.2316381325       28.7402528864       10.1310160285
C         18.4233338134       26.3187219443       10.0404827121
C         19.9996596445       30.9142421885       16.1077152884
S         17.2536588925       31.1000741655       16.0802264355
C         18.3349311145       27.5561449347        9.3836305676
C         20.3159640045       31.3355772278       17.5426411969
O         16.3120120275       30.3825112335       15.2123752102
O         16.9990050548       31.3119475062       17.5101274335
C         17.6212105119       32.6627063954       15.2451158832
C         21.0546101373       30.4043002269       18.4747238634
C         21.7432327015       31.6345294087       17.9336382418
C         17.6878201265       32.7138661168       13.8388443794
C         17.8653081809       33.8312300317       15.9928417121
C         17.9954802081       33.9197346882       13.1860387027
C         18.1727152062       35.0358346178       15.3382425564
C         18.2399581180       35.0873582518       13.9367611489
O         18.5479665403       36.2979514204       13.3513245006
C         18.6547724549       36.4805946160       11.9260745745
H         21.3508571845       28.1696940461        5.1346313353
H         22.2404824067       25.8896908068        5.6298517308
H         21.2017207499       29.0429641164        9.3442340828
H         22.6123284572       25.1862633336        7.9808108236
H         22.2926926618       28.4797839062       11.2518850057
H         23.8562649341       27.7032385342       10.8300935672
H         23.7901996903       26.5340321712       12.8290296422
H         20.4507633557       26.1591760001       13.2724198279
H         19.8402811765       28.8626978257       13.9756766650
H         18.0370191142       26.3877248525       14.0682170670
H         17.4888454424       28.0515117675       14.0893830856
H         20.6742854761       28.1710915151       16.1878156696
H         17.6439279213       28.4096051651       16.3433952832
H         18.7979113289       28.8601978252       17.5910071512
H         20.0430455922       25.9584811280       15.8856712090
H         18.1328529927       29.6040370804       12.1084506393
H         18.4747153427       25.3018167152       11.9433465530
H         18.1681059582       29.6991962788        9.6228832568
H         18.5128800493       25.4019567275        9.4627702064
H         20.8200340413       30.2863445084       15.7371755702
H         20.0196230686       31.8105356911       15.4753082286
H         18.3538519134       27.5978311754        8.2974253318
H         19.5559449572       31.9740299433       17.9885061163
H         20.7625936565       30.4034791066       19.5227554155
H         21.3772510179       29.4381419786       18.0936835549
H         22.5208763671       31.4922189888       17.1857704089
H         21.9180912599       32.4617752301       18.6184022650
H         17.5028662345       31.8167514914       13.2529420967
H         17.8196462163       33.8055949290       17.0790628477
H         18.0417718223       33.9345916224       12.1016627495
H         18.3615823870       35.9352271588       15.9178941683
H         19.4410399484       35.8370082426       11.5106674153
H         17.7032371917       36.2440657743       11.4325145692
H         18.9092380586       37.5235705297       11.6989189526
    77
VM2 Rank=9      G=211.849           E=122.291           -TS=89.558              
C         20.1949416243       26.1465884899        6.5381724711
C         20.3771794043       27.3814794526        7.1771558427
C         20.4746048122       24.9569367450        7.2296827373
F         20.1063360433       28.5257987550        6.5162529954
C         20.8360375163       27.4349092221        8.5015007014
C         20.9308816710       25.0082243495        8.5579382035
C         21.1096528207       26.2465282397        9.2070169645
N         21.5663863931       26.2979034805       10.5544801939
C         22.5834018182       27.2540184477       10.9800662981
C         21.1606043842       25.4782544924       11.5916616374
C         22.7699961458       26.9490359824       12.4764426179
O         21.8626720622       25.8390953649       12.7033839177
O         20.3336651145       24.5838219377       11.5505543609
C         22.4500119399       28.1697328993       13.3612352572
O         23.1412464596       29.1740972174       13.3766226066
N         21.2697748687       28.0975895913       14.0663733467
C         20.4941741027       29.2875964080       14.4370866540
C         18.9850699018       28.9634315863       14.2969589909
C         20.9079834091       29.7933370227       15.8489000369
C         18.6197103414       28.4519917937       12.9080586015
C         20.2175555715       31.1148612892       16.2643439035
O         20.6218204818       28.7971426187       16.8285026395
C         18.7788534263       29.2798398919       11.7814301058
C         18.1266327068       27.1453525936       12.7380355953
N         20.4480104275       32.2475713124       15.3286439921
C         18.4359339664       28.8135203597       10.5020947602
C         17.7905006139       26.6749848334       11.4578093881
C         21.8626883177       32.6693196357       15.1810690769
S         19.2690044827       33.4873265110       15.3635344867
C         17.9425483729       27.5095740420       10.3396368212
C         22.4583126694       33.3248820684       16.4272454403
O         19.0986309907       33.8794060222       16.7677635534
O         19.6983768903       34.4625165005       14.3531313604
C         17.8226689855       32.6416407378       14.6867818074
C         23.1494801288       32.4928738594       17.4819786306
C         23.9579466764       33.4006939941       16.5861172376
C         16.8168428163       32.1465821815       15.5398629388
C         17.7282942183       32.4169339471       13.2995662704
C         15.7467302637       31.4050077245       15.0103996424
C         16.6568455325       31.6769502580       12.7728184542
C         15.6729746499       31.1506167377       13.6314642551
O         14.6336700448       30.3747918884       13.1662807385
C         14.7333469326       29.6092395149       11.9489444659
H         19.8395552720       26.1141541360        5.5122323908
H         20.3374540187       23.9967069094        6.7382695819
H         20.9608111352       28.4024675037        8.9764049026
H         21.1456450088       24.0797201153        9.0808946062
H         22.2362442022       28.2845101369       10.8308660865
H         23.5174048240       27.0916578850       10.4274593542
H         23.8039582389       26.6457892015       12.6817619498
H         20.7680810990       27.2224476355       13.9743009593
H         20.7334259925       30.0846651943       13.7190565868
H         18.6958351859       28.2281914178       15.0584347264
H         18.3919378797       29.8575768258       14.5075223723
H         21.9925608680       29.9605012579       15.8333589970
H         19.1446129236       30.9115556197       16.3578917706
H         20.5618159107       31.3916767177       17.2692615466
H         21.0051102518       27.9674236349       16.4728289741
H         19.1670652547       30.2872647344       11.8970834170
H         18.0049744521       26.4906193159       13.5966811500
H         18.5577757274       29.4595820998        9.6364181175
H         17.4181457942       25.6613824874       11.3323443627
H         22.4855537048       31.8129274372       14.8933403801
H         21.9447573040       33.3825658291       14.3499334577
H         17.6860555492       27.1438250965        9.3485402251
H         21.8959417025       34.1904585516       16.7734558449
H         23.0198212957       32.7868396291       18.5214142327
H         23.2344184802       31.4204342864       17.3217894047
H         24.5789597154       32.9369946594       15.8222461234
H         24.3757639343       34.3052803766       17.0231249914
H         16.8785093176       32.3142105969       16.6127186275
H         18.4992603883       32.7959687959       12.6327123169
H         14.9830784031       31.0049942192       15.6716401522
H         16.6091060271       31.5024282954       11.7026537964
H         14.8187319226       30.2687340028       11.0762652132
H         15.6094169564       28.9475853387       11.9805744317
H         13.8373731614       28.9890679262       11.8208071224
    77
VM2 Rank=10     G=211.859           E=122.300           -TS=89.559              
C         20.3385442240       26.5974096136        6.3181899365
C         20.5713374452       25.3755991195        6.9659612088
C         20.5104185387       27.8012477211        7.0199034880
F         20.4113584538       24.2181814946        6.2916375960
C         20.9716562956       25.3492436169        8.3102957639
C         20.9125069450       27.7770365795        8.3660700607
C         21.1398495277       26.5516363699        9.0251004772
N         21.5434822398       26.5307222054       10.3906717872
C         22.5440752031       27.4599692740       10.9054435425
C         21.1005250765       25.6559600478       11.3659455208
C         22.6995253592       27.0521044188       12.3807476179
O         21.7652946297       25.9500679190       12.5194005973
O         20.2729233317       24.7691805080       11.2463317139
C         22.3959083959       28.2168739747       13.3431149172
O         23.0999025197       29.2092653316       13.4230093319
N         21.2143548770       28.1144880896       14.0420295969
C         20.4461371297       29.2892645469       14.4718832804
C         18.9367057397       28.9977634603       14.2748970157
C         20.8336061213       29.6981941293       15.9217454066
C         18.6010909393       28.5775642683       12.8483021781
C         20.1538393148       31.0030082736       16.4025038878
O         20.5079040029       28.6478833791       16.8298341609
C         18.0822890831       27.2960745486       12.5875341524
C         18.8167121567       29.4640708370       11.7770180691
N         20.4284385236       32.1880603342       15.5469349254
C         17.7775333063       26.9082772305       11.2722467939
C         18.5063435420       29.0799860822       10.4626123807
C         21.8529877823       32.5941986955       15.4655998357
S         19.2676631595       33.4428298858       15.6259209183
C         17.9879490169       27.8004867600       10.2093797856
C         22.4224253534       33.1596487530       16.7669225746
O         19.0620620722       33.7501323745       17.0464503503
O         19.7409593140       34.4713169275       14.6907804942
C         17.8294071812       32.6651741025       14.8567550447
C         23.0702819950       32.2510280918       17.7852979466
C         23.9178432600       33.1998597066       16.9718534746
C         16.7893942074       32.1392221732       15.6480980204
C         17.7746447465       32.5246191497       13.4563828816
C         15.7238468811       31.4505978554       15.0432701021
C         16.7077571289       31.8373518346       12.8543296027
C         15.6886612906       31.2798794317       13.6499768280
O         14.6509970519       30.5529604794       13.1083391106
C         14.7728566373       29.8635604047       11.8482776222
H         20.0281617590       26.6088373588        5.2773153813
H         20.3313483628       28.7514285226        6.5225687661
H         21.1504266328       24.3914862559        8.7896923596
H         21.0335223302       28.7168818259        8.8969249194
H         22.1900807280       28.4955771425       10.8217621711
H         23.4914683450       27.3445961781       10.3639310859
H         23.7228715059       26.7100017670       12.5780455409
H         20.7033723263       27.2527041788       13.8922120855
H         20.7129357605       30.1274843921       13.8128868713
H         18.6181540448       28.2216519556       14.9821736760
H         18.3507641463       29.8862941501       14.5254256414
H         21.9207639849       29.8471876137       15.9418405596
H         19.0755123866       30.8137110069       16.4546640160
H         20.4749761497       31.2095366367       17.4316791910
H         20.8890641298       27.8358466654       16.4334010842
H         17.9169057042       26.5967419706       13.4025983200
H         19.2245283944       30.4531123595       11.9627683311
H         17.3851939089       25.9134947506       11.0766486759
H         18.6723276094       29.7710202265        9.6402878955
H         22.4707394172       31.7471986270       15.1414268983
H         21.9697723572       33.3568955745       14.6840033753
H         17.7568650491       27.4982567192        9.1909872678
H         21.8634358595       34.0109739192       17.1517956639
H         22.9152328332       32.4808253042       18.8373475725
H         23.1433480014       31.1895639277       17.5595087979
H         24.3365509996       34.0677987585       17.4770176228
H         24.5534876802       32.7749695893       16.1975191030
H         16.8204347704       32.2418505342       16.7304224015
H         18.5723584643       32.9279447172       12.8369214784
H         14.9332603784       31.0265991165       15.6561428632
H         16.6905579158       31.7273788977       11.7747025080
H         14.8937684840       30.5748688612       11.0217045952
H         15.6367864179       29.1855619370       11.8620454446
H         13.8709457868       29.2688661844       11.6567158795
    77
VM2 Rank=11     G=211.873           E=123.093           -TS=88.780              
C         23.2425061907       24.2396847870        6.4994255722
C         23.6257161290       23.6964880441        7.7343723139
C         22.5341674193       25.4514627128        6.4611118301
F         24.3096904142       22.5343318276        7.7724439658
C         23.3039940666       24.3552266181        8.9305425776
C         22.2119303330       26.1134797406        7.6579539387
C         22.5889609115       25.5685163312        8.9020614855
N         22.2609691833       26.2412699023       10.1126314943
C         22.4261972373       27.6836135194       10.2523471030
C         21.7901587482       25.6590090033       11.2748412859
C         22.0370365268       27.9551205118       11.7157072860
O         21.6387951701       26.6470223904       12.2017678295
O         21.5452450269       24.4801898583       11.4653406042
C         20.9226384836       29.0114128318       11.8428420886
O         21.0583462940       30.1565093240       11.4472796282
N         19.7299336245       28.5593737580       12.3646316044
C         18.4297840778       29.1861957201       12.0778164709
C         17.4269148349       28.0863110120       11.6509054923
C         17.9193238263       30.0309366492       13.2783190623
C         17.9537264979       27.2235516189       10.5095836087
C         18.9255861389       31.1497975772       13.6540548811
O         16.6543863184       30.6203642159       12.9699638688
C         18.3185531244       25.8837437565       10.7383017152
C         18.0989203426       27.7676829959        9.2202880878
N         18.4569195975       32.1171618426       14.6803738320
C         18.8170196829       25.0953062225        9.6879889606
C         18.6002724793       26.9808646604        8.1699860878
C         19.3240009836       33.3173800854       14.7502296069
S         17.8428232179       31.4642157487       16.1414643151
C         18.9572352955       25.6432497171        8.4034270216
C         20.7248009134       33.0517564469       15.3050873387
O         16.4727223404       31.0601507415       15.7994344913
O         18.8476731022       30.5176122730       16.6391535125
C         17.7040851300       32.8717488104       17.2729063166
C         21.8424204882       34.0234723154       15.0116720627
C         21.8507190378       32.6513578049       14.3805592676
C         16.6656894400       33.8093282254       17.1079162726
C         18.6322087772       33.0450400446       18.3189814225
C         16.5631631035       34.9100089687       17.9749792990
C         18.5280427911       34.1470040711       19.1850823351
C         17.4907288489       35.0857541365       19.0139918977
O         17.3398847044       36.1862446862       19.8321000437
C         18.2281091461       36.4830484921       20.9271321212
H         23.4951487020       23.7228701051        5.5780129653
H         22.2341227606       25.8765898424        5.5063559808
H         23.6140908124       23.9189435307        9.8754094942
H         21.6561809394       27.0459694145        7.6129063753
H         21.7557239840       28.2155132561        9.5647859882
H         23.4664742353       27.9752451599       10.0602965700
H         22.9064386808       28.3158865157       12.2789343856
H         19.7316832213       27.5902705847       12.6587285758
H         18.5523541661       29.8692456612       11.2251690479
H         17.1826382105       27.4617245332       12.5194014730
H         16.4834998532       28.5542943126       11.3420446556
H         17.8087533968       29.3545306622       14.1370732564
H         19.8492812826       30.6729913567       14.0069531002
H         19.1774238242       31.6905507098       12.7321830880
H         16.3130416757       30.9791288514       13.8229697258
H         18.2198536609       25.4518760290       11.7306010207
H         17.8249317026       28.8026138273        9.0335330989
H         19.1012761143       24.0620700555        9.8720643066
H         18.7107676798       27.4071782730        7.1761518967
H         18.8492264755       34.1023582758       15.3517788387
H         19.4247622498       33.7418770723       13.7420776270
H         19.3463404037       25.0334347120        7.5918023459
H         20.7264776142       32.6039743932       16.2964255926
H         21.6267833957       34.8753233304       14.3699083363
H         22.5609004289       34.2228831723       15.8040288417
H         21.6413847365       32.5810477358       13.3147192867
H         22.5720952674       31.9250702922       14.7488366714
H         15.9422102917       33.6859385872       16.3051748486
H         19.4356136482       32.3261228054       18.4613522243
H         15.7622045078       35.6321731797       17.8425568090
H         19.2558482774       34.2604850487       19.9823869733
H         18.2194514748       35.6700989016       21.6647027966
H         19.2548821526       36.6251153935       20.5658196535
H         17.9102627713       37.4054665973       21.4294080542
    77
VM2 Rank=12     G=211.876           E=123.966           -TS=87.909              
C         21.4776110496       28.1546823817        6.0652868622
C         21.9616192291       26.8646063170        6.3273416072
C         21.1898120629       29.0210100723        7.1322464966
F         22.2409768257       26.0323366250        5.3030504410
C         22.1583787945       26.4346005546        7.6481888309
C         21.3872199353       28.5927335657        8.4559216889
C         21.8683272082       27.2954836266        8.7243884289
N         22.0638599560       26.8632159644       10.0656131548
C         22.7243657050       27.7104805263       11.0522735823
C         21.6994613236       25.6390134499       10.5937835879
C         22.7132975352       26.8564608000       12.3319171712
O         22.0796510032       25.6231568900       11.9029904771
O         21.1395554136       24.7217772833       10.0187169878
C         21.9555509462       27.5489259976       13.4808136522
O         22.3952989684       28.5242447531       14.0658719555
N         20.6954645267       27.0593005218       13.7449364878
C         19.6304842961       27.8911905361       14.3198014138
C         18.2654534027       27.4735737248       13.7181151906
C         19.6777303996       27.8452872992       15.8744368510
C         18.2592875784       27.5741516266       12.1985228606
C         18.6572576467       28.7897234250       16.5533013770
O         19.4556574855       26.5129435965       16.3325893920
C         18.1835393985       28.8340653233       11.5775276584
C         18.3516068844       26.4162105133       11.4044510264
N         18.7003554652       30.1861742511       16.0515313267
C         18.1971009581       28.9364630053       10.1766287384
C         18.3650967371       26.5176743672       10.0034649913
C         19.9946042613       30.8960025433       16.2194181527
S         17.2477328282       31.0670281315       16.2422736135
C         18.2866326731       27.7774322128        9.3891998526
C         20.3310368373       31.2620363104       17.6649188336
O         16.2951835236       30.3779899243       15.3632659868
O         17.0159098383       31.2222954494       17.6832836518
C         17.5931117778       32.6625017476       15.4616570851
C         21.7628483702       31.5521856600       18.0458204628
C         21.0876620498       30.2984192284       18.5484471136
C         17.6367660868       32.7675065311       14.0574724165
C         17.8426135012       33.8032177551       16.2494530421
C         17.9268862505       33.9992952952       13.4463447441
C         18.1324924229       35.0337847305       15.6364810392
C         18.1767146396       35.1390421372       14.2370934738
O         18.4681573916       36.3730068827       13.6934663929
C         18.5496268126       36.6107684629       12.2746919004
H         21.3271856344       28.4792543749        5.0396588874
H         20.8121299886       30.0212962107        6.9347058619
H         22.5362528666       25.4327323162        7.8293069439
H         21.1487849200       29.2694272108        9.2718193535
H         22.1677504004       28.6451364986       11.1985562663
H         23.7519616757       27.9340491058       10.7389463565
H         23.7375029256       26.6617662786       12.6730369259
H         20.4206777419       26.2527597655       13.1980342491
H         19.8188179426       28.9291300542       14.0115851601
H         18.0161032933       26.4528600929       14.0347235944
H         17.4716047784       28.1162913713       14.1174076447
H         20.6851302204       28.1554653008       16.1808506386
H         17.6559558365       28.3701191551       16.3897637114
H         18.8254776032       28.7775230761       17.6379039707
H         20.0602980539       25.9532559980       15.8004030615
H         18.1164300663       29.7340073628       12.1824515022
H         18.4168553345       25.4367673195       11.8707462618
H         18.1397468699       29.9126100074        9.7018213785
H         18.4430770316       25.6201789879        9.3946530481
H         20.8123690686       30.2880981915       15.8116444658
H         19.9999992534       31.8167983367       15.6229286475
H         18.3021159360       27.8554635424        8.3049334004
H         19.5753063138       31.8789224279       18.1469615628
H         22.5296036795       31.4430361761       17.2813239546
H         21.9446821877       32.3527396918       18.7598680986
H         21.4084945949       29.3494949212       18.1249622100
H         20.8116589193       30.2551099762       19.5999188617
H         17.4475453733       31.8921214501       13.4408090155
H         17.8146400141       33.7359597065       17.3344954664
H         17.9555488139       34.0557288978       12.3627299893
H         18.3255308958       35.9116485766       16.2469459148
H         19.3323252253       35.9885363704       11.8217151568
H         17.5911637394       36.3873262463       11.7884913668
H         18.7942884908       37.6632629168       12.0835133965
    77
VM2 Rank=13     G=211.882           E=122.345           -TS=89.537              
C         20.3082086066       26.2215345178        6.4850864433
C         20.5219245950       27.4301565998        7.1633443191
C         20.5067811662       25.0031357823        7.1542338147
F         20.3289002504       28.6020955411        6.5238770484
C         20.9318031658       27.4288507874        8.5047191332
C         20.9138698755       24.9997084940        8.4993566900
C         21.1239508225       26.2116437928        9.1876181976
N         21.5308678103       26.2078273688       10.5518879291
C         22.5741389734       27.1038677583       11.0399357282
C         21.0480882415       25.3830050151       11.5512815982
C         22.6892373697       26.7533759793       12.5335589434
O         21.7228323251       25.6828832717       12.6974971776
O         20.1829025648       24.5298415706       11.4557967315
C         22.3940314144       27.9658211500       13.4381620609
O         23.1245828923       28.9403822634       13.4958369459
N         21.1926633925       27.9263272149       14.1093809826
C         20.4556172450       29.1386398458       14.4865945750
C         18.9404452830       28.8870243400       14.2780356538
C         20.8338428841       29.5852283890       15.9283504006
C         18.6074320875       28.4376327567       12.8599071542
C         20.1831789797       30.9232115274       16.3548212249
O         20.4636430397       28.5753544430       16.8650027958
C         18.0633387147       27.1612199706       12.6273999383
C         18.8460002734       29.2935865690       11.7688606415
N         20.4968715258       32.0718468613       15.4627918133
C         17.7552886656       26.7487293876       11.3204388010
C         18.5316600163       28.8852623396       10.4626297667
C         21.9341924177       32.4244742093       15.3553441492
S         19.3759902695       33.3643720163       15.4978697061
C         17.9868685364       27.6113838401       10.2377871323
C         22.5441746218       32.9946456221       16.6360198322
O         19.1737767356       33.7247800311       16.9062187991
O         19.8765314789       34.3456128105       14.5269095751
C         17.9175726087       32.6025525272       14.7507851567
C         23.7855298172       33.8507167297       16.5574807211
C         22.4621094785       34.4731821760       16.9338665736
C         16.8624353220       32.1302738313       15.5558688219
C         17.8617310006       32.4178609767       13.3555668086
C         15.7806206872       31.4499421872       14.9708066955
C         16.7786794388       31.7390299003       12.7732380106
C         15.7439890697       31.2343042004       13.5837755722
O         14.6895249438       30.5161812143       13.0632442475
C         14.7961713928       29.7844941899       11.8258116898
H         19.9911612311       26.2314818794        5.4462001528
H         20.3449029198       24.0629964417        6.6324369174
H         21.0822094984       28.3772915270        9.0098108446
H         21.0659934720       24.0493814940        9.0047963622
H         22.2809925123       28.1529924072       10.9054118402
H         23.5199982697       26.9112919420       10.5180564544
H         23.6992124702       26.3957247145       12.7685472460
H         20.6587851202       27.0749154625       13.9824307533
H         20.7575106239       29.9447300144       13.8031049643
H         18.5896294861       28.1415261437       15.0027700014
H         18.3787471685       29.7995551478       14.4958794656
H         21.9245707925       29.7058043552       15.9634805414
H         19.0998437818       30.7633387505       16.4002766617
H         20.4961040802       31.1551273535       17.3808893088
H         20.8296631630       27.7405676700       16.5028775833
H         17.8798359546       26.4852381422       13.4581365972
H         19.2736020302       30.2780727829       11.9330939900
H         17.3429097161       25.7579661458       11.1468894914
H         18.7150254274       29.5528651172        9.6245835572
H         22.5178168042       31.5452387424       15.0550405713
H         22.0697248958       33.1547421225       14.5460819603
H         17.7518705370       27.2903180390        9.2260897766
H         22.4861290210       32.3170584940       17.4855730492
H         24.5323864436       33.7328831324       17.3398733314
H         24.1910385684       34.0778199678       15.5735896358
H         22.3120798254       34.7702521161       17.9696337618
H         21.9823783606       35.1208121338       16.2029357895
H         16.8940951371       32.2671910740       16.6343809972
H         18.6710111133       32.7795524036       12.7254789189
H         14.9781320316       31.0667226571       15.5949662295
H         16.7610253075       31.5940374709       11.6977552937
H         14.9346913352       30.4662789363       10.9774006730
H         15.6438157706       29.0869994158       11.8623704011
H         13.8805615150       29.2056023382       11.6516045579
    77
VM2 Rank=14     G=211.894           E=123.092           -TS=88.801              
C         20.1369440191       26.3712986644        6.3312503453
C         20.4842688714       25.1761011647        6.9776319990
C         20.2683306921       27.5936299524        7.0095717228
F         20.3620784463       24.0013351177        6.3257917059
C         20.9597100050       25.1945550357        8.2974196226
C         20.7454851300       27.6144335763        8.3310685456
C         21.0894755126       26.4155193490        8.9877857628
N         21.5692409568       26.4396148749       10.3276487375
C         22.5574423538       27.4188406363       10.7670730026
C         21.2135466028       25.5713431172       11.3430785887
C         22.7981445072       27.0585628722       12.2432308217
O         21.9207917872       25.9219597268       12.4547349647
O         20.4181157125       24.6496433926       11.2851265161
C         22.4875597999       28.2369256479       13.1859600983
O         23.1861224052       29.2344496684       13.2476296893
N         21.3073470742       28.1402161071       13.8887283674
C         20.5447827557       29.3189950218       14.3183241497
C         19.0300353203       29.0097603325       14.2115245289
C         21.0011519648       29.7783770002       15.7323746252
C         18.6347110765       28.5532128353       12.8127686175
C         20.3452357118       31.1003979348       16.1969935246
O         20.7223012881       28.7614370055       16.6925556279
C         18.6546646434       29.4630368327       11.7399818633
C         18.2712616876       27.2147258587       12.5759466414
N         20.5352701043       32.2400931616       15.2607808510
C         18.3071928798       29.0426420756       10.4458058519
C         17.9263680640       26.7925175428       11.2813791284
C         21.9455863974       32.6256345757       15.0057076453
S         19.4043695793       33.5150069509       15.4062528859
C         17.9427788334       27.7064681692       10.2162021008
C         22.6567915498       33.2542991390       16.2045750291
O         19.4098943408       33.9355994990       16.8125296011
O         19.7426997526       34.4558081551       14.3307927095
C         17.8540014249       32.7194060362       14.9238974668
C         24.1659168174       33.2798746568       16.2467208082
C         23.3995782143       32.3970161569       17.2024950048
C         17.5651359360       32.5031188466       13.5624788763
C         16.9427407307       32.2790792063       15.9036905240
C         16.3832224797       31.8428020965       13.1875697311
C         15.7612344017       31.6177698124       15.5265436370
C         15.4797555403       31.3939653940       14.1635462867
O         14.3410466602       30.7439881461       13.7353367963
C         13.3696679692       30.1785386544       14.6364949968
H         19.7688338627       26.3479812113        5.3095648057
H         19.9993389348       28.5230813084        6.5135782691
H         21.2260808178       24.2576297694        8.7774588784
H         20.8321508938       28.5669345980        8.8461891104
H         22.1621493171       28.4384363933       10.6722142055
H         23.4814480504       27.3212972578       10.1832817372
H         23.8438470033       26.7672405434       12.4010037772
H         20.7985193946       27.2743101564       13.7586131412
H         20.7668356953       30.1353429521       13.6165102975
H         18.7552196757       28.2466027885       14.9505882862
H         18.4482036630       29.8999212814       14.4711624023
H         22.0874994853       29.9286899423       15.6937997408
H         19.2772113959       30.9029860367       16.3438474047
H         20.7459856717       31.3641088896       17.1844627356
H         21.0844510418       27.9355089714       16.3071474683
H         18.9437122147       30.4960344088       11.9086842913
H         18.2594983260       26.4982609172       13.3928904906
H         18.3243105924       29.7502512707        9.6209141198
H         17.6537166787       25.7552624080       11.1030876504
H         22.5211378719       31.7567202339       14.6620964084
H         21.9801349111       33.3449672594       14.1764465267
H         17.6807765372       27.3780168617        9.2135191878
H         22.1533056345       34.1375569840       16.5938055901
H         24.7100816691       32.7976512115       15.4370376868
H         24.6462920994       34.1689110831       16.6500472195
H         23.4391760864       31.3230371629       17.0367137033
H         23.3606126104       32.6925558136       18.2488145109
H         18.2617034602       32.8373526333       12.7971751022
H         17.1558863926       32.4403259163       16.9580090349
H         16.1678545357       31.6693026253       12.1368019569
H         15.0762612494       31.2821141252       16.2987596222
H         13.8332656271       29.4170273027       15.2769341160
H         12.9293455298       30.9582204559       15.2713537532
H         12.5613537469       29.7028008189       14.0669528018
    77
VM2 Rank=15     G=211.914           E=124.003           -TS=87.911              
C         21.5852495758       28.0375194205        6.0682905172
C         22.0772476692       26.7565624212        6.3586742623
C         21.2733328020       28.9182961677        7.1164757299
F         22.3797616293       25.9104504448        5.3524605496
C         22.2580693211       26.3500015641        7.6891912950
C         21.4547501209       28.5135206859        8.4497984279
C         21.9438374985       27.2254771163        8.7466645094
N         22.1231814287       26.8170080246       10.0975716943
C         22.7610506686       27.6864343328       11.0798302858
C         21.7620402940       25.5982600577       10.6403856881
C         22.7382427754       26.8535215619       12.3731545300
O         22.1224846319       25.6074442580       11.9552332895
O         21.2193294223       24.6664975904       10.0722296462
C         21.9567555236       27.5577222959       13.4987761921
O         22.3788147066       28.5463952118       14.0743730056
N         20.6970659709       27.0611311397       13.7515635973
C         19.6159795970       27.8928417194       14.2958182926
C         18.2640725687       27.4522390663       13.6810318399
C         19.6399396816       27.8741097492       15.8515483334
C         18.2799457581       27.5268691352       12.1600256767
C         18.6009342647       28.8207779415       16.4984247566
O         19.4226825196       26.5478781296       16.3293229025
C         18.2016568619       28.7752392303       11.5164422623
C         18.3951659905       26.3565262098       11.3874165990
N         18.6394730546       30.2087678997       15.9733467869
C         18.2354133062       28.8538936243       10.1143496474
C         18.4288555083       26.4342552607        9.9852533130
C         19.9246576559       30.9330474464       16.1488839083
S         17.1762616360       31.0793502305       16.1266873163
C         18.3477956410       27.6825555230        9.3483527892
C         20.2354639329       31.3263732592       17.5929521377
O         16.2442797875       30.3684509686       15.2430569030
O         16.9197696873       31.2543766324       17.5612409931
C         17.5203859687       32.6662213916       15.3280917754
C         21.6583505223       31.6375051583       17.9903586403
C         20.9882904233       30.3852754840       18.5035724338
C         17.7493448246       33.8203840018       16.1029201485
C         17.5835099970       32.7514083806       13.9235560440
C         18.0387629942       35.0466447841       15.4800570772
C         17.8727306496       33.9781116139       13.3029594461
C         18.1016881019       35.1286458189       14.0742542524
O         18.3829566238       36.3038586198       13.4087491672
C         18.6424184039       37.5501504277       14.0836533365
H         21.4472916769       28.3439174143        5.0353446927
H         20.8893674160       29.9115815016        6.8969386770
H         22.6424782443       25.3548708344        7.8923546900
H         21.1977484101       29.2010947713        9.2508312803
H         22.1939667410       28.6182274772       11.2022176816
H         23.7912335132       27.9142397153       10.7782733073
H         23.7588513119       26.6740841764       12.7329123576
H         20.4379031078       26.2432657981       13.2139327052
H         19.7995914593       28.9270356269       13.9725188444
H         18.0192642609       26.4347763796       14.0113526903
H         17.4584527988       28.0942092554       14.0572837898
H         20.6397619228       28.1986639206       16.1677281124
H         17.6059615347       28.3894398457       16.3269722831
H         18.7526031406       28.8286696155       17.5855073354
H         20.0402088127       25.9846348546       15.8160137203
H         18.1168767567       29.6846857944       12.1047512604
H         18.4625947590       25.3858393809       11.8713781567
H         18.1760170304       29.8212273229        9.6220643587
H         18.5245000706       25.5273276203        9.3931678329
H         20.7539347366       30.3257727317       15.7640636081
H         19.9311969476       31.8436206364       15.5369155750
H         18.3789316211       27.7422794199        8.2632600236
H         19.4663285535       31.9432014367       18.0533613432
H         22.4376374899       31.5237033793       17.2393305845
H         21.8213109732       32.4515127891       18.6936697970
H         21.3249900045       29.4328652556       18.1007275681
H         20.6968634376       30.3564151214       19.5513714467
H         17.7056728978       33.7667200902       17.1882244046
H         17.4106063972       31.8667725812       13.3153919219
H         18.2126309034       35.9224520845       16.0972985741
H         17.9212957865       34.0398296873       12.2192700458
H         17.7766172164       37.8517066294       14.6873235657
H         19.5192555228       37.4613533455       14.7380595576
H         18.8409000939       38.3409637477       13.3492356879
    77
VM2 Rank=16     G=211.929           E=123.205           -TS=88.724              
C         20.7620313902       26.7072716911        6.2177323197
C         20.7837205585       25.4294112527        6.7952917456
C         20.9781125360       27.8384630407        7.0209889181
F         20.5798776141       24.3415161063        6.0240366052
C         21.0177925170       25.2751325824        8.1699340881
C         21.2139298685       27.6860727860        8.3978097400
C         21.2301065194       26.4044966214        8.9845418486
N         21.4658926372       26.2536364395       10.3800507012
C         22.5154780967       27.0029288227       11.0621796477
C         20.7945373300       25.4035154697       11.2391120040
C         22.4288870076       26.5114894207       12.5174531794
O         21.3460333584       25.5459375574       12.4778375417
O         19.8751798514       24.6506402565       10.9678516228
C         22.1659205205       27.6649285484       13.5045339808
O         22.9999618915       28.5166731961       13.7608994310
N         20.8865846815       27.7356465715       14.0089319127
C         20.2698546602       29.0017176298       14.4242367116
C         18.7679685757       28.9843139223       14.0421296033
C         20.5382710896       29.2726146913       15.9324517308
C         18.5557690486       28.7137447042       12.5580062037
C         20.0342441581       30.6546601933       16.4111040800
O         19.9284142031       28.2581051712       16.7280589256
C         18.9100370343       29.6857353238       11.6047163071
C         18.0263825708       27.4837918531       12.1259721176
N         20.5682930824       31.8062296759       15.6351950776
C         18.7302944496       29.4350664611       10.2345700093
C         17.8483809491       27.2311655129       10.7557146837
C         22.0467524743       31.9353461727       15.6129017071
S         19.6671843232       33.2552780578       15.7490373194
C         18.1987660576       28.2071029144        9.8096942277
C         22.6717961843       32.2963939764       16.9603555141
O         19.5093138498       33.5565178787       17.1767869889
O         20.3302563337       34.1983564463       14.8396170792
C         18.1061888276       32.7985335166       14.9591718372
C         22.8187317897       33.7413753257       17.3749165338
C         24.0398152971       32.9340705934       17.0038038932
C         16.9804157199       32.4697704633       15.7394020450
C         18.0192448573       32.7312039017       13.5550263435
C         15.7837603509       32.0665148693       15.1221793688
C         16.8222169679       32.3282948330       12.9400591737
C         15.7028391107       31.9909204961       13.7168750522
O         14.5583168216       31.5941845347       13.0571923431
C         13.3644448345       31.1632305179       13.7386398361
H         20.5792297645       26.8178513923        5.1527223084
H         20.9610306870       28.8315615864        6.5785949088
H         21.0336642676       24.2762713175        8.5956760416
H         21.3691893374       28.5712621388        9.0081345087
H         22.3241153385       28.0820429039       11.0010871158
H         23.4965336494       26.7729914569       10.6277017179
H         23.3649953278       26.0219624229       12.8129370794
H         20.2699783905       26.9840955212       13.7250910234
H         20.7468152582       29.8100162509       13.8520952942
H         18.2419276589       28.2320604192       14.6434373212
H         18.3070744316       29.9445508727       14.2952628209
H         21.6241507789       29.2304357368       16.0902752159
H         18.9393587197       30.6399658605       16.3625497219
H         20.2895638281       30.7729292926       17.4720725474
H         20.2161668343       27.4093229033       16.3296281622
H         19.3285663696       30.6348678661       11.9259501199
H         17.7556937739       26.7200731096       12.8500741447
H         19.0058473822       30.1899022295        9.5026156096
H         17.4456338373       26.2761363492       10.4274437647
H         22.5038295052       31.0031551457       15.2577411620
H         22.3333411182       32.6989825254       14.8771445539
H         18.0654473890       28.0091202144        8.7490659510
H         22.4560853462       31.5769683520       17.7478832499
H         22.4910553456       34.5120921069       16.6802079388
H         22.6630754403       33.9818632180       18.4244471609
H         24.5302824439       33.1614210912       16.0594475561
H         24.7131671909       32.6342194097       17.8041147196
H         17.0367626150       32.5167714957       16.8245963692
H         18.8825297215       32.9805655394       12.9425010233
H         14.9305347219       31.8127051465       15.7432786765
H         16.7614041326       32.2685137723       11.8568519143
H         12.5945609452       30.8852132570       13.0078408448
H         13.5726387706       30.2884393516       14.3682252421
H         12.9649904258       31.9686520052       14.3683786743
    77
VM2 Rank=17     G=211.968           E=123.627           -TS=88.342              
C         22.7206295391       22.9631161942        6.6215699001
C         22.7433800206       24.3652460828        6.6377332583
C         22.4923465041       22.2565583404        7.8134123419
F         22.9609495343       25.0462743016        5.4938541767
C         22.5389894742       25.0651404706        7.8360647443
C         22.2845959195       22.9558994675        9.0146015013
C         22.3009900508       24.3650506751        9.0351736556
N         22.0909448031       25.0714885921       10.2528515547
C         22.9172792065       26.2137535310       10.6252803011
C         21.1419663942       24.7839885973       11.2158356452
C         22.3657312570       26.6326242258       12.0011455345
O         21.3084751449       25.6679999636       12.2391781054
O         20.2980221921       23.9049192522       11.1824265688
C         21.8476433009       28.0851546494       12.0317579998
O         22.4123877270       29.0007104142       11.4564547932
N         20.6643312133       28.2762672104       12.7119185349
C         19.7771700560       29.4310145669       12.5126240731
C         18.5727191643       29.0191861094       11.6235529692
C         19.3731460085       30.0282850465       13.8904529363
C         18.9888170912       28.3353478068       10.3258360783
C         18.5933172615       31.3640136704       13.7678494810
O         18.6106581212       29.0867121432       14.6520656105
C         18.7277749607       26.9666932858       10.1274065507
C         19.6446386174       29.0653340584        9.3177251560
N         18.1333647801       31.9451754228       15.0574026743
C         19.1108019386       26.3367851301        8.9316414039
C         20.0318568652       28.4356225212        8.1230606383
C         17.1503483177       33.0376931515       14.8652684448
S         19.2901718650       32.0937942710       16.3149562009
C         19.7603728573       27.0720881194        7.9277925516
C         17.7379350526       34.3148637042       14.2628792962
O         19.3702550506       30.7422235918       16.8843938484
O         20.4506652059       32.7830763466       15.7388882295
C         18.5089543057       33.1428287851       17.5682354947
C         16.8193355048       35.3381554191       13.6398839906
C         17.7425444235       34.5221092690       12.7666714360
C         18.8946410370       34.4899017061       17.7180403057
C         17.5025744978       32.6155402877       18.4012005940
C         18.2752934071       35.3025804941       18.6830636791
C         16.8849408111       33.4295139150       19.3654457859
C         17.2649213196       34.7731009638       19.5109015092
O         16.6216477903       35.5232683213       20.4734929576
C         16.9144714078       36.9128999246       20.7170094886
H         22.8803855724       22.4289612152        5.6893035140
H         22.4762873913       21.1693068275        7.8070111635
H         22.5567721530       26.1501780638        7.8219754830
H         22.1123803013       22.3969866620        9.9310482779
H         22.8071350388       27.0229205290        9.8919457385
H         23.9714058566       25.9181202365       10.6984318610
H         23.1410563978       26.5383469867       12.7711562799
H         20.2735872771       27.4602519331       13.1675029114
H         20.3364993144       30.2093886588       11.9751149332
H         17.9106993393       28.3577173126       12.1967759447
H         17.9744580577       29.9031994799       11.3761198763
H         20.3133931026       30.2354614609       14.4199443487
H         19.2372175738       32.0878982057       13.2507824069
H         17.7183464565       31.1938089865       13.1297641285
H         18.6102313930       29.4311085927       15.5757474657
H         18.2300508391       26.3882832453       10.9013483521
H         19.8587590698       30.1207043528        9.4627929806
H         18.9070012808       25.2787464829        8.7854521541
H         20.5390543830       29.0052068486        7.3484569673
H         16.6627545938       33.2886553894       15.8153508074
H         16.3444773476       32.6817877970       14.2091335517
H         20.0546803239       26.5854998868        7.0012085020
H         18.5899230316       34.7088325527       14.8125466400
H         15.7549631485       35.1154610182       13.6000486387
H         17.0575340484       36.3893388353       13.7886700726
H         18.6034032411       35.0228271961       12.3285583424
H         17.2964929812       33.7536395373       12.1387884804
H         19.6744352943       34.9085613372       17.0862238070
H         17.1973892936       31.5767692346       18.2969336373
H         18.5876717811       36.3377655941       18.7783723018
H         16.1072053276       33.0194628607       20.0038636246
H         17.9628006842       37.0416236658       21.0160203815
H         16.7246013894       37.5124933407       19.8173280970
H         16.2778006327       37.2951343285       21.5249143292
    77
VM2 Rank=18     G=211.985           E=124.060           -TS=87.925              
C         21.6537335122       26.1540339826        6.1636584734
C         20.4554319078       26.2806825006        6.8810724186
C         22.8592968414       25.9457462884        6.8531052123
F         19.2956908774       26.4818759827        6.2219811875
C         20.4555805120       26.2009858445        8.2812915323
C         22.8611473602       25.8673041292        8.2565091790
C         21.6592718892       25.9943617892        8.9823144011
N         21.6631673473       25.9289994910       10.4045485130
C         22.6738795886       26.6223336909       11.1962631606
C         20.7392894932       25.2771029907       11.2006201334
C         22.2690919070       26.3224458708       12.6499841504
O         21.0820132902       25.5003917247       12.5009803394
O         19.7849651453       24.6128915088       10.8345541351
C         22.0153771981       27.6003754724       13.4734995761
O         22.8582773655       28.4692634567       13.6216686884
N         20.7441407983       27.7363561279       13.9848200793
C         20.1753229259       29.0293688744       14.3865371318
C         18.6565282817       29.0343285791       14.0796873204
C         20.5203700106       29.3371026569       15.8725006445
C         18.3678185880       28.7589210784       12.6098746468
C         20.0642676522       30.7399081924       16.3387710396
O         19.9328205223       28.3558684810       16.7248259598
C         18.6503345312       29.7383635393       11.6405383291
C         17.8351206009       27.5207620865       12.2060569306
N         20.5685626143       31.8622820612       15.5026163931
C         18.3914912916       29.4894439663       10.2828477676
C         17.5773252137       27.2697646697       10.8482170113
C         22.0446586992       31.9597005849       15.3807405876
S         19.7074309940       33.3329773374       15.6456651877
C         17.8503260795       28.2562759876        9.8868160478
C         22.7643040580       32.3362545187       16.6757117326
O         19.6615918106       33.6710505517       17.0731637159
O         20.3202149152       34.2391762515       14.6661663498
C         18.0823342158       32.8931024510       14.9859313740
C         24.1464299189       32.9412495653       16.6148311821
C         22.9709098619       33.7864141168       17.0441734271
C         17.0132764393       32.6026500218       15.8560042358
C         17.8868011777       32.8017104346       13.5942050956
C         15.7652879291       32.2131083599       15.3399479771
C         16.6387846172       32.4121375789       13.0803420121
C         15.5756753893       32.1129584933       13.9467047902
O         14.3764147070       31.7284158262       13.3841471053
C         13.2272419209       31.3435528839       14.1631048249
H         21.6456930839       26.2166974771        5.0792316570
H         23.7909545190       25.8452380812        6.3014039605
H         19.5175306523       26.3006585245        8.8162035203
H         23.8014796296       25.7012386514        8.7748464870
H         22.6475138634       27.6998055489       10.9854628123
H         23.6756304501       26.2267289391       10.9893004998
H         23.0587527116       25.7529271385       13.1551970147
H         20.1076520363       26.9764939040       13.7760930560
H         20.6414767941       29.8086118557       13.7671575673
H         18.1479684596       28.2954027688       14.7118042076
H         18.2244139334       30.0042424510       14.3470673080
H         21.6118112000       29.2799959661       15.9792997098
H         18.9683727859       30.7408542752       16.3535787341
H         20.3819920443       30.8828878220       17.3796932169
H         20.1834272745       27.4912647029       16.3357817426
H         19.0737388786       30.6924654075       11.9395762364
H         17.6204550716       26.7514373759       12.9428776502
H         18.6099578211       30.2513009097        9.5388588591
H         17.1675473071       26.3103468559       10.5420645890
H         22.4590891840       31.0106970781       15.0177928799
H         22.2969292741       32.7012596347       14.6106215887
H         17.6480876658       28.0636389887        8.8360156582
H         22.5841069129       31.6405973537       17.4929655807
H         24.8635656144       32.6436458139       17.3770375379
H         24.5792651258       33.1346698955       15.6353938115
H         22.6159296995       34.5484950389       16.3533463267
H         22.8895221594       34.0547708339       18.0953348518
H         17.1532937391       32.6688820606       16.9325943680
H         18.7050790158       33.0226298881       12.9128740163
H         14.9572910607       31.9889495272       16.0292103431
H         16.4941423988       32.3338542762       12.0063015484
H         13.4613676186       30.4784120414       14.7968981711
H         12.8953378688       32.1730691970       14.8007557647
H         12.3982954683       31.0684966506       13.4988151738
    77
VM2 Rank=19     G=212.005           E=123.662           -TS=88.343              
C         22.5951361060       22.8733132707        6.6691634527
C         22.7798132527       24.2614892402        6.7440414721
C         22.1675536033       22.1654629067        7.8040389652
F         23.1890185090       24.9439184128        5.6548041246
C         22.5395017974       24.9462443118        7.9444552145
C         21.9235811302       22.8499878270        9.0069501033
C         22.1023369208       24.2457732660        9.0858885698
N         21.8552127612       24.9371442258       10.3052613698
C         22.7676651198       25.9607826449       10.8011454435
C         20.7875006318       24.7382057329       11.1602338533
C         22.1335957834       26.4034024837       12.1333310649
O         20.9526237704       25.5661639209       12.2296498230
O         19.8543958479       23.9681324851       11.0104879862
C         21.7878534140       27.9061179414       12.1723293861
O         22.5101519270       28.7633536620       11.6910993079
N         20.5727897655       28.2183120521       12.7428839340
C         19.8506518677       29.4763090948       12.5058500512
C         18.7015734216       29.2373780733       11.4893425733
C         19.3830036791       30.0781935401       13.8613703810
C         19.1630564402       28.5459402467       10.2111481587
C         18.7800447285       31.5006066009       13.7181351490
O         18.4438069992       29.2133816041       14.5079052385
C         18.7653463416       27.2247747119        9.9335234776
C         19.9973013078       29.2204548401        9.3010181890
N         18.2639343711       32.0956918918       14.9797848772
C         19.1902191340       26.5879144527        8.7557121824
C         20.4262369430       28.5832519211        8.1247181019
C         17.4387310330       33.3029315936       14.7380174481
S         19.2985165227       32.0692534513       16.3474967104
C         20.0184964776       27.2683259323        7.8494432325
C         18.2281244284       34.5174478064       14.2470080612
O         19.1640791001       30.7019984543       16.8670689776
O         20.5828660216       32.6314910806       15.9138550798
C         18.5223338098       33.1671483435       17.5614128849
C         18.4083100086       34.7646536330       12.7678024348
C         17.5019651303       35.6599414137       13.5788115567
C         17.3821864689       32.7402700936       18.2708110098
C         19.0453607381       34.4528594237       17.8031487675
C         16.7665490029       33.5910749325       19.2047962059
C         18.4283098480       35.3019040317       18.7371053709
C         17.2891439824       34.8787096623       19.4399986000
O         16.7269955627       35.7570571993       20.3431182479
C         15.5561262905       35.4452315864       21.1228329617
H         22.7840281216       22.3507670181        5.7357659148
H         22.0252917044       21.0886663215        7.7522288586
H         22.6852448074       26.0212271409        7.9759473996
H         21.5962567485       22.2897919019        9.8792766945
H         22.8268314430       26.7979343256       10.0938037727
H         23.7673916126       25.5386963445       10.9633831139
H         22.8115340961       26.1949193441       12.9699129987
H         20.0460012065       27.4424089456       13.1257476458
H         20.5478531100       30.1970221257       12.0562805016
H         17.9129494135       28.6439517206       11.9692533841
H         18.2381730204       30.1934286192       11.2213062872
H         20.2832254214       30.1561805258       14.4865641028
H         19.5522976512       32.1566480449       13.2948057181
H         17.9595639772       31.4545895879       12.9926132448
H         18.3912099858       29.5288299740       15.4403874452
H         18.1284720602       26.6884005773       10.6320693413
H         20.3174466634       30.2378962186        9.5084288464
H         18.8800693998       25.5666198270        8.5480695468
H         21.0715153040       29.1097494268        7.4260744529
H         16.6669616437       33.0648331565       13.9935097449
H         16.8906951609       33.5831041051       15.6460565316
H         20.3454502180       26.7766325153        6.9366008707
H         19.0597767731       34.7916068362       14.8923363787
H         19.3612530918       35.1714275803       12.4358799597
H         17.9423082858       34.0727385825       12.0693490601
H         17.8438404466       36.6706773856       13.7918841919
H         16.4285348382       35.5667834655       13.4267117350
H         16.9713351274       31.7488630385       18.0935320559
H         19.9282496300       34.7948418627       17.2683108068
H         15.8877776006       33.2407135257       19.7370435724
H         18.8333920123       36.2935592940       18.9190943606
H         15.2962214799       36.2948991631       21.7667870400
H         14.6996539826       35.2352669170       20.4691105635
H         15.7378311650       34.5722620210       21.7630554131
    77
VM2 Rank=20     G=212.038           E=123.727           -TS=88.311              
C         23.9387214323       24.2871150108        6.7216660163
C         22.6699515537       23.9348636010        7.2035289697
C         24.7056353877       25.2388659702        7.4126103362
F         21.9303600811       23.0208868249        6.5421787082
C         22.1636745027       24.5283565290        8.3691057317
C         24.1989159969       25.8358988792        8.5797877447
C         22.9226163684       25.4875438485        9.0679418936
N         22.4053127817       26.1034759569       10.2440280158
C         22.5482972086       27.5363982116       10.4822679414
C         21.6972663922       25.4818867873       11.2570073646
C         21.9208458735       27.7382480329       11.8718799707
O         21.3687070714       26.4321758365       12.1777173091
O         21.4044782658       24.3013268300       11.3384877531
C         20.8745985555       28.8683540903       11.9078757437
O         21.1111574108       29.9948952269       11.5060327419
N         19.6286629128       28.5094907530       12.3737812693
C         18.3966361003       29.2500675898       12.0579950933
C         17.3242439638       28.2490975392       11.5638542122
C         17.9139325532       30.1054095878       13.2621575289
C         17.8250933035       27.3863519241       10.4115585235
C         18.9964502746       31.1256210806       13.7016009515
O         16.7151338992       30.8070207716       12.9257911371
C         18.0382462423       27.9566426179        9.1433025970
C         18.1052558570       26.0218713489       10.6114735106
N         18.5735076738       32.1057660961       14.7355731247
C         18.5234421888       27.1713555042        8.0844981026
C         18.5858378761       25.2346216203        9.5522957692
C         19.5353819579       33.2260200657       14.8662474677
S         17.8539312044       31.4741206024       16.1573473309
C         18.7946649575       25.8091110526        8.2880326754
C         20.8876626230       32.8297337752       15.4620389190
O         16.4683891059       31.1947826960       15.7577594620
O         18.7573772611       30.4351740971       16.6651657131
C         17.7912056721       32.8625881395       17.3186768913
C         22.0932721943       33.7087890623       15.2314516507
C         22.0086387057       32.3550949239       14.5670697428
C         16.8420721489       33.8886228937       17.1406890165
C         18.6900671008       32.9326866146       18.4013085448
C         16.7961463504       34.9760883015       18.0298022889
C         18.6425958337       34.0207505271       19.2888755488
C         17.7000881395       35.0455385332       19.1089361936
O         17.7028292449       36.0882623821       20.0121786259
C         16.7906957723       37.2010282637       19.9354218679
H         24.3240683995       23.8227995890        5.8183921194
H         25.6914144187       25.5136824352        7.0449364876
H         21.1806912078       24.2376835512        8.7231723801
H         24.8088862158       26.5656346989        9.1046791334
H         22.0025555780       28.0994419924        9.7132475951
H         23.6018046933       27.8403126161       10.4899529356
H         22.7015951736       27.9863274193       12.6013857131
H         19.5412831177       27.5436046152       12.6657810641
H         18.6072699450       29.9413001745       11.2295053737
H         17.0019217706       27.6181723795       12.4017587938
H         16.4320836133       28.8003795322       11.2404937481
H         17.7155101275       29.4205393747       14.0980980973
H         19.8629165357       30.5639754605       14.0741946380
H         19.3270387308       31.6636982924       12.8033114220
H         16.3738655583       31.1731594862       13.7756961696
H         17.8317418232       29.0110779189        8.9801929507
H         17.9535946972       25.5701277443       11.5881106472
H         18.6871662626       27.6180452796        7.1070217343
H         18.7988112883       24.1807173646        9.7137837047
H         19.7082430891       33.6633236164       13.8734717016
H         19.1067028581       34.0345705676       15.4711749201
H         19.1660762391       25.2005806889        7.4671779942
H         20.8154544921       32.3620347621       16.4415043626
H         21.9738062739       34.5897627686       14.6040550831
H         22.7967140313       33.8288585029       16.0527716331
H         22.6523927023       31.5622038677       14.9417822916
H         21.8332110810       32.3264122771       13.4932124120
H         16.1425081907       33.8436695367       16.3090102624
H         19.4249792964       32.1460960628       18.5552525847
H         16.0575616803       35.7554859134       17.8707005323
H         19.3388002925       34.0722532382       20.1214872744
H         16.9831537934       37.9020843034       20.7573961007
H         16.9161233350       37.7404310958       18.9876376398
H         15.7514022665       36.8565971461       20.0142508037
    77
VM2 Rank=21     G=212.038           E=122.497           -TS=89.541              
C         20.3187220677       26.6470238552        6.2679385750
C         20.5144216400       25.4064711598        6.8919334382
C         20.5187061590       27.8313086953        6.9950308431
F         20.3273742441       24.2677133518        6.1932450723
C         20.9056112171       25.3420433734        8.2376705879
C         20.9117090296       27.7689419800        8.3426525025
C         21.1018659921       26.5247179346        8.9777459201
N         21.4965726942       26.4652071113       10.3447557276
C         22.5195473942       27.3556233692       10.8834856214
C         21.0234672105       25.5839941320       11.2998326579
C         22.6561495833       26.9128903288       12.3505925053
O         21.6892203551       25.8362932498       12.4625729512
O         20.1720733514       24.7234043187       11.1578568773
C         22.3833420646       28.0658997310       13.3361254906
O         23.1090923561       29.0413042089       13.4295164262
N         21.2041753467       27.9759849724       14.0407828056
C         20.4638839803       29.1589415035       14.4966111692
C         18.9487365875       28.9134392663       14.2806773359
C         20.8500448156       29.5200369123       15.9597726629
C         18.6120407006       28.5445426086       12.8402692225
C         20.1987542173       30.8289461810       16.4677978126
O         20.4875962583       28.4556607521       16.8372160735
C         18.0600379054       27.2860980806       12.5386571737
C         18.8579322042       29.4563863476       11.7971404948
N         20.5078238492       32.0292050715       15.6447551387
C         17.7523841774       26.9461994368       11.2108634162
C         18.5451077359       29.1201724606       10.4702451292
C         21.9439047703       32.3919487545       15.5562912731
S         19.3829660886       33.3138653199       15.7562227239
C         17.9932374687       27.8635762745       10.1762753938
C         22.5539896918       32.8880906876       16.8673755907
O         19.1809124196       33.5909923118       17.1833183190
O         19.8795106299       34.3516134050       14.8437169508
C         17.9263125960       32.5925342686       14.9667840339
C         22.4676100953       34.3463509164       17.2514782692
C         23.7924602174       33.7513921895       16.8375098081
C         17.8716039384       32.4858802001       13.5633856439
C         16.8712516710       32.0748762801       15.7435450094
C         16.7895627303       31.8396412637       12.9433033511
C         15.7904071419       31.4273830452       15.1206459071
C         15.7546549954       31.2897619571       13.7236827374
O         14.7008938302       30.6011254559       13.1633312539
C         14.8063285779       29.9445172771       11.8843901032
H         20.0151797188       26.6879443156        5.2257889852
H         20.3684127233       28.7958763496        6.5162037792
H         21.0554955748       24.3702998797        8.6984686081
H         21.0547868003       28.6941907064        8.8933023569
H         22.1942407119       28.4020249432       10.8199765890
H         23.4662232432       27.2257709222       10.3440036444
H         23.6679601101       26.5362945437       12.5445122219
H         20.6738342876       27.1284292423       13.8776807026
H         20.7574382033       30.0070058591       13.8620773599
H         18.6045479542       28.1257706405       14.9627134081
H         18.3843467451       29.8094142912       14.5532458496
H         21.9407107994       29.6409667385       15.9953026173
H         19.1157807911       30.6648274748       16.5069903839
H         20.5146981270       30.9997279189       17.5048715987
H         20.8559917837       27.6449357213       16.4261509620
H         17.8707071961       26.5676642414       13.3315951812
H         19.2909509847       30.4281295474       12.0145612134
H         17.3340546128       25.9688745697       10.9836389003
H         18.7346884034       29.8305800429        9.6698150059
H         22.5297309976       31.5336497981       15.2042458048
H         22.0760686417       33.1687507263       14.7909949385
H         17.7597406180       27.5983067249        9.1481783505
H         22.4993886819       32.1617048587       17.6758404072
H         21.9846906407       35.0341181681       16.5603983078
H         22.3181996803       34.5817137312       18.3030747400
H         24.1957480557       34.0371127577       15.8680883100
H         24.5408740634       33.5903766642       17.6106655183
H         18.6809466253       32.8829748094       12.9550723122
H         16.9021041013       32.1513949744       16.8280397006
H         16.7728329733       31.7548685324       11.8613941796
H         14.9878771884       31.0092037529       15.7218895849
H         14.9419348294       30.6758493096       11.0777969255
H         15.6552502723       29.2476783635       11.8777876607
H         13.8913937909       29.3752832296       11.6778150741
    77
VM2 Rank=22     G=212.047           E=123.784           -TS=88.263              
C         23.5790919321       24.1292530660        6.5816940275
C         24.3018035549       25.2136440310        7.0993078568
C         22.4209958762       23.6873870996        7.2406523342
F         25.4172970460       25.6373585140        6.4700373412
C         23.8736389025       25.8605117749        8.2684988775
C         21.9912803306       24.3335043423        8.4120911654
C         22.7105858152       25.4266614438        8.9363396556
N         22.2668226515       26.0883601845       10.1181880237
C         22.2853724063       27.5436878050       10.2333197264
C         21.7514473814       25.4906921931       11.2548757106
C         21.8379654711       27.7978376058       11.6823469016
O         21.4396647848       26.4803486076       12.1394114068
O         21.5917743118       24.2993055320       11.4578542462
C         20.7224709597       28.8533666410       11.7997388332
O         20.8224332795       29.9698438528       11.3201726595
N         19.5730449840       28.4347458628       12.4332782691
C         18.2566009432       29.0574544815       12.2207897264
C         17.2274849831       27.9505184567       11.8867993598
C         17.8321469562       29.9342894358       13.4309604291
C         17.6865815093       27.0645165129       10.7346344345
C         18.8656172416       31.0584831151       13.7029354898
O         16.5497953639       30.5197617656       13.1959718823
C         18.0805630377       25.7344758324       10.9712094480
C         17.7518277143       27.5822657316        9.4281413155
N         18.4730319429       32.0567237793       14.7315400199
C         18.5279099129       24.9288375494        9.9113602766
C         18.2041253056       26.7790893583        8.3682781003
C         19.3458035963       33.2545674814       14.7056437781
S         17.9622422713       31.4481356272       16.2504052941
C         18.5899923158       25.4510907439        8.6093004837
C         20.7817254048       32.9985560210       15.1674162214
O         16.5705603955       31.0401934364       16.0174896413
O         18.9976980415       30.5118757628       16.7028991350
C         17.9063427501       32.8878734646       17.3479108165
C         21.8781807755       33.9562616682       14.7674354279
C         21.8383105456       32.5664600318       14.1775920080
C         16.8613370806       33.8254475855       17.2287456021
C         18.9052389970       33.0862168860       18.3214756211
C         16.8186483971       34.9522584255       18.0676101483
C         18.8608033748       34.2134138572       19.1589480587
C         17.8222835771       35.1501784350       19.0371516568
O         17.8330690822       36.2370319244       19.8867169802
C         16.8283887964       37.2695140741       19.8598316093
H         23.9177650137       23.6342945518        5.6759974159
H         21.8574639424       22.8456034250        6.8454300976
H         24.4564411293       26.6921450368        8.6507097501
H         21.0945536557       23.9785637761        8.9108760628
H         21.5784657770       27.9832011182        9.5167771903
H         23.2892868504       27.9512054948       10.0653614392
H         22.6898199594       28.1487270704       12.2777965764
H         19.5972259352       27.4832156314       12.7795518735
H         18.3208560465       29.7194857656       11.3455152312
H         17.0402616101       27.3457718409       12.7830439335
H         16.2662499646       28.4122423776       11.6274332374
H         17.7810986367       29.2814835906       14.3132614644
H         19.8105293530       30.5873916238       14.0034753863
H         19.0537107763       31.5715686107       12.7505067912
H         16.2699907564       30.9031502691       14.0606071319
H         18.0441185395       25.3242740734       11.9768448038
H         17.4571122736       28.6104788013        9.2358506400
H         18.8293882979       23.9017189512       10.1015559780
H         18.2540839833       27.1853875039        7.3611951921
H         19.3759224139       33.6499636990       13.6812056963
H         18.9167547788       34.0583318198       15.3166541744
H         18.9362477650       24.8287506205        7.7879784486
H         20.8524832568       32.5797669115       16.1688747924
H         21.6197370768       34.7902001583       14.1179986912
H         22.6514772404       34.1752234713       15.5008398546
H         21.5539911027       32.4665486517       13.1316778752
H         22.5822961365       31.8479934068       14.5149430577
H         16.0842642119       33.6812285075       16.4814448665
H         19.7154284387       32.3689557464       18.4294089980
H         16.0048911205       35.6618076159       17.9552730878
H         19.6341128686       34.3639476962       19.9072310172
H         17.0471510444       38.0267031343       20.6233558084
H         16.8080422286       37.7652123726       18.8806215670
H         15.8354879333       36.8498266756       20.0671636604
    77
VM2 Rank=23     G=212.058           E=122.730           -TS=89.327              
C         23.2664128012       23.8397776169        9.1417128710
C         22.9460564155       25.1261384981        8.6840594061
C         23.1802539620       23.5464825743       10.5123151618
F         23.0235772750       25.4088010732        7.3673718612
C         22.5405807595       26.1203582965        9.5866011630
C         22.7709242470       24.5401937868       11.4178890173
C         22.4432103667       25.8327828130       10.9621231079
N         22.0277228996       26.8379594594       11.8794188134
C         22.5472343137       28.1986957108       11.8052088457
C         21.1402189922       26.6778345343       12.9271413240
C         21.8808366740       28.9074197897       12.9957564287
O         21.0440327948       27.8732522088       13.5743415783
O         20.5349164019       25.6666634347       13.2371998172
C         21.0775882727       30.1466403770       12.5629512889
O         21.6037931855       31.2082769548       12.2801710799
N         19.7195050718       29.9570997468       12.4362719333
C         18.8394101211       30.7557322145       11.5645837725
C         17.7096013464       29.8470863831       11.0226552132
C         18.2834216893       32.0239574149       12.2774293843
C         18.2514702801       28.6020942307       10.3304658163
C         17.5322427642       31.6938665233       13.5961620547
O         19.3614086913       32.9278417029       12.5302267412
C         18.7961704366       28.6908943077        9.0366163601
C         18.2337190653       27.3579522145       10.9888878808
N         17.3449120307       32.8684727107       14.4834300088
C         19.3111127215       27.5469608441        8.4040453555
C         18.7500932472       26.2142546841       10.3580097780
C         16.3871387435       33.8920948007       14.0132990402
S         17.5457141355       32.6471434004       16.1636092263
C         19.2848884507       26.3077093569        9.0635973549
C         14.9254619853       33.4485895014       14.0587582828
O         17.8668136367       33.9838179938       16.6800484915
O         16.3969258146       31.8782764429       16.6577365515
C         19.0852465235       31.6991683427       16.2662369643
C         14.2926168246       32.7710329622       12.8659167094
C         13.8952910197       34.1810122201       13.2327934221
C         19.0702713014       30.3612108886       16.7072655144
C         20.2977912947       32.2728154921       15.8373652999
C         20.2554587636       29.6061246534       16.7223688003
C         21.4816486323       31.5165795534       15.8537541577
C         21.4677674709       30.1840259904       16.2953428062
O         22.6581043553       29.4869242351       16.2767969543
C         22.7704342210       28.1079840603       16.6790643612
H         23.5797272728       23.0757342362        8.4360210728
H         23.4293681198       22.5512403470       10.8726009857
H         22.2875744415       27.1053122145        9.2073059043
H         22.7103079979       24.3014136746       12.4767557153
H         22.2597754055       28.6714809538       10.8570973865
H         23.6397960115       28.2006925370       11.9079028617
H         22.6419369004       29.2326230555       13.7146420841
H         19.3902739033       29.0426124335       12.7184234338
H         19.4299135977       31.0951680156       10.7011321030
H         17.0404027197       29.5511682658       11.8397077100
H         17.0922622180       30.4186684071       10.3178337148
H         17.5739060124       32.5170566073       11.5997338802
H         16.5588285547       31.2469376078       13.3614175362
H         18.0981516572       30.9159674864       14.1171173368
H         20.1747703015       32.3728770978       12.5979881202
H         18.8218134260       29.6476171809        8.5218421966
H         17.8223815074       27.2748607943       11.9913570280
H         19.7307759391       27.6208570221        7.4039202429
H         18.7384204272       25.2570677578       10.8737767434
H         16.4936545922       34.7976249182       14.6257464004
H         16.6409836113       34.1864595398       12.9866250785
H         19.6851089041       25.4225941103        8.5753270422
H         14.6023661418       33.1165340173       15.0438589801
H         14.8960472483       32.6334734387       11.9712666408
H         13.5775244832       31.9739915127       13.0584071361
H         12.9110489984       34.3340319982       13.6706067615
H         14.2351722860       34.9881801005       12.5870283937
H         18.1372444506       29.9024942507       17.0261978536
H         20.3155798060       33.2981141383       15.4743322485
H         20.2184982958       28.5752143080       17.0598363553
H         22.4130498036       31.9606880377       15.5136632185
H         22.4796606746       27.9870854357       17.7305706335
H         22.1302081162       27.4684697614       16.0578610616
H         23.8076672550       27.7676204079       16.5684014923
    77
VM2 Rank=24     G=212.064           E=123.751           -TS=88.313              
C         24.0089497522       24.2863869292        6.7918722057
C         22.7377698205       23.9288165900        7.2634055321
C         24.7612934354       25.2501280234        7.4822481869
F         22.0121676118       23.0033469998        6.6025404534
C         22.2146461322       24.5288581978        8.4181417760
C         24.2376883651       25.8537159344        8.6385517244
C         22.9589661008       25.4999187182        9.1162365711
N         22.4245653711       26.1222562078       10.2811317320
C         22.5512429736       27.5587751095       10.5062483812
C         21.7130571552       25.5036106957       11.2934033101
C         21.9051803175       27.7689482928       11.8861190638
O         21.3659816357       26.4596367315       12.2012693478
O         21.4316172101       24.3209506117       11.3839101460
C         20.8439031262       28.8855380093       11.8963913140
O         21.0689697198       30.0090095407       11.4796231494
N         19.5990706717       28.5172627250       12.3579234241
C         18.3601729894       29.2385254927       12.0247593128
C         17.3024547821       28.2177698987       11.5395239724
C         17.8606296614       30.1050710646       13.2139938304
C         17.8190910768       27.3460109582       10.4010906582
C         18.9283472958       31.1444566510       13.6446092120
O         16.6553654676       30.7873679687       12.8613824731
C         18.0265507022       27.9009544519        9.1251172005
C         18.1193032380       25.9889593392       10.6214602818
N         18.4881726622       32.1333509512       14.6629071232
C         18.5259210295       27.1077528700        8.0788709427
C         18.6142154579       25.1937527569        9.5748920511
C         19.4357542986       33.2668685628       14.7831538836
S         17.7686043506       31.5122974896       16.0893459878
C         18.8172432850       25.7528744644        8.3028199104
C         20.7899251527       32.8949228170       15.3902439901
O         16.3881719737       31.2126107703       15.6868265052
O         18.6809819850       30.4899422819       16.6145771878
C         17.6858289251       32.9145795036       17.2327077861
C         21.9855442442       33.7862255511       15.1547304850
C         21.9211463137       32.4236199393       14.5064837575
C         16.7255456821       33.9268673784       17.0386217042
C         18.5804967179       33.0091651456       18.3172987546
C         16.6674841793       35.0231625112       17.9153086548
C         18.5209242779       34.1068579992       19.1929788463
C         17.5620492403       35.1202953853       18.9928685365
O         17.4578223679       36.2204024258       19.8187201866
C         18.3191832438       36.4401760546       20.9526904471
H         24.4073914743       23.8169371919        5.8969721883
H         25.7488325866       25.5291483114        7.1225506836
H         21.2301634640       24.2340206722        8.7645225689
H         24.8363762118       26.5928223179        9.1633495730
H         22.0098884568       28.1088745443        9.7248641292
H         23.6018136229       27.8723553888       10.5234560554
H         22.6739721035       28.0359164050       12.6216267870
H         19.5216935819       27.5546624096       12.6632694760
H         18.5672216980       29.9202406418       11.1875206230
H         16.9841505783       27.5941411709       12.3843990553
H         16.4050007067       28.7535145266       11.2048933241
H         17.6658624617       29.4297766210       14.0585392290
H         19.7996895768       30.5987009924       14.0292347637
H         19.2569219846       31.6741912296       12.7406399533
H         16.3053377649       31.1618243854       13.7040668930
H         17.8045555011       28.9496743489        8.9462501484
H         17.9722124766       25.5492350400       11.6042627672
H         18.6851224760       27.5426013353        7.0953265166
H         18.8428070391       24.1456724068        9.7521931309
H         19.6080018301       33.6930905472       13.7854640768
H         18.9944374955       34.0780802658       15.3753021987
H         19.1997359183       25.1381534079        7.4917221630
H         20.7187672234       32.4381251938       16.3748991522
H         21.8581432222       34.6579524386       14.5160776294
H         22.6833938894       33.9250818023       15.9778539351
H         21.7513333112       32.3796789353       13.4322390762
H         22.5729252700       31.6434878208       14.8938853375
H         16.0284738575       33.8646621799       16.2059967352
H         19.3233345042       32.2322775922       18.4822504942
H         15.9269122770       35.8030125461       17.7604505235
H         19.2218124477       34.1589111990       20.0202153182
H         19.3676311275       36.5105521514       20.6352070163
H         18.0486274748       37.3781170714       21.4539138228
H         18.2210209873       35.6224556458       21.6784108331
    77
VM2 Rank=25     G=212.081           E=123.760           -TS=88.320              
C         23.2973356428       23.8084799222        6.7188376644
C         22.6203415058       25.0334966187        6.6301887966
C         23.6596427666       23.3023317368        7.9776178232
F         22.2684750932       25.5200885544        5.4223026624
C         22.3032638198       25.7551879167        7.7904343125
C         23.3402881261       24.0223454115        9.1415300787
C         22.6557628808       25.2513324560        9.0578235035
N         22.3327155308       25.9796528781       10.2368207507
C         22.5405829281       27.4205402578       10.3234326456
C         21.8253659587       25.4575615050       11.4120769003
C         22.1312005550       27.7617279271       11.7666053226
O         21.6898603399       26.4851701058       12.2974702629
O         21.5403256072       24.2951656926       11.6433797462
C         21.0418700640       28.8498060284       11.8288818202
O         21.2044685042       29.9665997884       11.3679292965
N         19.8383897593       28.4582024620       12.3735843600
C         18.5556153596       29.1027602737       12.0511057514
C         17.5353933366       28.0117967202       11.6424558823
C         18.0482642583       29.9924409058       13.2198030731
C         18.0536690827       27.1096726096       10.5279584438
C         19.0687486460       31.1048819817       13.5797504623
O         16.7985358147       30.5953437718       12.8774145532
C         18.2187862063       27.6171551652        9.2261543755
C         18.3865289048       25.7682324625       10.7929958106
N         18.5969653098       32.1047868289       14.5759115874
C         18.7070099301       26.7921964858        8.1991464728
C         18.8719005771       24.9417111873        9.7660527844
C         19.4577913404       33.3105301533       14.6157792480
S         17.9584255243       31.4997545678       16.0471260832
C         19.0304443662       25.4528297429        8.4684943160
C         20.8076620784       33.1130708569       15.3088130938
O         16.5970754328       31.0813055501       15.6882448510
O         18.9496949952       30.5691921619       16.5993854709
C         17.7665103494       32.9325981495       17.1367039901
C         21.1614328945       33.9134805611       16.5412058209
C         21.8418254004       34.2114746353       15.2292027474
C         16.8281373443       33.9359798302       16.8253388456
C         18.5346241474       33.0449488651       18.3124306438
C         16.6775271161       35.0486942396       17.6696647257
C         18.3818245724       34.1583370848       19.1564541224
C         17.4523004197       35.1676680502       18.8343591184
O         17.2620388818       36.2835982396       19.6227100596
C         18.0033786286       36.5298696579       20.8334217203
H         23.5393353632       23.2561851100        5.8153138202
H         24.1865054495       22.3540174768        8.0518211879
H         21.7716457033       26.6967913362        7.6971238112
H         23.6285964629       23.6212989925       10.1100079212
H         21.9015929063       27.9453639097        9.6013211065
H         23.5933500685       27.6717055722       10.1425832278
H         22.9986954617       28.1234622272       12.3321179187
H         19.8152812212       27.5074330933       12.7217803107
H         18.7021176629       29.7583987672       11.1809352468
H         17.2709121925       27.4146071365       12.5241964040
H         16.6040995032       28.4898451492       11.3129460120
H         17.9135072405       29.3425853907       14.0954273034
H         19.9813537650       30.6231085836       13.9532618827
H         19.3388081472       31.6171494941       12.6467689657
H         16.4483730847       30.9743311852       13.7180390672
H         17.9692866132       28.6528254152        9.0112756014
H         18.2720676821       25.3642061254       11.7952826281
H         18.8323950673       27.1900041497        7.1952508443
H         19.1306463594       23.9071152678        9.9780683898
H         19.6521207367       33.6394951874       13.5859530766
H         18.9266922115       34.1434207294       15.0933178763
H         19.4076045284       24.8131666662        7.6744011040
H         21.1966740364       32.0985101309       15.2450102875
H         20.4476321820       34.6475168141       16.9090615894
H         21.7427422328       33.4178992876       17.3158819199
H         21.5728636611       35.1330289080       14.7168405327
H         22.8840095662       33.9188622279       15.1193014460
H         16.2209765530       33.8536179283       15.9266688189
H         19.2557014502       32.2723903342       18.5692110086
H         15.9569660232       35.8235362311       17.4227617314
H         18.9891195058       34.2260004389       20.0535608389
H         17.6825959820       37.4774777677       21.2842954882
H         17.8324039003       35.7275153136       21.5627720976
H         19.0786322140       36.5963991279       20.6227143760
    77
VM2 Rank=26     G=212.095           E=124.292           -TS=87.804              
C         21.8817428487       27.6872413927        6.1446946198
C         21.5897490566       28.5974091188        7.1709765841
C         22.2681642388       26.3758083837        6.4655800700
F         21.2132880911       29.8560978940        6.8650572114
C         21.6818123442       28.2057699831        8.5146718212
C         22.3575092428       25.9803049923        7.8112093712
C         22.0610397709       26.8901672116        8.8455088283
N         22.1468756115       26.4877092993       10.2073031820
C         22.7981686473       27.3229964035       11.2101811280
C         21.6707726928       25.3067408038       10.7452421757
C         22.6510154842       26.5134719494       12.5100123346
O         21.9658983812       25.3097502907       12.0763452113
O         21.0895789580       24.4082067296       10.1618213232
C         21.8703342592       27.2899974739       13.5875667291
O         22.3387285364       28.2493602990       14.1766192562
N         20.5646756711       26.8954555702       13.7792770598
C         19.5268897594       27.8081382486       14.2767234508
C         18.1753318238       27.4768498636       13.5951071399
C         19.4738691731       27.7793865765       15.8320952940
C         18.2787556884       27.4944101328       12.0752030632
C         18.4637891054       28.7827274840       16.4372455208
O         19.1503420930       26.4662952818       16.2858017122
C         18.3743567231       28.7183991185       11.3884883200
C         18.3008223257       26.2903389705       11.3472978609
N         18.6343752374       30.1812699660       15.9648078347
C         18.4855108289       28.7399367391        9.9883344446
C         18.4124242752       26.3108346536        9.9471860123
C         19.9765750403       30.7844895033       16.1730129758
S         17.2561773323       31.1776599230       16.1373138276
C         18.5029002583       27.5354321350        9.2671712023
C         20.3558259675       31.0055923383       17.6372590007
O         16.2362864540       30.5013792088       15.3263521185
O         17.0542860168       31.4455821907       17.5658564315
C         17.6647731234       32.6803234872       15.2173821832
C         21.5297109260       31.8932383892       17.9748471934
C         20.1262091172       32.3413121005       18.3035873664
C         17.7169150146       33.9280372220       15.8686362610
C         17.9353831875       32.6077070813       13.8372605815
C         18.0484463557       35.0895562097       15.1499582351
C         18.2665459629       33.7694701659       13.1203289143
C         18.3267472264       35.0125270838       13.7701819851
O         18.6587016691       36.1180152841       13.0146643840
C         18.7606954799       37.4466028468       13.5628297804
H         21.8080472529       27.9987722748        5.1067003184
H         22.4969382567       25.6666325810        5.6736909920
H         21.4399440870       28.9242527193        9.2912521013
H         22.6585129390       24.9627096915        8.0474746733
H         22.2958960111       28.2953691408       11.2938503091
H         23.8558532767       27.4704738075       10.9578367745
H         23.6369456098       26.2650844021       12.9217361533
H         20.2681210987       26.0961756749       13.2329393598
H         19.8050966891       28.8261261107       13.9702648608
H         17.8163872623       26.4987722263       13.9397998363
H         17.4159668852       28.2045034750       13.9068476121
H         20.4746914272       28.0384414018       16.2029937711
H         17.4548064269       28.4286902771       16.1890137506
H         18.5406282989       28.7458579511       17.5313057707
H         19.7555858728       25.8689685673       15.7968504241
H         18.3643419095       29.6532029685       11.9411654553
H         18.2346429356       25.3370113813       11.8647848935
H         18.5601907011       29.6885551053        9.4625983929
H         18.4352337686       25.3771756146        9.3904365462
H         20.7456312987       30.1463864018       15.7194194806
H         20.0479147125       31.7419114525       15.6414570999
H         18.5933179604       27.5506016533        8.1838636183
H         20.2443731895       30.1178877893       18.2565627648
H         22.1727414796       31.5911295218       18.7989043547
H         22.0444642863       32.3954501768       17.1581851903
H         19.8179568259       32.3363454510       19.3469417840
H         19.7102465855       33.1525335952       17.7127679802
H         17.5005432841       33.9976440830       16.9321733269
H         17.8906729645       31.6502679200       13.3244533516
H         18.0851569815       36.0398630862       15.6732311349
H         18.4777724252       33.7090007669       12.0562474025
H         19.5289139034       37.4848445772       14.3459974278
H         19.0381976959       38.1579627179       12.7747285240
H         17.8007293634       37.7645897722       13.9898029284
    77
VM2 Rank=27     G=212.100           E=123.970           -TS=88.130              
C         20.4927206069       25.7430048194        6.2020097181
C         21.8489718552       25.8400198516        6.5464003264
C         19.5137063202       25.7869144073        7.2077509212
F         22.7906268134       25.7963519828        5.5814118554
C         22.2331707112       25.9816615308        7.8885147305
C         19.8967426224       25.9280611843        8.5523005664
C         21.2574150719       26.0259112303        8.9035234874
N         21.6399760869       26.1805686837       10.2650345286
C         22.6313669070       27.1712121175       10.6693072779
C         21.1294519918       25.4852819872       11.3452571747
C         22.6861223002       27.0283095291       12.2004861477
O         21.7333582966       25.9660557923       12.4689044666
O         20.2966676593       24.5954086037       11.3248995273
C         22.3424673332       28.3397107427       12.9342643424
O         22.9298165809       29.3880933389       12.7256604468
N         21.2773904285       28.2728114687       13.8044982874
C         20.5203450947       29.4546144946       14.2369876865
C         19.0409689853       29.0550712763       14.4659695477
C         21.1960004784       30.1073029548       15.4773113594
C         18.4148558740       28.4344928343       13.2238761073
C         20.5394395758       31.4371571157       15.9182690922
O         21.1831244605       29.1999630864       16.5776687185
C         18.1221360796       29.2359932957       12.1055312649
C         18.1414945515       27.0550776203       13.1754756315
N         20.4483226941       32.4625461258       14.8451639839
C         17.5485961241       28.6689787415       10.9557948692
C         17.5704388372       26.4860967729       12.0251041354
C         21.7441062285       32.8870031554       14.2588484985
S         19.2785694580       33.6866035767       15.0886514657
C         17.2678901402       27.2941176287       10.9174165158
C         22.6325868037       33.6967579148       15.2040811476
O         19.5444456441       34.2782395852       16.4054038012
O         19.3135016501       34.5020987874       13.8680192686
C         17.7258758954       32.7608875963       15.0443174665
C         24.1127180800       33.8048852139       14.9258556455
C         23.6247214677       33.0115095664       16.1143817722
C         17.1708203432       32.3713316562       13.8099550600
C         17.0795286693       32.3937046051       16.2408794863
C         15.9895122254       31.6118909778       13.7749564004
C         15.8980770391       31.6332431537       16.2037980963
C         15.3507774917       31.2359968467       14.9669887987
O         14.1992002833       30.4830460849       14.8696985509
C         13.4839742392       29.9840120622       16.0163718240
H         20.2043155472       25.6337643807        5.1604457278
H         18.4608072204       25.7120438048        6.9466985395
H         23.2887993828       26.0498692512        8.1316427429
H         19.1318361626       25.9617324295        9.3224441772
H         22.3074549080       28.1768745832       10.3697118404
H         23.6107992398       26.9488067503       10.2286042762
H         23.6898939673       26.7222591228       12.5196963233
H         20.8323222287       27.3657028726       13.8781028232
H         20.5452501944       30.1874814236       13.4181196468
H         18.9713038916       28.3607298495       15.3128546962
H         18.4567996327       29.9354229390       14.7529704647
H         22.2405262983       30.3129048365       15.2112576890
H         19.5409663447       31.1985143154       16.3018756199
H         21.1042787176       31.8429229056       16.7677462688
H         21.5242037721       28.3532763830       16.2193272687
H         18.3417156929       30.2991245458       12.1265744105
H         18.3714229761       26.4218749492       14.0281196016
H         17.3219473546       29.2944135256       10.0960631579
H         17.3642816431       25.4190952143       11.9923937758
H         22.3037429967       32.0136696003       13.9003942759
H         21.5543588822       33.4985004762       13.3664375904
H         16.8216237183       26.8546762487       10.0289034859
H         22.1524619131       34.5952121460       15.5879575427
H         24.5174455538       33.2528790100       14.0798388446
H         24.5953570058       34.7611797363       15.1165804960
H         23.7127101583       31.9287911256       16.0662070602
H         23.7752703445       33.4343541315       17.1054332945
H         17.6608889382       32.6487124408       12.8796415289
H         17.4992074502       32.6891151230       17.1998531491
H         15.5690654344       31.3052085650       12.8211389557
H         15.4203166162       31.3567872387       17.1384072731
H         14.1270065375       29.3292686774       16.6187031476
H         13.1309708962       30.8123677425       16.6441153731
H         12.6111875890       29.4038168931       15.6912548161
    77
VM2 Rank=28     G=212.112           E=124.302           -TS=87.810              
C         21.7652570334       27.7048285461        6.1692212416
C         21.4868526528       28.6164524337        7.1979825661
C         22.1673900588       26.3973289945        6.4868568056
F         21.0953193206       29.8713352812        6.8953409714
C         21.6080932298       28.2301690652        8.5409041145
C         22.2859608212       26.0071644729        7.8317904007
C         22.0032564632       26.9184822977        8.8686529740
N         22.1185374228       26.5214252103       10.2298613328
C         22.7832143403       27.3648878483       11.2169914393
C         21.6612884417       25.3391232312       10.7810942822
C         22.6647825291       26.5602301233       12.5227522507
O         21.9812772320       25.3495037998       12.1064152272
O         21.0760255544       24.4340249119       10.2120760214
C         21.8969922966       27.3360975202       13.6100004236
O         22.3680657332       28.3022431624       14.1856819936
N         20.5979804139       26.9325686841       13.8266860818
C         19.5620375788       27.8405165157       14.3364901104
C         18.2009882414       27.4937839128       13.6820031618
C         19.5374442021       27.8227726987       15.8927674654
C         18.2764149667       27.5015353239       12.1603568701
C         18.5313959678       28.8234906189       16.5089489608
O         19.2317119219       26.5107862803       16.3617357508
C         18.2922543506       26.2926670894       11.4403039027
C         18.3521826882       28.7213033359       11.4637226350
N         18.6826958967       30.2193605251       16.0222205068
C         18.3779492968       26.3042308962       10.0382625358
C         18.4373980009       28.7339214556       10.0616497948
C         20.0241580779       30.8339380166       16.1997007834
S         17.3009874107       31.2077292452       16.2120418239
C         18.4487545231       27.5246280046        9.3484388345
C         20.4293126890       31.0706388693       17.6545174649
O         16.2695989582       30.5151874509       15.4298456449
O         17.1262761692       31.4905643067       17.6412848426
C         17.6803467080       32.7019253598       15.2662551967
C         20.2028768605       32.4106894805       18.3131938566
C         21.6030749339       31.9692894480       17.9620786838
C         17.7387589836       33.9573126021       15.9014486353
C         17.9221535426       32.6144495966       13.8814210648
C         18.0480552615       35.1093356073       15.1588970552
C         18.2314325125       33.7674796016       13.1401233793
C         18.2971449289       35.0217689438       13.7798230095
O         18.5971954345       36.1868326296       13.1047593097
C         18.8791063499       36.2299966022       11.6924005942
H         21.6689590158       28.0121941490        5.1318361748
H         22.3857148010       25.6870519008        5.6930087334
H         21.3762635864       28.9496071091        9.3196456876
H         22.5988641707       24.9925762279        8.0655146285
H         22.2770422243       28.3347722650       11.3057736656
H         23.8352060211       27.5172465068       10.9445541392
H         23.6595051164       26.3211572819       12.9185303804
H         20.2981010350       26.1280540907       13.2899175994
H         19.8265260176       28.8583613016       14.0177150161
H         17.8562936778       26.5153364987       14.0399332132
H         17.4416149134       28.2175483888       14.0026516827
H         20.5429255947       28.0916506943       16.2435288673
H         17.5206312555       28.4600322899       16.2825542451
H         18.6290945340       28.7960397205       17.6016207945
H         19.8322091553       25.9141874108       15.8660848702
H         18.2412626798       25.3425345504       11.9653293033
H         18.3468886291       29.6597460285       12.0101483474
H         18.3960790859       25.3669271449        9.4875032290
H         18.4967904217       29.6793117678        9.5282174057
H         20.7892290769       30.1974627743       15.7371821032
H         20.0783533107       31.7871829702       15.6586864371
H         18.5191574414       27.5328850400        8.2635729079
H         20.3356652088       30.1877707309       18.2836084199
H         19.7700181905       33.2135939576       17.7230888924
H         19.9142772470       32.4129858471       19.3621623829
H         22.2635516436       31.6789957432       18.7765285214
H         22.0988828638       32.4676641879       17.1314628238
H         17.5450072801       34.0401077153       16.9683667222
H         17.8718126274       31.6498895245       13.3826868260
H         18.0951632291       36.0762480241       15.6522792042
H         18.4167457198       33.6748107199       12.0746225884
H         19.7548352132       35.6129618780       11.4529239582
H         18.0192692879       35.8676217418       11.1141887464
H         19.0907640998       37.2612662284       11.3828312050
    77
VM2 Rank=29     G=212.127           E=123.867           -TS=88.261              
C         23.6404240986       24.1441469320        6.6230568206
C         24.3383596785       25.2534924005        7.1214376993
C         22.4961014000       23.6839679701        7.2934477188
F         25.4406585165       25.6949184535        6.4811848512
C         23.8990409279       25.9070789773        8.2827272148
C         22.0552651268       24.3367941035        8.4570071678
C         22.7496012895       25.4549207495        8.9618924326
N         22.2943367758       26.1231634390       10.1356440698
C         22.2773404422       27.5800679673       10.2289042196
C         21.7983298354       25.5301288178       11.2833156290
C         21.8290006399       27.8449326117       11.6757269758
O         21.4655299051       26.5249899227       12.1542500434
O         21.6690362259       24.3383487623       11.5047698509
C         20.6877787322       28.8738460656       11.7816339119
O         20.7576638625       29.9848247153       11.2842982072
N         19.5518442718       28.4365041350       12.4267612996
C         18.2193221211       29.0227184080       12.2106957544
C         17.2168249883       27.8852874063       11.8989499663
C         17.7782063561       29.9076992860       13.4089277833
C         17.6928073189       26.9931956248       10.7583980619
C         18.7843718263       31.0614775463       13.6584686540
O         16.4806395364       30.4572365801       13.1706881286
C         17.7385365920       27.4917726369        9.4436463021
C         18.1214503636       25.6774016110       11.0136428327
N         18.3712330014       32.0657361706       14.6730667879
C         18.2058572203       26.6836699651        8.3940944461
C         18.5839102664       24.8667221887        9.9641735881
C         19.2136309184       33.2844344282       14.6243898613
S         17.8819665632       31.4687231022       16.2035773851
C         18.6263656754       25.3697844688        8.6537970739
C         20.6575477291       33.0715205948       15.0831151149
O         16.4997926555       31.0230484958       15.9835490017
O         18.9421677231       30.5654438984       16.6657040033
C         17.7957480597       32.9236818356       17.2788511945
C         21.7277518648       34.0504974277       14.6640037903
C         21.7203585754       32.6515903143       14.0947317866
C         18.7949508204       33.1627386333       18.2433000679
C         16.7267888845       33.8323110227       17.1513300970
C         18.7303947613       34.3009887814       19.0652035993
C         16.6639691636       34.9693568845       17.9741241441
C         17.6620248164       35.2105214750       18.9314825124
O         17.5474574343       36.3442583687       19.7090738424
C         18.5076130357       36.7080568215       20.7199561076
H         23.9875707518       23.6441636567        5.7233495012
H         21.9518301645       22.8228522705        6.9131616713
H         24.4627492740       26.7583445304        8.6500693418
H         21.1694722343       23.9675258856        8.9648463285
H         21.5572470563       27.9911920809        9.5086519515
H         23.2702882578       28.0095948217       10.0508860732
H         22.6739342915       28.2260634004       12.2623826472
H         19.6013369248       27.4914128978       12.7876673818
H         18.2632269065       29.6722311974       11.3248473584
H         17.0488771845       27.2901054167       12.8053607890
H         16.2431427312       28.3186971186       11.6371660551
H         17.7472170396       29.2678458161       14.3015893135
H         19.7420347821       30.6189272586       13.9620174440
H         18.9555666213       31.5639896945       12.6972551353
H         16.1950299590       30.8473491025       14.0304061511
H         17.4169343634       28.5090589449        9.2368687104
H         18.1002666784       25.2822910151       12.0257362371
H         18.2406045509       27.0751842937        7.3805365701
H         18.9122427567       23.8506696385       10.1688039435
H         19.2293095156       33.6643935353       13.5938058304
H         18.7673000362       34.0867162080       15.2248876821
H         18.9843438288       24.7435481547        7.8405018910
H         20.7432277194       32.6693592668       16.0901911091
H         21.4455345029       34.8680131010       14.0036724590
H         22.4984919154       34.2996050958       15.3904440422
H         22.4836817440       31.9571024097       14.4390252681
H         21.4340583006       32.5291285861       13.0517587338
H         19.6229417386       32.4668788286       18.3563462256
H         15.9485708118       33.6582133890       16.4116632929
H         19.5127597699       34.4650376338       19.7995520487
H         15.8390976676       35.6689800583       17.8706463201
H         18.2071291869       37.6462405108       21.2033640898
H         18.5721957368       35.9297781099       21.4913729175
H         19.5012271462       36.8531832875       20.2764907496
    77
VM2 Rank=30     G=212.136           E=123.746           -TS=88.390              
C         22.8138349930       23.1739672695        6.4601804457
C         22.1922267859       22.4360312278        7.4779664901
C         23.0968264866       24.5346793372        6.6599427585
F         21.9238476762       21.1275056030        7.2892698461
C         21.8499020573       23.0495509706        8.6923344474
C         22.7556131993       25.1508974753        7.8758637873
C         22.1243530110       24.4156694185        8.8996760152
N         21.7810364060       25.0413636764       10.1315021482
C         22.6964866453       25.9548762161       10.8051297208
C         20.6083227231       24.8678139973       10.8424606372
C         21.9491131822       26.3380697876       12.0962419195
O         20.7027584741       25.6039181656       11.9851521384
O         19.6481925631       24.1854013065       10.5284234884
C         21.7228784663       27.8568467132       12.2405899938
O         22.5628581910       28.6830341789       11.9242935057
N         20.4781267971       28.2280855859       12.7012136914
C         19.8884780093       29.5585811617       12.4949263869
C         18.8469764771       29.4980590192       11.3448662017
C         19.3193219318       30.0972683491       13.8381222353
C         19.3901021839       28.8534224826       10.0742009213
C         18.8491605700       31.5731707548       13.7490422440
O         18.2484259269       29.2720727156       14.3074204003
C         18.9046183413       27.6031849403        9.6476801095
C         20.3887646747       29.4983265724        9.3217604656
N         18.2420427001       32.1167777996       14.9932731824
C         19.4063477707       27.0078567795        8.4784614527
C         20.8947324003       28.9017937074        8.1547760146
C         17.5463390521       33.4055128483       14.7652723581
S         19.1103335019       31.9004250095       16.4564836130
C         20.4000925626       27.6582608787        7.7304422878
C         18.4786301843       34.5794455479       14.4619364743
O         18.8107511228       30.5159564774       16.8449613268
O         20.4756922230       32.3783258456       16.2092556276
C         18.2916308524       32.9711723059       17.6667378207
C         17.9236090779       35.8270348394       13.8180841980
C         18.8413378210       34.9182988389       13.0353204840
C         17.0496785201       32.5946782504       18.2148933780
C         18.8832290953       34.1863986348       18.0655319574
C         16.4051382922       33.4288042571       19.1436590709
C         18.2366367820       35.0195533744       18.9945436016
C         16.9915251681       34.6422695051       19.5366339142
O         16.3107920313       35.4198791738       20.4504495475
C         16.8012350692       36.6877590010       20.9280236924
H         23.0754136043       22.6912943550        5.5228692499
H         23.5793154798       25.1111986722        5.8743246114
H         21.3738210454       22.4577202788        9.4684545100
H         22.9769018768       26.2056555343        8.0132634244
H         22.8841719106       26.8379958200       10.1809295497
H         23.6443320855       25.4517631534       11.0340335913
H         22.5069563115       25.9982248815       12.9772992448
H         19.8501686468       27.4729150454       12.9491640428
H         20.6867257643       30.2469022865       12.1840937259
H         17.9605478199       28.9505423551       11.6896078387
H         18.5014458078       30.5095443646       11.1035794660
H         20.1465518509       30.0507783168       14.5598399629
H         19.7130350319       32.1891189300       13.4656593923
H         18.1147179301       31.6514329411       12.9389606592
H         18.1156014274       29.5215755957       15.2518238717
H         18.1399516572       27.0891031156       10.2240800920
H         20.7772614517       30.4600914291        9.6454633666
H         19.0278724761       26.0410014112        8.1555482391
H         21.6674145238       29.4047171935        7.5788524869
H         16.9232865018       33.6651953518       15.6300004381
H         16.8469132964       33.2902729201       13.9261452169
H         20.7872681626       27.1981048344        6.8248361266
H         19.2522865098       34.7316709074       15.2112770743
H         16.8698143614       35.8393059373       13.5470950258
H         18.3181210336       36.7856504106       14.1486570192
H         19.8543634527       35.2637489256       12.8399216271
H         18.4030304136       34.3229882007       12.2370501919
H         16.5836119563       31.6582026100       17.9168138011
H         19.8445421196       34.4867049939       17.6553621910
H         15.4460128742       33.1358379927       19.5618004587
H         18.7108425436       35.9518376793       19.2847948025
H         17.7666943425       36.5637976023       21.4354626647
H         16.9240289755       37.3939420914       20.0966278617
H         16.0905254940       37.1202198148       21.6435869668
