    84
VM2 Rank=1      G=199.738           E=108.702           -TS=91.036              
C         21.8195213628       23.3660669464        6.3642902417
C         21.3650075159       24.7005247807        6.2919169150
C         22.3209768840       22.8487099048        7.5693523490
C         20.8051220791       25.2839472825        5.0164057683
C         21.4315699331       25.5007706818        7.4512117555
C         22.3710829050       23.6545604665        8.7166276568
C         20.7760571865       24.4337748536        3.7514252579
O         20.3709289313       26.4242196795        4.9781725796
C         21.9231309306       24.9862010582        8.6651263847
N         21.9640118481       25.8044265752        9.8269304291
C         21.5234076259       25.4537318387       11.0880736685
C         22.5109804449       27.1553941813        9.7934157445
O         21.7645760420       26.5073893585       11.9175440431
O         21.0121474705       24.3995391532       11.4245561035
C         22.2993033848       27.6686514265       11.2307116914
C         21.3402878824       28.8750403979       11.3082726779
O         21.3327241657       29.7695889667       10.4789696453
N         20.4507821774       28.8552150850       12.3608589166
C         19.2227382695       29.6598317644       12.4219561690
C         19.1122656222       30.3549106480       13.8081529676
C         17.9954699358       28.7785259789       12.0678133615
O         19.0220514337       29.3725346374       14.8454069062
C         17.9067881944       31.3305896510       13.8797179428
C         18.1336578901       28.0715394879       10.7246169991
N         17.9572525532       32.3094851669       14.9998631731
C         18.0620384374       28.8060948296        9.5269652753
C         18.3380187771       26.6801262277       10.6696956448
C         19.1119284224       33.2480315915       15.0163218548
S         17.3872064114       31.7740089141       16.5194012547
C         18.1876126441       28.1566274329        8.2875888990
C         18.4610456131       26.0290781027        9.4309255786
C         19.3106552361       34.0547245140       13.7071167412
C         17.1226905614       33.3093313870       17.4380855168
O         16.0494091700       31.2352872372       16.2464598167
O         18.4521794164       30.9505848934       17.1067449724
C         18.3810564696       26.7670955967        8.2392501913
C         18.0662099715       34.9100574478       13.3762813222
C         20.5520686652       34.9630992384       13.8297852601
C         16.0817876094       34.1833175429       17.0657486589
C         17.9708565529       33.6538275506       18.5097506018
C         15.8923990213       35.3915146048       17.7573638666
C         17.7793850166       34.8625050550       19.2004288239
C         16.7464848647       35.7334874251       18.8181994406
O         16.5621476534       36.9112637597       19.4942210425
C         17.2019951086       38.1075702600       19.0199881951
F         18.5471020892       37.9821248162       19.0027215411
F         16.7983954665       38.4318137858       17.7720850278
F         16.9044841531       39.1502578152       19.8234811257
H         21.7864085083       22.7171978295        5.4940951192
H         22.6679293044       21.8191813000        7.6149776958
H         21.0832428295       26.5288047454        7.4078512662
H         22.7583654673       23.2415446971        9.6447160608
H         20.1497056027       23.5486308718        3.9094846327
H         20.3633454996       25.0151037871        2.9186495612
H         21.7916700813       24.1151153190        3.4909623493
H         23.5786979906       27.1268119043        9.5423636616
H         21.9746095290       27.7748597242        9.0634314061
H         23.2528359062       27.9713056226       11.6802205967
H         20.5368345719       28.0817536353       13.0093311943
H         19.2913321480       30.4547565306       11.6662584630
H         20.0366047123       30.9328887268       13.9353539800
H         17.8393246186       28.0396204663       12.8641448990
H         17.0897538726       29.3957659627       12.0492518654
H         19.0448776451       29.8494679592       15.7085050162
H         17.8490281826       31.8756372810       12.9300501806
H         16.9817007773       30.7427891471       13.9434189640
H         17.9126727771       29.8819224271        9.5572181133
H         18.4035611379       26.1017785754       11.5876184876
H         18.9883549247       33.9799637234       15.8240864604
H         20.0332917723       32.6951764379       15.2431317419
H         18.1335246561       28.7294426650        7.3652091650
H         18.6204923678       24.9540644171        9.3954215077
H         19.4950018372       33.3613864247       12.8752582129
H         18.4752665550       26.2649798028        7.2793236805
H         17.8484201125       35.6195121393       14.1850138141
H         18.2205339718       35.4843429030       12.4539230755
H         17.1782068894       34.2824649485       13.2305172601
H         20.4323547283       35.6925919751       14.6413467379
H         21.4531239485       34.3708137068       14.0350084310
H         20.7238352601       35.5182895734       12.8986248208
H         15.4252578187       33.9259574156       16.2375300634
H         18.7785667648       32.9873488172       18.8038366674
H         15.0879857208       36.0627374351       17.4686650684
H         18.4335468741       35.1258484369       20.0273117038
    84
VM2 Rank=2      G=199.855           E=108.730           -TS=91.125              
C         22.6551935362       24.7622349884        6.2810117153
C         21.3899984023       25.3692934438        6.4344244588
C         23.6951845343       25.0453630742        7.1810457979
C         20.2431758321       25.0718484683        5.4979443481
C         21.1977761613       26.2689842161        7.5029794267
C         23.4843757908       25.9336618315        8.2463611056
C         20.4627573432       24.1331429014        4.3171221036
O         19.1400821724       25.5658304181        5.6696443865
C         22.2318887786       26.5490712472        8.4148427542
N         22.0080958935       27.4428191550        9.4965376077
C         22.3202192595       27.2147714074       10.8226217733
C         21.3988775539       28.7511513510        9.2913145823
O         21.9437747666       28.3172384957       11.5306892498
O         22.8391149846       26.2200475488       11.2990935821
C         21.3235168541       29.3418732137       10.7101701555
C         19.8758505806       29.6530001244       11.1383855634
O         19.1442395568       30.3824718907       10.4912953852
N         19.4364111924       29.0065956090       12.2736011212
C         18.0154862963       28.7972721261       12.5974978801
C         17.5655572668       29.6908029202       13.7889033188
C         17.7824935662       27.2872581147       12.8552743264
O         16.2144746165       29.3881091959       14.1435647942
C         17.6791473444       31.2039908358       13.4517609969
C         18.2751307442       26.4050137952       11.7134003599
N         17.6649435875       32.1124180775       14.6303451957
C         19.4031377832       25.5811933287       11.8852375838
C         17.6084943490       26.4122036697       10.4742654576
C         18.7582348206       31.9304593887       15.6238598242
S         16.1338608416       32.5542506755       15.2459952826
C         19.8526046418       24.7653685526       10.8337425475
C         18.0588377981       25.5985845162        9.4209852392
C         20.1898260387       31.9321243281       15.0259821028
C         16.4937838942       33.9814972198       16.2970810695
O         15.4043429224       33.0830007137       14.0873057627
O         15.6402482281       31.4069413750       16.0189548608
C         19.1771593847       24.7698198173        9.6034037765
C         20.4986956903       33.2605004603       14.2983343281
C         21.2288302642       31.6928568526       16.1413885693
C         16.8866344329       35.2039149409       15.7162345502
C         16.4114568937       33.8722484727       17.6998841329
C         17.1960913992       36.3060127242       16.5308501446
C         16.7210283241       34.9758782062       18.5127572209
C         17.1210262949       36.1882019265       17.9280886223
O         17.4214381234       37.2628113209       18.7237852813
C         18.7805192445       37.4795387034       19.1377604832
F         18.8649160576       38.5766603843       19.9191161965
F         19.2578971888       36.4371576671       19.8525318875
F         19.6021687692       37.6715103055       18.0826230863
H         22.8447942828       24.0646075285        5.4706268986
H         24.6655565533       24.5711267781        7.0552086655
H         20.2264733614       26.7374203585        7.6355969590
H         24.2952296899       26.1415967545        8.9400395606
H         20.7473654802       23.1382473424        4.6776187251
H         19.5405566140       24.0465535049        3.7307454975
H         21.2571359507       24.5235436668        3.6710575425
H         22.0309300903       29.3699812693        8.6420319127
H         20.3984789237       28.6505866989        8.8507784007
H         21.8972413816       30.2748363148       10.7700218272
H         20.1215350245       28.4130092524       12.7248920650
H         17.4078160086       29.0806328388       11.7264380493
H         18.2285202018       29.4572884581       14.6316058687
H         18.2717269666       27.0015958838       13.7949500776
H         16.7112161235       27.1047935035       13.0079345404
H         15.9950056053       29.9143265515       14.9490628980
H         18.6049542673       31.3761707517       12.8937552544
H         16.8698674135       31.4682472244       12.7580971976
H         19.9337445020       25.5715006723       12.8335317646
H         16.7401467958       27.0491024146       10.3283726474
H         18.7239704135       32.7340026024       16.3699352161
H         18.6008205491       30.9932477150       16.1742392133
H         20.7264585913       24.1333168709       10.9720002893
H         17.5418144141       25.6089601503        8.4643354190
H         20.2872418004       31.1057380286       14.3089955185
H         19.5247351007       24.1386667155        8.7893727205
H         20.4154733891       34.1141520334       14.9832077412
H         21.5160629777       33.2535092730       13.8870504939
H         19.8059369051       33.4290031085       13.4644353895
H         21.1950354670       32.4912738730       16.8940293995
H         21.0454602625       30.7377277727       16.6501803741
H         22.2452452355       31.6600024328       15.7283789417
H         16.9558981983       35.2949883638       14.6345045723
H         16.1113419121       32.9327301156       18.1584668543
H         17.4972958131       37.2477153680       16.0798054268
H         16.6556368509       34.8901346807       19.5941365984
    84
VM2 Rank=3      G=199.922           E=109.000           -TS=90.922              
C         21.7275792984       24.3132389092        6.1323176459
C         21.2975928273       25.6377991219        6.3537358396
C         22.2797985630       23.5548748387        7.1762235179
C         20.7076666928       26.4326578659        5.2128945464
C         21.4304753267       26.1846352344        7.6489065628
C         22.4074625722       24.1112726801        8.4572799781
C         20.3291122847       27.8932601833        5.4315716418
O         20.5328010429       25.9313661859        4.1138002726
C         21.9811709628       25.4286127987        8.7014025652
N         22.1010287235       25.9911621795       10.0012432491
C         21.7125970908       25.3974573518       11.1867453211
C         22.6863599243       27.3099434785       10.2164400404
O         21.9924765690       26.2709771616       12.1951018641
O         21.2130043927       24.2954736797       11.3334831261
C         22.4586721767       27.5604753609       11.7176072105
C         21.4284637045       28.6835352108       11.9582023727
O         21.5964064197       29.8241244749       11.5605957276
N         20.2687943069       28.3065864714       12.5976411792
C         19.0381162630       29.1075554733       12.6135012120
C         18.9273110062       29.9076681218       13.9412414803
C         17.8185565248       28.1971432983       12.3215776987
O         18.7431104610       29.0172309931       15.0461919460
C         17.7808242437       30.9528547349       13.8938310081
C         17.9304398481       27.4960179792       10.9734754894
N         17.8746339277       32.0302072409       14.9164499383
C         18.3634887806       26.1593242444       10.8971687213
C         17.6094317285       28.1858120087        9.7902710046
C         19.0893984688       32.8894349260       14.8727951242
S         17.2498929081       31.6731334466       16.4665439204
C         18.4757052641       25.5196290957        9.6514694911
C         17.7149334709       27.5452538817        8.5444079733
C         19.3902337883       33.5239509589       13.4900143782
C         17.0885266445       33.2977958086       17.2448781024
O         15.8796690707       31.2095400730       16.2175535334
O         18.2455893186       30.8309413189       17.1422481032
C         18.1483925575       26.2114760355        8.4745407165
C         18.2241321814       34.4201477899       13.0138812310
C         20.6906733263       34.3516119450       13.5607288518
C         16.1124233199       34.2053523775       16.7870917471
C         17.9535729457       33.6755481052       18.2915766627
C         16.0039497608       35.4793995230       17.3693519174
C         17.8430996784       34.9501386644       18.8727815529
C         16.8747226129       35.8532167671       18.4055858906
O         16.7690000468       37.0952271815       18.9751337735
C         17.4939097640       38.1986910587       18.4074052126
F         17.1218772003       38.4402432541       17.1312678949
F         17.2648739613       39.3253615680       19.1141359143
F         18.8270480477       37.9796389386       18.4177068487
H         21.6352407168       23.8680588321        5.1445587640
H         22.6087714203       22.5350588709        6.9917735952
H         21.0889171786       27.1943034381        7.8518212345
H         22.8365434242       23.5159443490        9.2593878938
H         19.5433223843       27.9678561096        6.1904015430
H         21.2052746708       28.4615613383        5.7636154337
H         19.9593725012       28.3287767012        4.4959474369
H         23.7585947623       27.2880708500        9.9843928535
H         22.1896361018       28.0734930714        9.6044916393
H         23.3919812660       27.8482202735       12.2167332070
H         20.2259770095       27.3512009561       12.9281111890
H         19.1010826142       29.8396477607       11.7958402797
H         19.8800238938       30.4403007884       14.0567794160
H         17.7127853997       27.4568801556       13.1250879180
H         16.8979574831       28.7920580151       12.3393423694
H         18.7795557644       29.5576656009       15.8704530137
H         17.7703651602       31.4076113719       12.8961781279
H         16.8212413347       30.4286216437       13.9926682135
H         18.6174352742       25.6155749811       11.8032370171
H         17.2758227663       29.2189836319        9.8368197842
H         18.9885817551       33.7165321080       15.5864354914
H         19.9624772202       32.3083783080       15.1988144968
H         18.8171703015       24.4885232208        9.5994407251
H         17.4579565573       28.0823771229        7.6351144966
H         19.5517136396       32.7283548030       12.7496316875
H         18.2313145880       25.7144562112        7.5112936608
H         18.0350430957       35.2333699924       13.7263965216
H         18.4498060011       34.8696704711       12.0385034422
H         17.2964794188       33.8444381586       12.9062902369
H         20.9326843923       34.7836616820       12.5811644895
H         20.5996140572       35.1751507074       14.2808452310
H         21.5383662952       33.7245186293       13.8658349016
H         15.4433411958       33.9223757941       15.9774835643
H         18.7117372838       32.9834240720       18.6510541189
H         15.2492385256       36.1764511683       17.0150898033
H         18.5100541342       35.2390680094       19.6806844478
    84
VM2 Rank=4      G=199.964           E=108.930           -TS=91.034              
C         21.6086236571       23.0579500788        6.5095785995
C         21.2297132609       24.4110596110        6.3749633448
C         22.0801991839       22.5691306247        7.7383838822
C         20.7034993436       24.9658098135        5.0726047559
C         21.3410134694       25.2586565749        7.4965608960
C         22.1753770380       23.4226878918        8.8476743107
C         20.6264309085       24.0613462222        3.8479343201
O         20.3342595092       26.1257531509        4.9809602451
C         21.8028504947       24.7735743754        8.7340600737
N         21.8894301496       25.6406338291        9.8572990451
C         21.4296854383       25.3733632155       11.1319770123
C         22.5113686332       26.9558620663        9.7634979442
O         21.7294476644       26.4487946688       11.9129802013
O         20.8601204287       24.3659818000       11.5150022594
C         22.3277087411       27.5458837114       11.1749534280
C         21.4364824074       28.8054420241       11.1939275423
O         21.4784954513       29.6598065514       10.3242657036
N         20.5468073542       28.8831651365       12.2436780195
C         19.3650433107       29.7562188863       12.2642081946
C         19.2926545837       30.5194426993       13.6166439880
C         18.0910891220       28.9285649021       11.9475194677
O         19.1486968747       29.5922476407       14.6976745067
C         18.1421406433       31.5616140062       13.6400998447
C         18.1901030838       28.1546166932       10.6382125658
N         18.2491810407       32.5909514581       14.7100437378
C         18.1591737004       28.8367199876        9.4082311391
C         18.3173356900       26.7529966683       10.6471155044
C         19.4535816340       33.4643833219       14.6798394323
S         17.6575471131       32.1612917394       16.2547380498
C         18.2487287455       28.1255686706        8.1999794854
C         18.4042594964       26.0404363894        9.4395348339
C         19.7001344886       34.1842375546       13.3286391590
C         17.4822229747       33.7490872481       17.1031665659
O         16.2905340856       31.6860240456       16.0102270216
O         18.6772373584       31.3079167417       16.8785705430
C         18.3651589222       26.7267255036        8.2153443914
C         18.5065667616       35.0880833945       12.9437995383
C         20.9905003195       35.0269243915       13.4068556162
C         16.4912516417       34.6628850061       16.6920890808
C         18.3523341862       34.0937651453       18.1570650865
C         16.3680074994       35.9071658947       17.3329738579
C         18.2269115213       35.3384784341       18.7970942783
C         17.2305764371       36.2401819383       18.3897454982
O         17.1170460821       37.4577224937       19.0085692077
C         16.2399456692       37.6003716413       20.1379296895
F         16.2744081948       38.8667496453       20.6031940543
F         14.9574709447       37.3239826579       19.8150913433
F         16.5976447410       36.7867438545       21.1555027343
H         21.5391986437       22.3727157942        5.6699357695
H         22.3688281276       21.5249513139        7.8320319004
H         21.0508786079       26.3015146738        7.4052575768
H         22.5388073366       23.0316245342        9.7947253796
H         19.9513299864       23.2209942466        4.0449813747
H         20.2468923406       24.6260308907        2.9883571064
H         21.6224681599       23.6744953230        3.6048091730
H         23.5760049938       26.8559002236        9.5176877694
H         22.0112708957       27.5701090585        9.0039557517
H         23.2962436825       27.8161349027       11.6128875212
H         20.5899184778       28.1369333845       12.9273803347
H         19.4776487533       30.5104989456       11.4729605724
H         20.2472265262       31.0512764207       13.7195988443
H         17.8945379908       28.2364271703       12.7762672967
H         17.2207321556       29.5932119503       11.8986821708
H         19.1997822007       30.1063432203       15.5379543978
H         18.1108998614       32.0610342457       12.6644629885
H         17.1867353464       31.0287859542       13.7333296967
H         18.0694203848       29.9194070531        9.3891659029
H         18.3508122958       26.2143015154       11.5905412227
H         19.3683428739       34.2458701792       15.4451298901
H         20.3425077288       32.8751253165       14.9418527473
H         18.2263791583       28.6579080611        7.2523804466
H         18.5041201725       24.9577653566        9.4533352958
H         19.8471791453       33.4363009064       12.5376591540
H         18.4315393160       26.1770021170        7.2794752016
H         18.6947847700       35.5997636665       11.9913670953
H         17.5847380469       34.5043489345       12.8292447036
H         18.3277456140       35.8531978415       13.7102246709
H         21.8563739882       34.3973964119       13.6492998683
H         21.1950772114       35.5187766260       12.4471499464
H         20.9104617741       35.8061208609       14.1759890227
H         15.8230360789       34.4085361716       15.8723287670
H         19.1266512774       33.3996462445       18.4759765978
H         15.6061263812       36.6117427085       17.0103807171
H         18.9012413437       35.6038541122       19.6069520449
    84
VM2 Rank=5      G=199.985           E=109.188           -TS=90.797              
C         22.5980198631       23.9746968094        6.7249173143
C         21.8975134147       25.1985791508        6.6596477904
C         23.0660096036       23.4862050676        7.9554642281
C         21.3611499779       25.7427399052        5.3569945513
C         21.6867595423       25.9203991469        7.8524375396
C         22.8373628013       24.2102574274        9.1352444677
C         21.6243336660       24.9834792031        4.0616317121
O         20.7161645989       26.7785611335        5.3201569053
C         22.1433372982       25.4316923493        9.0901218847
N         21.8986574572       26.1654942172       10.2817714014
C         21.3702532187       25.6642575354       11.4553313102
C         22.1991564409       27.5887824227       10.3764796921
O         21.2908723875       26.6941963742       12.3450431301
O         21.0302587722       24.5158083623       11.6815949111
C         21.7410696358       27.9613217282       11.7973474247
C         20.6362965057       29.0362296276       11.7888062912
O         20.8026735773       30.1402829492       11.2993275965
N         19.4200231612       28.6496628774       12.3090162524
C         18.1451310502       29.3024647401       11.9712106192
C         17.6494617714       30.2281282551       13.1174982824
C         17.1075378322       28.2155992931       11.5964408795
O         16.4104317877       30.8432738425       12.7550648349
C         18.6844034535       31.3341715705       13.4560422115
C         17.5950177264       27.2865958387       10.4903634156
N         18.2116562748       32.3565910344       14.4247623836
C         17.9303824037       25.9504708077       10.7781053403
C         17.7197067593       27.7605789630        9.1713975795
C         19.0620031901       33.5711801876       14.4409642581
S         17.5141673052       31.7919507502       15.8878839523
C         18.3754736592       25.0951594954        9.7565617630
C         18.1669788661       26.9065173671        8.1492990231
C         18.2477931235       34.8657700700       14.1964351834
C         17.5404222664       33.1837657599       17.0503386646
O         16.1155588440       31.5073357336       15.5421111960
O         18.4347154494       30.7625795678       16.3844939634
C         18.4889349415       25.5715897858        8.4412280387
C         19.1114965513       36.1093057994       14.4923685860
C         17.7080060379       34.9188013170       12.7501540095
C         16.4162119798       34.0255687348       17.1793246587
C         18.6805098574       33.4264044531       17.8442216492
C         16.4482429265       35.1195557517       18.0601433815
C         18.7106899214       34.5209691303       18.7242919680
C         17.6005902179       35.3744967418       18.8203176698
O         17.6382929982       36.4484109286       19.6704819206
C         18.0591367644       37.7285142081       19.1705078808
F         17.2439607909       38.1776368689       18.1912277403
F         18.0462676306       38.6472656563       20.1589158877
F         19.3159056966       37.6837010599       18.6765086557
H         22.7823951431       23.3888576042        5.8292925930
H         23.6027348902       22.5413808035        7.9952551310
H         21.1422870375       26.8599317084        7.8166349031
H         23.1991374337       23.8199808124       10.0832513929
H         22.7033744239       24.8835068924        3.8987773141
H         21.1735450536       23.9860752349        4.1140817319
H         21.1874905234       25.5250715200        3.2144994109
H         23.2758376949       27.7612905638       10.2539649847
H         21.6427332610       28.1565915121        9.6195362458
H         22.5824228490       28.3514243978       12.3830661819
H         19.3895772726       27.7099705696       12.6850970770
H         18.2984465446       29.9326728498       11.0835699831
H         17.5005564313       29.6014839636       14.0075484593
H         16.8484718412       27.6377598524       12.4925496608
H         16.1768628189       28.6982197232       11.2719204408
H         16.0723109335       31.2752520570       13.5744718776
H         19.5927194879       30.8582533160       13.8483349428
H         18.9595106498       31.8241078182       12.5124279309
H         17.8471166890       25.5722057715       11.7934289715
H         17.4690225445       28.7921525303        8.9389587984
H         19.6118811064       33.6414957486       15.3871162423
H         19.8286895333       33.5123347966       13.6561141669
H         18.6365077975       24.0649017069        9.9860146272
H         18.2647655816       27.2780243170        7.1318700280
H         17.3869219697       34.8905990084       14.8736110989
H         18.8347585198       24.9101880567        7.6508402844
H         19.4608187020       36.1049568545       15.5331330069
H         19.9914134406       36.1462417130       13.8371670710
H         18.5353643502       37.0308635250       14.3390943859
H         17.0558386058       34.0605564619       12.5415438563
H         17.1205998024       35.8308246614       12.5846583628
H         18.5276574677       34.9055141940       12.0204826235
H         15.5238702838       33.8407540137       16.5855350778
H         19.5468149431       32.7729558563       17.7692694251
H         15.5835764997       35.7719496015       18.1479890574
H         19.5954205840       34.7109677608       19.3260558930
    84
VM2 Rank=6      G=200.040           E=108.831           -TS=91.208              
C         22.5036988524       24.1094106025        6.6579112316
C         21.7546182634       25.3054929357        6.6243236818
C         23.0490409147       23.6437535814        7.8652465152
C         21.1353686282       25.8238570672        5.3481792484
C         21.5744582133       26.0232918258        7.8245317998
C         22.8503017365       24.3630485412        9.0533251032
C         21.3638650439       25.0699234854        4.0431578435
O         20.4505821532       26.8344439565        5.3405611858
C         22.1087815181       25.5570121614        9.0395367272
N         21.8940620373       26.2854058444       10.2402261645
C         21.4414733067       25.7689700707       11.4386221929
C         22.1448453381       27.7193244872       10.3177991169
O         21.3649790340       26.7986328725       12.3289294844
O         21.1568191982       24.6092971154       11.6832354786
C         21.7392471422       28.0799016212       11.7575436533
C         20.5939966401       29.1107539830       11.7972661537
O         20.6973940653       30.2211266181       11.3047120536
N         19.4156258466       28.6762053371       12.3650829613
C         18.1035358512       29.2780478255       12.0787573034
C         17.6227521536       30.1971266044       13.2370094877
C         17.0915838777       28.1500864549       11.7597210992
O         16.3550757119       30.7727121197       12.9126427584
C         18.6360657702       31.3367574991       13.5276554307
C         17.5630842160       27.2303928866       10.6390876622
N         18.1847657580       32.3644312024       14.5103080841
C         17.9636898078       25.9110703325       10.9208272787
C         17.6075225067       27.6965521912        9.3122163079
C         19.0834246451       33.5502519570       14.5941223924
S         17.5793770331       31.7521363819       15.9952175348
C         18.3941220332       25.0642765034        9.8859939118
C         18.0399851433       26.8510622780        8.2767154720
C         19.3380756712       34.2941130930       13.2553950116
C         17.5034621390       33.1690457589       17.1213553585
O         16.1931537471       31.3719424881       15.6934459449
O         18.5766756471       30.7919303546       16.4824218245
C         18.4275270578       25.5324908215        8.5632601347
C         18.0147813874       34.7150446349       12.5755177808
C         20.2158513622       35.5391990065       13.5046771704
C         16.4307568153       34.0801287050       17.0395928429
C         18.5251781982       33.3825426771       18.0691801641
C         16.3831913473       35.1947586093       17.8936403373
C         18.4753780388       34.4979329721       18.9223108911
C         17.4096287657       35.4070175992       18.8278532702
O         17.3630370623       36.4933896428       19.6619699877
C         17.9468666195       37.7365963097       19.2388532578
F         17.8041225091       38.6742682282       20.1988995142
F         19.2690301489       37.6098485345       18.9915408703
F         17.3581410431       38.2119942211       18.1196203198
H         22.6667247717       23.5276090051        5.7555400147
H         23.6227354821       22.7201832607        7.8807832472
H         20.9932682486       26.9411969901        7.8134171334
H         23.2721266817       23.9904033732        9.9834391514
H         20.9541915509       24.0564656867        4.1196207033
H         20.8662332633       25.5913167003        3.2171417960
H         22.4367292039       25.0100220183        3.8281774148
H         23.2074928902       27.9314983458       10.1452427326
H         21.5331935036       28.2630823817        9.5862336752
H         22.5909404883       28.5053471680       12.3022841489
H         19.4371042320       27.7356594216       12.7396344584
H         18.1946135230       29.9038667726       11.1794798256
H         17.5248640913       29.5723568402       14.1353596591
H         16.8954025848       27.5708317947       12.6707701556
H         16.1296209719       28.5948125926       11.4746785319
H         16.0263386564       31.1835133524       13.7468689919
H         19.5723071092       30.8877803413       13.8842753333
H         18.8531860961       31.8024914739       12.5606781488
H         17.9426192857       25.5393054606       11.9417313959
H         17.3059448763       28.7153789110        9.0840497314
H         18.6570625101       34.2991124045       15.2710949715
H         20.0491144069       33.2456477818       15.0207799243
H         18.7059182971       24.0471678769       10.1106879347
H         18.0757395722       27.2166478918        7.2530840071
H         19.8960281637       33.6398823160       12.5718280383
H         18.7621580435       24.8777620406        7.7625718804
H         18.2100227880       35.2551254181       11.6404347141
H         17.3981682592       33.8410396459       12.3291838442
H         17.4255354688       35.3701050993       13.2297755128
H         20.4372103529       36.0563354211       12.5621561160
H         19.7148414350       36.2524547435       14.1720455294
H         21.1729106216       35.2588755376       13.9632224304
H         15.6381883070       33.9254646990       16.3108175635
H         19.3582416645       32.6870272222       18.1416684667
H         15.5541738429       35.8943997702       17.8284906283
H         19.2638332275       34.6595729443       19.6525431904
    84
VM2 Rank=7      G=200.041           E=108.920           -TS=91.122              
C         22.4992746529       24.4899197584        6.2369375114
C         21.3341928014       25.2801384006        6.3414091727
C         23.5010160074       24.5642789202        7.2181559466
C         20.2276723231       25.2101021700        5.3160436869
C         21.2036875524       26.1482089936        7.4448696049
C         23.3506897546       25.4241785732        8.3165109716
C         20.3874315658       24.3044324986        4.1003298144
O         19.2036626900       25.8625017972        5.4428967676
C         22.1982928213       26.2199324498        8.4373099974
N         22.0347905459       27.0864485556        9.5514621151
C         22.2093757946       26.7508054919       10.8799130022
C         21.6502639507       28.4823186183        9.3820799175
O         21.9551976455       27.8645845607       11.6238126889
O         22.5329476722       25.6658858932       11.3315786700
C         21.5608656708       29.0106613620       10.8245248836
C         20.1497587989       29.5233847925       11.1735289694
O         19.5875579787       30.3872288555       10.5225262967
N         19.5345495696       28.9015467516       12.2386569780
C         18.0785636575       28.9029522190       12.4574218223
C         17.6858533938       29.7982771035       13.6676015565
C         17.5985356306       27.4377348483       12.6111156547
O         16.2825237062       29.6938320681       13.9176844759
C         18.0526258643       31.2895586635       13.4267242807
C         18.0326742814       26.5440944526       11.4544564022
N         18.1012212807       32.1301050316       14.6538578324
C         19.0057093146       25.5465512396       11.6512463194
C         17.4676067097       26.7141369870       10.1770815507
C         19.0865768975       31.7307569536       15.6955146014
S         16.6180877533       32.7726807087       15.2069340753
C         19.4008913405       24.7209389967       10.5856841303
C         17.8641037692       25.8906311075        9.1099282292
C         20.5360305110       31.5288101974       15.1801241689
C         17.1170774038       34.0698252579       16.3646402234
O         16.0568924001       33.4689985388       14.0431021443
O         15.9043112107       31.6776632471       15.8769507912
C         18.8260305697       24.8892029088        9.3163517194
C         21.0975445988       32.8214896975       14.5452280747
C         21.4501582238       31.0744569835       16.3371903644
C         17.7317355596       35.2442805380       15.8861722375
C         16.9225806937       33.9013748474       17.7504354702
C         18.1424451405       36.2432694560       16.7847923289
C         17.3335441019       34.9020175879       18.6473753117
C         17.9356804330       36.0745418114       18.1633817209
O         18.3450959803       37.0441296926       19.0411804231
C         17.4498498158       38.1147982573       19.3836770080
F         18.0364170762       38.9557971665       20.2611933392
F         17.0998176258       38.8421199119       18.3002407341
F         16.3175872605       37.6554150773       19.9601660140
H         22.6390820654       23.8095994845        5.4020877889
H         24.3938864030       23.9500634732        7.1293910005
H         20.3085059959       26.7565263740        7.5400096581
H         24.1303481795       25.4698887925        9.0727878949
H         19.5086973606       24.3908936560        3.4506073812
H         21.2777559449       24.5949715538        3.5313319590
H         20.4888489902       23.2615565871        4.4211110771
H         22.4163278425       29.0238607744        8.8129696286
H         20.6819308226       28.5607491560        8.8710420257
H         22.2639320436       29.8389007278       10.9757892276
H         20.0859945911       28.1879013471       12.6991147932
H         17.5865655577       29.3194462309       11.5670456890
H         18.2432056832       29.4243047952       14.5357616424
H         17.9678221688       27.0346511402       13.5624801922
H         16.5036624195       27.4187061253       12.6827202639
H         16.0896636033       30.2063641497       14.7387034216
H         19.0282068958       31.3414753449       12.9331579393
H         17.3406325738       31.7113688294       12.7048600021
H         19.4576675252       25.4091094234       12.6298901398
H         16.7200089952       27.4854072153       10.0121837071
H         19.1312524487       32.4953389629       16.4810465865
H         18.7485188045       30.8071724036       16.1841911879
H         20.1552500389       23.9539789877       10.7436143801
H         17.4262605229       26.0270216668        8.1238814643
H         20.5475974642       30.7309229222       14.4253990196
H         19.1316177589       24.2505081276        8.4914304795
H         22.1251615059       32.6689321511       14.1917205273
H         20.4951032001       33.1376573046       13.6845495103
H         21.1070189850       33.6452390936       15.2705043145
H         21.4946822042       31.8326950220       17.1297599243
H         21.0856379821       30.1391996273       16.7812441250
H         22.4730289802       30.8970152996       15.9808099825
H         17.8952863470       35.3767766822       14.8189663443
H         16.4577411934       32.9946738767       18.1310585565
H         18.6207652001       37.1455075436       16.4131277258
H         17.1860880638       34.7685188711       19.7157593684
    84
VM2 Rank=8      G=200.045           E=109.516           -TS=90.529              
C         21.5125711424       22.9603756305        6.5398736850
C         21.6135802703       24.3665122256        6.4683631622
C         21.3729023382       22.3185042316        7.7807427379
C         21.7486083336       25.0901309242        5.1496885749
C         21.5773914945       25.1083512204        7.6671558832
C         21.3280415157       23.0714432319        8.9636369097
C         21.8353802485       24.2860089179        3.8575346646
O         21.7862462982       26.3091528652        5.0967139887
C         21.4267211432       24.4730423739        8.9136566613
N         21.3737301899       25.2413319249       10.1087447466
C         20.4548840182       25.0998077435       11.1302668834
C         22.3400362619       26.2979382271       10.3831838246
O         20.7694736841       26.0064194645       12.0974595971
O         19.5250627831       24.3132805537       11.1829222338
C         21.8771804434       26.8716269230       11.7360838012
C         21.4495756714       28.3518236998       11.6525218031
O         22.0382536511       29.1734974569       10.9696352060
N         20.3200860147       28.6810399184       12.3703594166
C         19.5188957641       29.8923236712       12.1451357069
C         19.2287541344       30.5872837661       13.5057446727
C         18.2445233501       29.5334243669       11.3342972256
O         18.4276033495       29.7485647977       14.3451863190
C         18.5536517048       31.9758863589       13.3490657530
C         18.5465444903       28.7877444778       10.0394483465
N         18.2063863539       32.6413307216       14.6312975008
C         19.1513201395       29.4582715363        8.9606690814
C         18.2264499226       27.4231547246        9.9117049464
C         17.2521045798       33.7640681237       14.4671279037
S         19.4109976784       32.7173283502       15.8518014659
C         19.4275168176       28.7744668575        7.7649437740
C         18.4995699129       26.7388916343        8.7155396756
C         15.9724322794       33.5772668130       15.3190490052
C         18.8901334374       34.0046949160       17.0183727756
O         19.3300997821       31.4176945061       16.5308651892
O         20.6226134591       33.1840136871       15.1676080610
C         19.0956918521       27.4162408021        7.6399386043
C         15.1408142986       34.8765443346       15.3335753969
C         15.1204216076       32.4002697895       14.7946401625
C         18.1567122718       33.6644531042       18.1739080740
C         19.2266071429       35.3543566571       16.7856088865
C         17.7307741202       34.6656750654       19.0625928218
C         18.7996679493       36.3541740256       17.6753696996
C         18.0400996410       36.0104930744       18.8045180652
O         17.6153271601       36.9899202717       19.6634990422
C         16.3111250966       37.5669776142       19.4850909826
F         15.3321843074       36.6446113181       19.6120846923
F         16.0881104131       38.5219109056       20.4122308938
F         16.1821414809       38.1446761953       18.2705414959
H         21.5373741779       22.3525424055        5.6402669456
H         21.2952113485       21.2348178618        7.8251771663
H         21.6532013195       26.1911254985        7.6241031997
H         21.2163732785       22.5629733400        9.9180447004
H         21.9538957074       24.9620493829        3.0027172336
H         22.6963049184       23.6090526065        3.8948317083
H         20.9205207919       23.6987764834        3.7198132665
H         23.3507784033       25.8783190177       10.4618714558
H         22.3153016638       27.0616299842        9.5954400140
H         22.6766519995       26.7972707450       12.4832158477
H         19.9024061261       27.9377930497       12.9174361046
H         20.1116926213       30.5947038697       11.5427033461
H         20.2057918698       30.7399796565       13.9845415592
H         17.5737147138       28.9333884346       11.9623411028
H         17.6901785190       30.4460663708       11.0891036792
H         18.4746834235       30.1448022462       15.2464124020
H         19.2217826296       32.6260267477       12.7685984600
H         17.6356090952       31.8440083962       12.7644699294
H         19.4105175102       30.5096282426        9.0507505032
H         17.7667558419       26.8908414242       10.7403612125
H         17.7347099958       34.7174172205       14.7131998147
H         16.9402354839       33.8521758247       13.4174205845
H         19.8964983559       29.2971787004        6.9350811651
H         18.2510637387       25.6843020131        8.6237843561
H         16.2526108308       33.3501840428       16.3538450093
H         19.3065722270       26.8887963348        6.7126967382
H         14.8222848818       35.1551129899       14.3207426239
H         14.2414963206       34.7581325460       15.9515506160
H         15.7226403480       35.7094109543       15.7495918559
H         15.6871808047       31.4603460208       14.8225439068
H         14.2211804680       32.2641381444       15.4086975196
H         14.8013074834       32.5723662107       13.7588416268
H         17.9043908715       32.6257333420       18.3749812172
H         19.8085570030       35.6282117263       15.9084367410
H         17.1567435284       34.3995854820       19.9461461752
H         19.0516532163       37.3942727414       17.4865230527
    84
VM2 Rank=9      G=200.072           E=109.123           -TS=90.949              
C         21.5259358626       24.1348868847        5.5650716275
C         21.9864982770       23.4983224248        6.7377382862
C         21.1091473267       25.4747353568        5.5986717078
C         22.4458523327       22.0592913458        6.7329473931
C         22.0154640943       24.2356150202        7.9403155369
C         21.1449126445       26.1947765482        6.8017219067
C         22.4025230083       21.2615665759        5.4344495516
O         22.8533769925       21.5193863425        7.7492680358
C         21.5931640540       25.5780561627        7.9837982232
N         21.6307788610       26.3051289623        9.2065913124
C         21.2290448552       25.8460793680       10.4467277401
C         22.1480115981       27.6669110255        9.2699223976
O         21.4758402104       26.8324581964       11.3537392115
O         20.7412932694       24.7604220723       10.7102970643
C         22.0188722758       28.0393427960       10.7591924404
C         21.1145746673       29.2648984075       11.0037523841
O         21.1036391629       30.2367737629       10.2664899630
N         20.2708284066       29.1695812482       12.0893580665
C         19.0533437277       29.9752068314       12.2581122230
C         19.0029329135       30.5722188475       13.6925997420
C         17.8044401588       29.1297759006       11.8909596471
O         18.9479177727       29.5204980235       14.6621343696
C         17.8066601240       31.5438945411       13.8794025203
C         17.9031566232       28.4796964426       10.5155244183
N         17.9053983428       32.4408781638       15.0631167554
C         17.8685919402       29.2703642914        9.3523814919
C         18.0398642610       27.0840165437       10.3969696335
C         19.0651680514       33.3724705896       15.1011840579
S         17.3908050726       31.8011823741       16.5619993147
C         17.9669819666       28.6727025011        8.0847623136
C         18.1343616723       26.4848332031        9.1299771531
C         19.2174174172       34.2699743369       13.8459656431
C         17.1688588300       33.2688240069       17.5954042474
O         16.0410076205       31.2858977161       16.3032406918
O         18.4732700019       30.9362174397       17.0491030869
C         18.0954880461       27.2790651466        7.9733306490
C         17.9657488390       35.1500289415       13.6256454397
C         20.4675564325       35.1639984167       13.9844359010
C         16.1189979822       34.1692204631       17.3251370149
C         18.0587006682       33.5352758980       18.6554589466
C         15.9620146759       35.3263669211       18.1063636497
C         17.8996040495       34.6929688139       19.4358607359
C         16.8573729981       35.5910646317       19.1551906130
O         16.7046712477       36.7190009607       19.9184607929
C         17.3337506334       37.9435897924       19.5060385414
F         18.6766079357       37.8154225159       19.4308227737
F         16.8869967678       38.3558263354       18.2994888389
F         17.0715553283       38.9282869094       20.3908759450
H         21.4873622764       23.6028275298        4.6191724482
H         20.7568577810       25.9561220014        4.6895497233
H         22.3720660728       23.7580509505        8.8494359827
H         20.8137495188       27.2294044096        6.8109319796
H         23.0401530051       21.7375793364        4.6810112700
H         22.7629990007       20.2410922895        5.6090433556
H         21.3742973863       21.2136380661        5.0585399260
H         23.1966968792       27.6940908136        8.9483271948
H         21.5480327981       28.3359101605        8.6398748110
H         23.0038444059       28.2604030181       11.1879980661
H         20.3583676953       28.3329737104       12.6537016049
H         19.0990493140       30.8211670139       11.5582130007
H         19.9350578042       31.1369848116       13.8223655136
H         17.6531827779       28.3583441743       12.6567584388
H         16.9091046694       29.7617434362       11.9200432960
H         19.0079566422       29.9361598680       15.5546073722
H         17.7158232590       32.1550918143       12.9736100735
H         16.8814134032       30.9556154816       13.9365971063
H         17.7713391815       30.3496953111        9.4314769676
H         18.0772898487       26.4617033570       11.2872618649
H         18.9772358541       34.0452132864       15.9632545194
H         19.9914830443       32.8021482212       15.2517808875
H         17.9412733280       29.2894865367        7.1900142044
H         18.2420448187       25.4060969597        9.0456733407
H         19.3656468928       33.6372343836       12.9603227497
H         18.1674741761       26.8151937634        6.9927971810
H         17.7833009539       35.8005728248       14.4906967168
H         18.0873462153       35.7882271987       12.7411786264
H         17.0693681847       34.5367957854       13.4703442608
H         20.3833324520       35.8340496294       14.8499200139
H         21.3726611582       34.5561943085       14.1116461133
H         20.6061226684       35.7837455487       13.0891626215
H         15.4303005366       33.9721525717       16.5065587862
H         18.8736093914       32.8479063033       18.8711516622
H         15.1506522366       36.0181095491       17.8962430673
H         18.5859260097       34.8960990688       20.2536102831
    84
VM2 Rank=10     G=200.082           E=108.684           -TS=91.398              
C         22.5955206059       24.0019438405        6.7263688580
C         21.8583990672       25.1997150523        6.6252189994
C         23.0910699877       23.5678541187        7.9654615255
C         21.3375129399       25.6444411374        5.2788401002
C         21.6268125990       25.9526649332        7.7974562111
C         22.8541305173       24.3258869255        9.1213356224
C         20.5798784641       26.9624306101        5.1639847309
O         21.5134219722       24.9709208983        4.2761282103
C         22.1174990183       25.5213547919        9.0450906832
N         21.8759941915       26.2907479659       10.2166147564
C         21.4589198358       25.8064893402       11.4417779083
C         22.0835006494       27.7342555886       10.2394009134
O         21.3758336256       26.8635694517       12.2981493563
O         21.2033137952       24.6506591184       11.7322521832
C         21.7088335025       28.1329215311       11.6776549698
C         20.5433538785       29.1410191597       11.7207206233
O         20.6028213679       30.2344738629       11.1850203055
N         19.3983126084       28.7021538380       12.3496004454
C         18.0626935859       29.2684664334       12.1039636365
C         17.5979719274       30.1776812201       13.2758537943
C         17.0739989955       28.1122366635       11.8158860616
O         16.3093177740       30.7265064567       12.9902402873
C         18.5969860084       31.3382505436       13.5318989469
C         17.5124567657       27.2492053862       10.6387374003
N         18.1554737079       32.3598263633       14.5252503497
C         18.0769476980       25.9781344826       10.8536040033
C         17.3634162222       27.7244333078        9.3232344805
C         19.0309419212       33.5646504880       14.5772687401
S         17.6094903120       31.7401315376       16.0300145175
C         18.4844481939       25.1898779509        9.7643568708
C         17.7680910641       26.9361620166        8.2332296293
C         19.2269162206       34.3092546984       13.2291077383
C         17.5420983041       33.1583319859       17.1550771132
O         16.2221121756       31.3321704763       15.7731582096
O         18.6403391380       30.8008588553       16.4872990740
C         18.3274756810       25.6672779398        8.4535830342
C         17.8739712307       34.6994108621       12.5904791420
C         20.0851498079       35.5737039685       13.4469745659
C         16.4494263281       34.0478062152       17.1064139677
C         18.5897146549       33.3946130778       18.0686050494
C         16.4076412187       35.1636772447       17.9591454127
C         18.5456373725       34.5111799050       18.9205066743
C         17.4595484817       35.3987816073       18.8588912193
O         17.4183285245       36.4865101281       19.6915115189
C         17.9710311594       37.7375145647       19.2499844084
F         17.8377037305       38.6759781082       20.2106094667
F         19.2883205623       37.6313244994       18.9692387685
F         17.3462226068       38.1995408487       18.1447995162
H         22.7875917754       23.4032969237        5.8391691905
H         23.6597354331       22.6432890727        8.0294102111
H         21.0509327437       26.8709156872        7.7499864476
H         23.2450240918       23.9815775691       10.0755289995
H         21.2094057582       27.7888084953        5.5127825177
H         20.3034012365       27.1458983090        4.1191351789
H         19.6678217229       26.9236371123        5.7686826114
H         23.1330127931       27.9739874758       10.0269242828
H         21.4322388400       28.2337199886        9.5106035928
H         22.5663451258       28.5908727962       12.1856898350
H         19.4574076249       27.7781130738       12.7592379109
H         18.1075670791       29.8954839277       11.2019618700
H         17.5412568218       29.5524884396       14.1774536903
H         16.9566991071       27.4983460710       12.7177795756
H         16.0800815215       28.5263237902       11.6036731085
H         15.9986122314       31.1329501942       13.8334718821
H         19.5526088226       30.9092772937       13.8607048106
H         18.7751896851       31.8048243552       12.5573588061
H         18.2028506187       25.5998111282       11.8645678813
H         16.9311046182       28.7057979159        9.1464640871
H         18.6103967137       34.3066005007       15.2653947503
H         20.0159500332       33.2820699366       14.9738547365
H         18.9230604206       24.2099693114        9.9371681705
H         17.6429228668       27.3079984115        7.2197272490
H         19.7768239965       33.6648586268       12.5298947233
H         18.6394638697       25.0546451308        7.6115484162
H         18.0277833797       35.2404403098       11.6482388301
H         17.2688408779       33.8115585370       12.3661621228
H         17.2917658588       35.3438534303       13.2613746021
H         20.2653368851       36.0922464392       12.4964883154
H         19.5902999644       36.2783392826       14.1279599234
H         21.0620731765       35.3155374472       13.8756669380
H         15.6367666340       33.8755049896       16.4042051504
H         19.4383302048       32.7158951156       18.1153621231
H         15.5633092770       35.8467198923       17.9195427518
H         19.3541026397       34.6903476141       19.6242934249
    84
VM2 Rank=11     G=200.087           E=108.563           -TS=91.524              
C         22.7920492820       24.7748755690        6.2919729513
C         21.5126296522       25.3587312883        6.3940353535
C         23.7911509436       25.0690882597        7.2325186743
C         20.4551761556       25.0246152469        5.3682891176
C         21.2568824708       26.2449860168        7.4635023860
C         23.5230159918       25.9506122569        8.2898209898
C         19.0810737854       25.6781426553        5.4648232174
O         20.6779845734       24.2413644140        4.4589513937
C         22.2529016597       26.5414210159        8.4140581474
N         21.9795331338       27.4362709510        9.4853514685
C         22.3134832012       27.2499504217       10.8133437707
C         21.3103114601       28.7127306396        9.2623472245
O         21.9029762923       28.3522047573       11.5020018307
O         22.8725729969       26.2859190339       11.3070744511
C         21.2434853984       29.3389268682       10.6664110404
C         19.7970760809       29.6265930122       11.1149908672
O         19.0320534971       30.3145471899       10.4611905464
N         19.4012110166       29.0064975418       12.2802955361
C         17.9951592616       28.7681258396       12.6454621691
C         17.5618211377       29.6610102362       13.8430403120
C         17.8050316621       27.2545624328       12.9162344925
O         16.2291088271       29.3328242945       14.2416184440
C         17.6317337099       31.1727885436       13.4878821324
C         18.2480641992       26.3867280275       11.7438523697
N         17.6417236596       32.0922963911       14.6578485159
C         19.4392340363       25.6408410946       11.8163456964
C         17.4704486734       26.3324456035       10.5728869152
C         18.7748734193       31.9434746124       15.6114543317
S         16.1249234258       32.5057853627       15.3263635011
C         19.8445384893       24.8445206002       10.7322494879
C         17.8743089100       25.5360420372        9.4884203574
C         20.1829106624       31.9691634379       14.9605664931
C         16.4916815913       33.9477259968       16.3548003077
O         15.3426143107       33.0106799988       14.1917211391
O         15.6844798348       31.3537480838       16.1240402716
C         19.0604453059       24.7889887835        9.5692593925
C         20.4362987501       33.2964960309       14.2099758935
C         21.2674796679       31.7624970911       16.0384801141
C         16.8363116694       35.1742888879       15.7524730232
C         16.4628571349       33.8464793472       17.7603214807
C         17.1510043862       36.2884636646       16.5484393088
C         16.7775593168       34.9621803006       18.5545318914
C         17.1293904521       36.1787839717       17.9481830711
O         17.4349247051       37.2651949762       18.7256920895
C         18.8029571046       37.5135785002       19.0893340591
F         18.8917264041       38.6180096823       19.8598311151
F         19.3276202681       36.4868269330       19.7935033111
F         19.5822014327       37.7149720993       18.0042093463
H         23.0151532833       24.0891022409        5.4781318224
H         24.7742106662       24.6134899143        7.1413076534
H         20.2775663383       26.6990214036        7.5719096202
H         24.3053555414       26.1734080919        9.0110198698
H         19.1799822532       26.7685839938        5.4199596177
H         18.4492832984       25.3465780223        4.6325207255
H         18.5986806116       25.3978802921        6.4071944328
H         21.8977944664       29.3402844150        8.5803447389
H         20.3037938399       28.5578824311        8.8527842963
H         21.7959667251       30.2861948436       10.6916113991
H         20.1137110704       28.4489395341       12.7349929736
H         17.3560003539       29.0326273142       11.7911201201
H         18.2552248150       29.4497078937       14.6668849631
H         18.3527541205       26.9763843606       13.8253874830
H         16.7478870326       27.0511814571       13.1290348071
H         16.0243909598       29.8598603832       15.0504975982
H         18.5321227583       31.3582431434       12.8933738746
H         16.7917555888       31.4134525690       12.8226997482
H         20.0537286652       25.6781121915       12.7119053795
H         16.5507462834       26.9074699669       10.5050707836
H         18.7512469358       32.7536813815       16.3506988771
H         18.6581354898       31.0088311112       16.1761333046
H         20.7671670574       24.2723293695       10.7938009338
H         17.2646436044       25.4949725428        8.5896444053
H         20.2711502560       31.1380588063       14.2479276540
H         19.3730021849       24.1687347040        8.7331156840
H         21.4375523960       33.3066390536       13.7609454151
H         19.7095086925       33.4424241853       13.4011703595
H         20.3606479833       34.1548636700       14.8898146828
H         22.2683150446       31.7468011557       15.5881050845
H         21.2447611496       32.5673480970       16.7846561159
H         21.1234207324       30.8087716295       16.5623306026
H         16.8641572278       35.2593249742       14.6683945582
H         16.2002329746       32.9039067588       18.2353439176
H         17.4149274294       37.2333082307       16.0809117450
H         16.7534107390       34.8825696042       19.6380856986
    84
VM2 Rank=12     G=200.135           E=109.133           -TS=91.002              
C         21.4853125965       24.1700398603        5.5249893465
C         21.9296317916       23.5187250618        6.6938457250
C         21.0940345298       25.5170669630        5.5605995618
C         22.3450561483       22.0677383071        6.6288311848
C         21.9721915207       24.2502105413        7.9012732516
C         21.1398076204       26.2305989418        6.7669860094
C         22.8095385329       21.3615045128        7.8977984645
O         22.3150050041       21.4451122568        5.5791091152
C         21.5738693041       25.6005539248        7.9477776935
N         21.6194369045       26.3220423990        9.1743876295
C         21.2262280061       25.8570353856       10.4153650835
C         22.1351569954       27.6844227101        9.2414897985
O         21.4772290327       26.8393792332       11.3254687543
O         20.7432988414       24.7686157218       10.6770334646
C         22.0186923215       28.0483021219       10.7338597718
C         21.1201097654       29.2751775793       10.9921753781
O         21.1119908339       30.2539824201       10.2641117367
N         20.2772546003       29.1727740548       12.0778121895
C         19.0603458153       29.9780221739       12.2523914578
C         19.0121405406       30.5685239789       13.6896234940
C         17.8105218187       29.1349690487       11.8828084502
O         18.9571056642       29.5125469457       14.6545097379
C         17.8169917590       31.5404893054       13.8819689230
C         17.9084899040       28.4880211367       10.5057690896
N         17.9177155428       32.4319522182       15.0696754384
C         17.8836821684       29.2820853651        9.3446648412
C         18.0348019880       27.0916481835       10.3837511949
C         19.0788324476       33.3617196057       15.1112653758
S         17.4031671575       31.7861752460       16.5659565935
C         17.9816890547       28.6871714212        8.0757264812
C         18.1285517767       26.4952194930        9.1154051993
C         19.2318763278       34.2644120783       13.8598694403
C         17.1840884333       33.2494449388       17.6061539478
O         16.0524413819       31.2740716663       16.3057357939
O         18.4846758135       30.9174048056       17.0483881467
C         18.0997228709       27.2928967058        7.9608502173
C         17.9814975097       35.1473943269       13.6440099101
C         20.4835083028       35.1558331534       14.0015819978
C         18.0747239285       33.5095227213       18.6671251281
C         16.1356595120       34.1528422325       17.3403776995
C         17.9178737402       34.6639153669       19.4528548018
C         15.9809356986       35.3066908574       18.1269146661
C         16.8770621239       35.5650495209       19.1766540104
O         16.7265144757       36.6898891774       19.9449047968
C         17.3604352536       37.9143186125       19.5394785006
F         17.0989173862       38.8959675257       20.4278963011
F         18.7030902145       37.7823934752       19.4672099607
F         16.9180970396       38.3331267176       18.3335642454
H         21.4427936313       23.6298674516        4.5822340775
H         20.7531908804       26.0077446068        4.6521287060
H         22.3166628066       23.7748941813        8.8142444156
H         20.8266790103       27.2707488501        6.7793894849
H         22.0139715946       21.3833191296        8.6512961161
H         23.0577567360       20.3169624340        7.6761803397
H         23.6998123818       21.8588526114        8.2988625416
H         23.1807642582       27.7157767187        8.9103850974
H         21.5280168504       28.3564225380        8.6215800294
H         23.0076940575       28.2639609485       11.1560987311
H         20.3628000006       28.3306650941       12.6342152416
H         19.1053698422       30.8272716249       11.5564576626
H         19.9449546256       31.1317990753       13.8209013209
H         17.6583025612       28.3618172244       12.6466718227
H         16.9159617610       29.7679739484       11.9134587959
H         19.0179910646       29.9241892016       15.5487839630
H         17.7259827602       32.1559670539       12.9790943597
H         16.8912020456       30.9528738916       13.9372270814
H         17.7944646364       30.3619153050        9.4263696999
H         18.0645934217       26.4665745402       11.2723877348
H         18.9922405736       34.0308540497       15.9762752846
H         20.0043824931       32.7894079021       15.2589986054
H         17.9636735511       29.3065827439        7.1826079184
H         18.2280638318       25.4159261196        9.0284326634
H         19.3786568564       33.6352949481       12.9714079211
H         18.1713464157       26.8311563675        6.9792808719
H         17.0840694650       34.5362589626       13.4865077659
H         17.8005174111       35.7944654160       14.5119693685
H         18.1036652702       35.7892316793       12.7622589931
H         21.3877045833       34.5460395233       14.1256935986
H         20.6226177034       35.7792341959       13.1089344151
H         20.4007889411       35.8222562166       14.8700065592
H         18.8885339715       32.8197895606       18.8793910464
H         15.4463668086       33.9607036935       16.5211284281
H         18.6048273211       34.8621318508       20.2712795076
H         15.1707479626       36.0008290947       17.9201921496
    84
VM2 Rank=13     G=200.154           E=108.709           -TS=91.446              
C         21.7308212694       23.5562440534        6.2463026719
C         21.3600921432       24.9165970039        6.2299826358
C         22.1738060590       22.9483303580        7.4311993391
C         20.8865089091       25.5473761893        4.9415866800
C         21.4420622167       25.6541037842        7.4313773069
C         22.2499810521       23.6931040581        8.6172280750
C         20.5310647998       27.0301001675        4.9162185195
O         20.7851544289       24.8944598014        3.9152257501
C         21.8813853380       25.0500925334        8.6253496293
N         21.9551223750       25.8070069804        9.8272216172
C         21.4998485231       25.4153961601       11.0717939672
C         22.5724279585       27.1277190914        9.8632463958
O         21.7774735443       26.4221118294       11.9474825676
O         20.9549249600       24.3644260384       11.3625423103
C         22.3190044181       27.6055036742       11.3056831136
C         21.3385520582       28.7953726852       11.3809978231
O         21.3274890319       29.6978011270       10.5601758756
N         20.4351273029       28.7522158636       12.4207718777
C         19.2037127793       29.5520468489       12.4811578535
C         19.1086939717       30.2815519562       13.8505864822
C         17.9757362107       28.6590013146       12.1621250477
O         19.0338816470       29.3255131592       14.9132942445
C         17.9010593665       31.2551932230       13.9120883775
C         18.1049237788       27.9092051759       10.8411874324
N         17.9618885353       32.2622152466       15.0064806706
C         18.0432531243       28.6054210005        9.6201870839
C         18.2857335796       26.5137360527       10.8307648486
C         19.1142358376       33.2035484490       14.9857348013
S         17.4112859857       31.7637780580       16.5456574421
C         18.1536752170       27.9137777264        8.4021487321
C         18.3945487297       25.8207446490        9.6137975074
C         19.2964601759       33.9765273858       13.6539672755
C         17.1534913848       33.3210776612       17.4285681310
O         16.0718454090       31.2150931852       16.3022260579
O         18.4853821243       30.9580239073       17.1408415008
C         18.3235071954       26.5199675271        8.3989397242
C         18.0463968693       34.8204473923       13.3150958644
C         20.5370129742       34.8903399954       13.7392420052
C         16.1059333669       34.1829604376       17.0467941329
C         18.0132940318       33.6943846629       18.4811429258
C         15.9214787596       35.4076830504       17.7101059229
C         17.8267315834       34.9195445171       19.1435403917
C         16.7870644087       35.7781962142       18.7518481580
O         16.6073822443       36.9721743625       19.4001257102
C         17.2425601030       38.1567166327       18.8913555437
F         16.9499948957       39.2189864371       19.6706491012
F         18.5876274658       38.0319819292       18.8672060512
F         16.8293618568       38.4492004432       17.6387548235
H         21.6768498503       22.9654596233        5.3350067774
H         22.4583332465       21.8988834559        7.4297856397
H         21.1500967707       26.6987783819        7.4491626884
H         22.5962096151       23.2127472798        9.5289537411
H         21.3955903192       27.6283135094        5.2254645309
H         20.2406838503       27.3281770591        3.9019954998
H         19.6944918080       27.2280009327        5.5949270200
H         23.6485238697       27.0452580002        9.6654388071
H         22.1122555578       27.8001240060        9.1288036501
H         23.2544546005       27.9124760296       11.7889635921
H         20.5225300689       27.9743178829       13.0635470931
H         19.2573938644       30.3291249208       11.7060374147
H         20.0328088325       30.8650255564       13.9516346928
H         17.8257351417       27.9456543374       12.9825610294
H         17.0693528022       29.2747921626       12.1305707659
H         19.0658543198       29.8241045406       15.7637559102
H         17.8302275447       31.7760367645       12.9498072699
H         16.9786994465       30.6664278033       14.0015184047
H         17.9100375870       29.6838032479        9.6157424076
H         18.3436223690       25.9638945183       11.7665295544
H         18.9977360687       33.9558423033       15.7756499767
H         20.0394654908       32.6588219592       15.2164597413
H         18.1019034217       28.4580208339        7.4627044567
H         18.5352248122       24.7424941758        9.6136203494
H         19.4732142454       33.2623112436       12.8382682831
H         18.4013545081       25.9814373916        7.4581744902
H         17.8360508464       35.5502226563       14.1075531739
H         18.1890390577       35.3709056697       12.3764723248
H         17.1582635378       34.1874960592       13.1956878750
H         20.6970711301       35.4216546766       12.7922019103
H         20.4246390869       35.6402905576       14.5330111680
H         21.4416976270       34.3054127225       13.9495446820
H         15.4403821932       33.9033337310       16.2331214839
H         18.8261866284       33.0374191740       18.7822678433
H         15.1119695570       36.0695821490       17.4142159997
H         18.4898621088       35.2050729710       19.9557882195
    84
VM2 Rank=14     G=200.159           E=109.485           -TS=90.674              
C         22.1820792116       24.6201236623        5.8904948779
C         22.7006821952       24.0772411636        7.0858462909
C         21.4548666832       25.8204463304        5.9099456200
C         23.4905592278       22.7896966741        7.0969541220
C         22.4699758526       24.7642908539        8.2963684885
C         21.2348858068       26.4923867535        7.1211766390
C         23.7269922864       22.0425564811        5.7891974457
O         23.9461743439       22.3330369691        8.1334611421
C         21.7360485719       25.9654517080        8.3252582847
N         21.5132166385       26.6445370443        9.5558171157
C         21.1536453287       26.0672834108       10.7594450837
C         21.6781565120       28.0890401257        9.6700186231
O         21.0788743860       27.0610244039       11.6896099474
O         20.9355799691       24.8883091407       10.9792739870
C         21.4200773258       28.3686548301       11.1606827476
C         20.3123479456       29.4167055393       11.3823746425
O         20.3803667843       30.5473394627       10.9314376459
N         19.1988458611       28.9727316140       12.0616321628
C         17.8656126534       29.5765327330       11.9105106095
C         17.4656911226       30.4111702915       13.1584095813
C         16.8429615680       28.4608506389       11.5825512814
O         16.1670945360       30.9811524320       12.9754042829
C         18.4850557362       31.5472636571       13.4399636277
C         17.2635225677       27.6099948131       10.3893180965
N         18.0851069951       32.4931163858       14.5135811649
C         17.6545342665       26.2704251710       10.5713207536
C         17.2814737406       28.1642399329        9.0962395414
C         18.8787190722       33.7455679259       14.5029445069
S         17.5868922353       31.8193217367       16.0115392848
C         18.0527344852       25.4921799690        9.4717457951
C         17.6829630203       27.3877727858        7.9964727742
C         17.9868794946       35.0094655941       14.4261473277
C         17.6864195256       33.1488821381       17.2409788250
O         16.1713815551       31.4835773790       15.8107257920
O         18.6027316910       30.8128819680       16.3413381803
C         18.0663020945       26.0502368566        8.1839890971
C         18.8248383116       36.2770293892       14.6926934745
C         17.2815876264       35.1104778019       13.0556419960
C         16.5490291208       33.9259986291       17.5435556698
C         18.8987802450       33.4066498077       17.9137819440
C         16.6347586538       34.9733631404       18.4759431900
C         18.9825637846       34.4545493076       18.8456622316
C         17.8548739397       35.2457639946       19.1146136084
O         17.9437061409       36.2749702286       20.0148065319
C         18.2450777662       37.5990408138       19.5438778875
F         17.3010566968       38.0559844238       18.6922674009
F         18.3075721839       38.4636177288       20.5781991151
F         19.4357042404       37.6440661588       18.9067815615
H         22.3366256140       24.1222617228        4.9378529810
H         21.0594979415       26.2302492185        4.9836328801
H         22.8675608802       24.3586223715        9.2232107658
H         20.6628371035       27.4159596257        7.1196385533
H         22.7678345484       21.7626818852        5.3391504400
H         24.2817701787       22.6780773305        5.0897977758
H         24.3082739432       21.1322952448        5.9771532829
H         22.6944519785       28.3870686502        9.3829502822
H         20.9441620724       28.6101586250        9.0416442681
H         22.3335815252       28.7402697551       11.6408813094
H         19.2498122755       28.0151087422       12.3873295931
H         17.8877625849       30.2637482175       11.0527643986
H         17.4491805724       29.7307753585       14.0208752206
H         16.6989227448       27.8299460366       12.4686757109
H         15.8653252715       28.9136836187       11.3737576262
H         15.9076383272       31.3512675652       13.8518234082
H         19.4523988802       31.0962330538       13.6976525624
H         18.6274692669       32.0987677073       12.5009621606
H         17.6537567010       25.8307457943       11.5650909979
H         16.9858270511       29.1989560671        8.9446439838
H         19.5305263755       33.7937830107       15.3834796772
H         19.5515725455       33.7651822399       13.6345417667
H         18.3578513851       24.4590590132        9.6195220425
H         17.6953328882       27.8219338571        6.9999757179
H         17.2098817969       34.9569716989       15.1967363111
H         18.3779501218       25.4482503671        7.3339839735
H         19.2921257432       36.2361358249       15.6852688519
H         19.6206128131       36.3909776789       13.9452562265
H         18.1958105958       37.1758251491       14.6583532939
H         16.6470523868       34.2331545395       12.8737247366
H         16.6404049566       35.9998677465       13.0098800356
H         18.0111023859       35.1751567011       12.2383008081
H         15.6030806349       33.7279232251       17.0445937940
H         19.7782745737       32.8018142044       17.7045877945
H         15.7584084034       35.5765435662       18.6976759140
H         19.9216586448       34.6570472101       19.3536601774
    84
VM2 Rank=15     G=200.170           E=109.283           -TS=90.887              
C         21.4000672727       22.9833684369        6.5452722560
C         21.6848726680       24.3657066333        6.5686620702
C         21.0110169935       22.3163876165        7.7178797096
C         22.0904688790       25.1173444988        5.3231526546
C         21.5760975442       25.0573683324        7.7928038053
C         20.8973332792       23.0208116970        8.9257790430
C         22.2539742283       24.3610582219        4.0097158674
O         22.2871974820       26.3219311430        5.3457649686
C         21.1761635539       24.3981557646        8.9699280850
N         21.0547053646       25.1183497888       10.1897753745
C         19.9941940989       25.0561187280       11.0725655200
C         22.0967711843       26.0290750571       10.6482649483
O         20.2827062914       25.8739884188       12.1233679992
O         18.9759248427       24.3959055556       10.9576364447
C         21.5291865647       26.5995426721       11.9620447788
C         21.3068709239       28.1256397956       11.9143532020
O         22.0836913951       28.8910667441       11.3678404033
N         20.1385232128       28.5700230516       12.4947746098
C         19.5349385578       29.8855727756       12.2402379792
C         19.1494484225       30.5528686556       13.5913536731
C         18.3509819901       29.7340364633       11.2471306925
O         18.1376266987       29.7944597560       14.2617817357
C         18.6850156940       32.0257985813       13.4331468517
C         18.7340250228       29.0092156620        9.9619131683
N         18.2516611184       32.6946609679       14.6948541406
C         18.2655065436       27.7057709064        9.7120951330
C         19.5628761680       29.6376293190        9.0146932061
C         17.6197960334       34.0283982118       14.4868552391
S         19.3206280546       32.5446005841       16.0302527745
C         18.6141691287       27.0416073586        8.5242635489
C         19.9145580030       28.9734854021        7.8277444405
C         16.3970052053       34.0490408624       13.5304562968
C         18.7742524787       33.7697791673       17.2477782756
O         19.0197011942       31.2199023350       16.5888237264
O         20.6510493083       32.9125470110       15.5313316351
C         19.4349010751       27.6778101004        7.5794197753
C         15.3102950673       33.0411408776       13.9708349410
C         15.7979769048       35.4705640542       13.4737671767
C         17.6803400737       33.4887113227       18.0915044061
C         19.4228678754       35.0179284319       17.3442740531
C         17.2375178484       34.4475244582       19.0181420143
C         18.9782926284       35.9751780342       18.2718675338
C         17.8813028628       35.6924866091       19.1012801460
O         17.4501631238       36.6272627922       20.0059459218
C         16.4311469735       37.5656633265       19.6232642861
F         16.8191460209       38.3265272705       18.5764163302
F         15.2805009403       36.9450705079       19.2824271374
F         16.1515432043       38.3999160393       20.6465620209
H         21.4729870776       22.4139856316        5.6233970001
H         20.7932090102       21.2514315640        7.6893320838
H         21.7919615468       26.1215559826        7.8223911342
H         20.5921540725       22.4936353073        9.8262522691
H         21.3007827584       23.9054259779        3.7188453487
H         22.5732747353       25.0491917624        3.2183183550
H         23.0099475374       23.5756410920        4.1214283577
H         23.0290684667       25.4801392883       10.8309218250
H         22.2713766941       26.8226189106        9.9105550653
H         22.2033927673       26.3869176651       12.8005731975
H         19.5585922684       27.8652991013       12.9343466883
H         20.2892696663       30.5282862122       11.7652798681
H         20.0626384078       30.5485458288       14.2021297580
H         17.5285427915       29.2032811854       11.7434736949
H         17.9561369820       30.7215851665       10.9842795709
H         18.1246134965       30.1289141785       15.1890087294
H         19.5043736292       32.5996455094       12.9799439371
H         17.8572471253       32.0219230944       12.7196554675
H         17.6314677965       27.2053196717       10.4393399291
H         19.9374216230       30.6405232430        9.2006038722
H         17.2529620922       34.4246553455       15.4403288161
H         18.3745892343       34.7355100075       14.1158991391
H         18.2499194679       26.0341817485        8.3378615883
H         20.5566329786       29.4632742011        7.0999479003
H         16.7225238641       33.7976437901       12.5122917366
H         19.7045696514       27.1660989323        6.6586137251
H         15.6924537168       32.0122644514       13.9603087635
H         14.9581643298       33.2593777684       14.9871007502
H         14.4454331590       33.0788075627       13.2964321440
H         14.9548667264       35.5118207201       12.7721547801
H         15.4333432673       35.7885216768       14.4592154216
H         16.5470427240       36.1988909038       13.1372236383
H         17.1719699474       32.5294224703       18.0241760751
H         20.2677176524       35.2467979915       16.6986514718
H         16.3945246732       34.2270597865       19.6675802373
H         19.4807265846       36.9360599200       18.3446697514
    84
VM2 Rank=16     G=200.200           E=109.130           -TS=91.070              
C         22.0817697394       24.7250866628        5.8746630254
C         22.6612411703       24.2035506241        7.0514233327
C         21.3144892874       25.8995547144        5.9185093518
C         23.4953049247       22.9442274059        7.0359854269
C         22.4501542848       24.8852769643        8.2685129935
C         21.1147459647       26.5666115597        7.1359333797
C         23.7112110537       22.2026902701        5.7215082846
O         24.0029195691       22.5061167089        8.0562083928
C         21.6765791525       26.0604128664        8.3219721549
N         21.4745215761       26.7345601383        9.5587574831
C         21.1767583239       26.1483995182       10.7748726480
C         21.5955762059       28.1839642483        9.6654796225
O         21.1014576356       27.1412546580       11.7059544902
O         21.0059680176       24.9633291674       11.0035082422
C         21.3808168913       28.4581719371       11.1639570503
C         20.2477410988       29.4698549428       11.4227370663
O         20.2692697848       30.6051620580       10.9789741660
N         19.1663916148       28.9868179119       12.1270460206
C         17.8114593024       29.5491073490       12.0132484877
C         17.4236039901       30.3824535037       13.2661670900
C         16.8133432688       28.4006114115       11.7258387458
O         16.1095004478       30.9223577131       13.1082730862
C         18.4235528310       31.5439793900       13.5134196809
C         17.2220910999       27.5539884130       10.5255532242
N         18.0450340193       32.4993666458       14.5947518106
C         17.1770545967       28.0970841469        9.2284223305
C         17.6652926149       26.2303391203       10.7044171364
C         18.9066225499       33.7139138754       14.6519000751
S         17.6208354106       31.7855144372       16.0970615259
C         17.5679167522       27.3252322474        8.1216030149
C         18.0530709071       25.4566549915        9.5979223393
C         18.9915295254       34.5375840845       13.3386154812
C         17.6217598658       33.1352811447       17.3052705025
O         16.2229466042       31.3707974772       15.9204493399
O         18.6939736834       30.8381743520       16.4209343730
C         18.0037590149       26.0034583785        8.3062111481
C         17.5896943787       34.9408905396       12.8260308886
C         19.8478779857       35.8017300169       13.5654894627
C         16.5180397819       34.0081841661       17.3907667770
C         18.7325277452       33.3354774968       18.1502489639
C         16.5275614015       35.0721600577       18.3083456760
C         18.7396841302       34.4001334827       19.0672209687
C         17.6415554466       35.2720149188       19.1392278971
O         17.6501797874       36.3091021950       20.0350372829
C         18.1589469694       37.5906136409       19.6296839926
F         17.4535288817       38.1070453723       18.5996495651
F         18.0850528432       38.4704370621       20.6503412734
F         19.4540878685       37.5182700128       19.2518947281
H         22.2193974873       24.2304281074        4.9177674448
H         20.8723111353       26.2930303843        5.0063893752
H         22.8943248910       24.4960089671        9.1811284845
H         20.5113351922       27.4698356292        7.1537155969
H         24.2181926639       22.8555620676        5.0020952673
H         24.3303618644       21.3137872700        5.8897231541
H         22.7470850758       21.8883433309        5.3061758894
H         22.5908001892       28.5146835139        9.3426116495
H         20.8232187713       28.6792438057        9.0627037669
H         22.2978548580       28.8607430148       11.6113559624
H         19.2554008376       28.0291601970       12.4443397351
H         17.7868755678       30.2288504639       11.1495859584
H         17.4432563406       29.7066092461       14.1320795636
H         16.7167282499       27.7723624191       12.6202572984
H         15.8162375442       28.8220622806       11.5452783006
H         15.8569917557       31.2753861696       13.9939454702
H         19.4069934491       31.1136155233       13.7438320485
H         18.5211437276       32.0684223650       12.5570765411
H         16.8407410576       29.1196426948        9.0790961361
H         17.7133145964       25.7996815478       11.7009746757
H         18.5295219262       34.4080590024       15.4113899944
H         19.9220881699       33.4258216327       14.9571983117
H         17.5315912824       27.7507482656        7.1219674191
H         18.3988366329       24.4360509402        9.7431324776
H         19.4953716454       33.9435022266       12.5641711948
H         18.3075893997       25.4052142591        7.4507489352
H         16.9804864544       34.0573101788       12.5959754418
H         17.0515733488       35.5361218679       13.5746943622
H         17.6655693363       35.5373731867       11.9080771808
H         19.3968347287       36.4578541880       14.3212601763
H         20.8573802763       35.5358912567       13.9046682502
H         19.9496960524       36.3767447920       12.6360988357
H         15.6567422389       33.8634849271       16.7423624129
H         19.5902549841       32.6690864141       18.0934964143
H         15.6746359368       35.7425735136       18.3721714101
H         19.5968203893       34.5514481060       19.7179568898
    84
VM2 Rank=17     G=200.204           E=108.598           -TS=91.606              
C         21.4874680549       26.9527325354        6.0945619841
C         20.6625792251       27.9368260523        6.6810226514
C         22.3765130098       26.2053977403        6.8838441219
C         19.6798504210       28.7437142664        5.8662483305
C         20.7574955611       28.1569371779        8.0705046903
C         22.4502593740       26.4278529406        8.2671410953
C         19.6061612124       28.5352369372        4.3579986863
O         18.9386410671       29.5587277475        6.3921945704
C         21.6380629216       27.4044596377        8.8690259795
N         21.6994881292       27.6286801668       10.2706504328
C         21.6395702242       26.6624036123       11.2558656563
C         21.8383108236       28.9706129324       10.8228542735
O         21.7238417608       27.2954777104       12.4603653239
O         21.5328895736       25.4577191713       11.1040466465
C         21.8194052211       28.7394823173       12.3438627792
C         20.6505425916       29.4738448912       13.0292272502
O         20.5102375668       30.6830810197       12.9637819709
N         19.7305291257       28.6715068948       13.6696402181
C         18.3452202133       29.0864156219       13.9435166975
C         18.1302651553       29.4544788432       15.4396496081
C         17.3842711844       27.9726498360       13.4586816327
O         16.7711897456       29.8472761023       15.6399411415
C         19.0798520606       30.5987519436       15.8898684506
C         17.5991686866       27.6006168136       11.9959906098
N         19.0253313221       30.9363862427       17.3407195493
C         18.1594952222       26.3564735469       11.6517406035
C         17.2437295005       28.5031213575       10.9765889711
C         19.3763945971       29.8472110575       18.2874096471
S         17.8289702467       32.0209503728       17.9048600339
C         18.3524490880       26.0144017841       10.3030422594
C         17.4386398634       28.1629565527        9.6273735604
C         20.7395035038       29.1563743288       18.0170002639
C         17.6477908359       33.2275209496       16.5674636528
O         16.6035365658       31.2291826120       18.0747886729
O         18.4694081449       32.7291688010       19.0197239074
C         17.9874585477       26.9154277660        9.2906633940
C         21.9094588415       30.1652960498       18.0687016322
C         20.9742268957       28.0293179878       19.0445683520
C         16.5285037943       33.1833032876       15.7115488787
C         18.6482118852       34.1969697527       16.3525945215
C         16.4175159302       34.0921338905       14.6460632514
C         18.5349632528       35.1055016019       15.2867946614
C         17.4256360903       35.0446262179       14.4283551409
O         17.3199492574       35.9252974852       13.3838216740
C         17.8665070181       35.5707712999       12.1026666009
F         17.2921696780       34.4546358153       11.6032187708
F         17.6578237817       36.5635081955       11.2125839918
F         19.1995132274       35.3615801326       12.1672232075
H         21.4459847723       26.7532096460        5.0278780711
H         23.0062047179       25.4483060293        6.4227085035
H         20.1224780938       28.9062723160        8.5349004357
H         23.1381514039       25.8396577847        8.8694149705
H         19.3168685517       27.5017662351        4.1365905532
H         18.8620374198       29.2120603273        3.9221334677
H         20.5814924028       28.7420970318        3.9032677070
H         22.7887361762       29.4182666378       10.5061349547
H         21.0029446132       29.6101113766       10.5094525151
H         22.7512512604       29.0967347842       12.7990324772
H         19.9376192016       27.6804313647       13.6565580193
H         18.1275077037       29.9876859197       13.3527468128
H         18.3481080706       28.5588885257       16.0363376849
H         17.5016902796       27.0890296002       14.0984822784
H         16.3462900350       28.3030598825       13.5917215644
H         16.6456530085       30.0239348331       16.6014625222
H         20.1066448947       30.3061152574       15.6458177758
H         18.8850164581       31.4783903675       15.2655710065
H         18.4466305012       25.6524121148       12.4280907708
H         16.8155591307       29.4689849867       11.2311624667
H         19.4093825754       30.2569263093       19.3066273349
H         18.5822047865       29.0885630087       18.2831629535
H         18.7891099929       25.0530274747       10.0436595326
H         17.1652388123       28.8648305442        8.8429309723
H         20.7205984856       28.6901410578       17.0224734082
H         18.1380790666       26.6513566562        8.2469546453
H         22.8676019634       29.6632927681       17.8836951804
H         21.7940821378       30.9490029124       17.3096766623
H         21.9656088919       30.6533768854       19.0501437450
H         21.9203780021       27.5095976758       18.8459373598
H         21.0143071453       28.4263816003       20.0671986891
H         20.1694320156       27.2842426348       19.0004481189
H         15.7509400391       32.4384959998       15.8646161790
H         19.5168460713       34.2371337538       17.0060666196
H         15.5555410850       34.0520487983       13.9855511846
H         19.3098392398       35.8492706363       15.1215825317
    84
VM2 Rank=18     G=200.204           E=108.990           -TS=91.214              
C         21.3127935481       24.8411312221        5.6228133199
C         22.4779044324       25.3884212845        6.2020252875
C         20.0436943945       25.1890598324        6.1109905016
C         23.8572690672       25.0370869088        5.6963207881
C         22.3386036509       26.2872897633        7.2805667680
C         19.9215292753       26.0849807313        7.1830928163
C         24.0052995211       24.0557349328        4.5390061401
O         24.8596111286       25.5240443636        6.1949707648
C         21.0695011645       26.6363318441        7.7804987306
N         20.9485544900       27.5455908762        8.8685903935
C         21.7188766831       27.5608614447       10.0165211046
C         19.9626987253       28.6201137593        8.8577835943
O         21.3062311807       28.6131697224       10.7784742284
O         22.6105876401       26.7871020697       10.3198602814
C         20.2460367342       29.3877552199       10.1606565369
C         18.9989019034       29.5205393864       11.0558551783
O         17.9536544772       30.0047827003       10.6569611548
N         19.1180547323       28.9944903786       12.3239065741
C         17.9691668035       28.5487044624       13.1292744124
C         17.7450283745       29.4723001517       14.3599281741
C         18.1803887903       27.0628754587       13.5148701483
O         16.6951376907       28.9507487382       15.1774791363
C         17.3888792080       30.9233043129       13.9310878132
C         18.4870200070       26.1771238158       12.3119609468
N         17.5620168456       31.9515391113       14.9928084461
C         17.5028963109       25.9458840818       11.3333388322
C         19.7605681156       25.5979212161       12.1598558745
C         18.9361005319       32.1175275053       15.5404012894
S         16.2686197828       32.1510731051       16.0909394661
C         17.7870190006       25.1421642222       10.2166801334
C         20.0444125100       24.7908837322       11.0456852229
C         20.0419129122       32.3310575356       14.4734608447
C         16.6223429469       33.7389537694       16.8814699086
O         15.0918111943       32.3779333254       15.2435822997
O         16.3405062589       31.0317948014       17.0393792758
C         19.0574330535       24.5617054752       10.0744762751
C         19.7722927621       33.5930703943       13.6225465873
C         21.4206900012       32.4455905228       15.1566827248
C         17.0432719071       33.7876587294       18.2257267963
C         16.5052425012       34.9349072521       16.1452577428
C         17.3454678944       35.0217211295       18.8260228715
C         16.8082755707       36.1676722794       16.7472924751
C         17.2359470218       36.2088169897       18.0841439867
O         17.5308726184       37.4107882801       18.6727364218
C         18.8624669336       37.9416533503       18.5703074126
F         19.2177689841       38.1614580348       17.2855026019
F         18.9497975992       39.1212729185       19.2200649074
F         19.7758431205       37.1104088581       19.1181428091
H         21.3763196146       24.1452290828        4.7915669700
H         19.1523441246       24.7620919154        5.6576486666
H         23.2281433936       26.7189335744        7.7323107352
H         18.9319952952       26.3377297506        7.5534906884
H         23.5667782890       23.0886337689        4.8096875776
H         23.4973406512       24.4458644854        3.6498473585
H         25.0661926467       23.9096249856        4.3045892586
H         20.1017064297       29.2654369740        7.9812482831
H         18.9455544856       28.2070263141        8.8606179943
H         20.6051281448       30.3993766012        9.9350742807
H         20.0276567447       28.6059346326       12.5414836207
H         17.0615511123       28.6018076395       12.5115185905
H         18.6839579741       29.4821614356       14.9278183007
H         18.9882309870       26.9934690978       14.2541307250
H         17.2805190106       26.6852892644       14.0168076029
H         16.6403500435       29.5164343240       15.9843164934
H         18.0078549309       31.2029152015       13.0722797498
H         16.3560494068       30.9326601019       13.5581150466
H         16.5175528220       26.3921284779       11.4378320161
H         20.5337123219       25.7744431713       12.9028042469
H         18.9698055922       32.9847573397       16.2113938241
H         19.1940247242       31.2440673902       16.1540598093
H         17.0224999791       24.9677055830        9.4638685518
H         21.0315462012       24.3493596697       10.9321359183
H         20.0808935193       31.4580828995       13.8079746091
H         19.2786743447       23.9388965059        9.2112635152
H         20.5646042240       33.7386457392       12.8773672564
H         18.8206491190       33.5140100019       13.0823411625
H         19.7290037056       34.4913863962       14.2517085541
H         21.4581664666       33.3085672056       15.8341356668
H         21.6450330607       31.5441229951       15.7413100168
H         22.2175183615       32.5656158347       14.4114222705
H         17.1390165337       32.8703352874       18.8022791659
H         16.1843702244       34.9051532213       15.1063222275
H         17.6686027222       35.0573728885       19.8630010353
H         16.7156760042       37.0882659895       16.1772922016
    84
VM2 Rank=19     G=200.204           E=108.552           -TS=91.652              
C         19.3595153811       23.4516605589        7.5475857807
C         19.4698638861       24.8365610625        7.2977224381
C         19.8083765121       22.9090394149        8.7622240436
C         18.9829778728       25.4554601686        6.0090473242
C         20.0444145469       25.6583628875        8.2893360781
C         20.3682829921       23.7414800612        9.7428878310
C         18.4046423773       24.5612409057        4.9183054979
O         19.0399180258       26.6606993258        5.8236590851
C         20.4867710827       25.1235005475        9.5133954399
N         21.0459494378       25.9726365365       10.5071422583
C         20.7256842748       25.9779864203       11.8507054889
C         22.0681252375       26.9605021863       10.1834597471
O         21.5031231088       26.9184544116       12.4568595849
O         19.9042474708       25.2771462304       12.4163923939
C         22.3310966450       27.6653788054       11.5280586703
C         21.9659362595       29.1644485610       11.5086205659
O         22.1732568224       29.8844317933       10.5459668801
N         21.3417305941       29.6342935219       12.6439680607
C         20.5702583628       30.8830002001       12.7083148067
C         20.9814081325       31.6910889172       13.9714045577
C         19.0512166170       30.5689362567       12.6379480809
O         20.6750791552       30.9422025936       15.1515407258
C         20.3064996189       33.0880393069       14.0185634994
C         18.6674157363       29.7239092117       11.4290569935
N         20.8520419001       34.0151467717       15.0504775905
C         18.7009452520       30.2795887709       10.1371297522
C         18.2783570673       28.3813484856       11.5931228107
C         22.2858437858       34.3828393521       14.9242264734
S         20.2889314535       33.8850375802       16.6610972690
C         18.3440139800       29.5038707558        9.0215765687
C         17.9185167063       27.6053849783       10.4787004654
C         22.7021705607       34.9398487604       13.5373003284
C         18.5206784586       33.5329527948       16.4940686648
O         21.0053060818       32.7525439520       17.2626568723
O         20.3868261746       35.2484195176       17.1962743003
C         17.9466637256       28.1684619329        9.1928935754
C         21.8983136804       36.2077236748       13.1688919471
C         24.2125193879       35.2563670927       13.5266037670
C         17.6338234112       34.5528312890       16.0939297163
C         18.0243736123       32.2343267808       16.7282513620
C         16.2656414510       34.2769021273       15.9317597518
C         16.6563304490       31.9600392851       16.5637085785
C         15.7773905758       32.9829924822       16.1731093485
O         14.4444286941       32.7149410270       16.0009598325
C         13.5543135588       32.7887920577       17.1266139928
F         13.8906550571       31.9060388765       18.0924970312
F         13.5445875566       34.0230966254       17.6759350134
F         12.2905372696       32.5070451438       16.7460491547
H         18.9242120485       22.7843098397        6.8096692210
H         19.7183091429       21.8409908206        8.9453768802
H         20.1332989688       26.7257966835        8.1085149044
H         20.7092302794       23.3098271096       10.6806175844
H         17.5136267845       24.0439591548        5.2915219704
H         18.1242121259       25.1656715437        4.0477800818
H         19.1491774558       23.8192838854        4.6084290948
H         22.9757312000       26.4631403731        9.8191226481
H         21.7019671759       27.6656926710        9.4265158474
H         23.3878459981       27.5833326762       11.8098809294
H         21.2217693758       28.9711271919       13.4002657294
H         20.8265436704       31.4952024276       11.8324139477
H         22.0679437627       31.8360595494       13.9073813638
H         18.7437386778       30.0601606408       13.5605248332
H         18.4799326160       31.5036773095       12.6061204175
H         21.0683633787       31.4207246892       15.9182896125
H         20.4191813139       33.5488787485       13.0300268410
H         19.2275194295       32.9557854000       14.1527260436
H         19.0075113706       31.3126083453        9.9975463300
H         18.2559730070       27.9372236075       12.5848861210
H         22.5244980690       35.1511529576       15.6728818757
H         22.9107200252       33.5122992302       15.1649282890
H         18.3735629334       29.9377610094        8.0252465532
H         17.6203421450       26.5682608318       10.6120319873
H         22.5255237706       34.1744793305       12.7694842701
H         17.6674264146       27.5698870591        8.3290777705
H         22.0511882385       37.0007986294       13.9120802301
H         22.2067625646       36.5959969031       12.1898822049
H         20.8227686711       35.9976556289       13.1181461771
H         24.4623577232       36.0256659557       14.2687865423
H         24.8030570012       34.3596296638       13.7545324557
H         24.5287915009       35.6216210591       12.5410283627
H         18.0085567717       35.5557776041       15.9018970048
H         18.6989598255       31.4358718568       17.0283575945
H         15.5854359273       35.0641392687       15.6179097613
H         16.2795636540       30.9555303930       16.7366935073
    84
VM2 Rank=20     G=200.223           E=109.285           -TS=90.937              
C         21.3499586965       23.8201114740        5.6758662201
C         21.8023057253       23.2239012918        6.8726960620
C         20.9866627830       25.1755760601        5.6483043544
C         22.2046269705       21.7691561456        6.9333766086
C         21.8778599211       24.0175083624        8.0367919468
C         21.0683584468       25.9517219011        6.8136268930
C         22.1108494089       20.9111151416        5.6766712556
O         22.6055393580       21.2638578926        7.9699204561
C         21.5093564914       25.3762744061        8.0190111234
N         21.5934118077       26.1603544677        9.2036551169
C         21.1912664033       25.7794844362       10.4698542312
C         22.1655493402       27.5014415640        9.1929582859
O         21.4895263750       26.7986870988       11.3235660662
O         20.6648483610       24.7285496274       10.7930356408
C         22.0706256717       27.9523440744       10.6629856668
C         21.2172765138       29.2228891297       10.8555923003
O         21.2344340763       30.1566703485       10.0707456800
N         20.3842219693       29.2146523542       11.9535374702
C         19.2009478693       30.0747482298       12.0945241350
C         19.1938223150       30.7479836336       13.4957120769
C         17.9155474097       29.2605916404       11.7877753191
O         19.1107259071       29.7518914993       14.5203852159
C         18.0391962472       31.7751074105       13.6441929609
C         17.9694512783       28.5371500023       10.4469191063
N         18.1912507790       32.7318149344       14.7743805941
C         17.9491100276       29.2676167490        9.2447246750
C         18.0501240697       27.1329070755       10.3994569546
C         19.3879725782       33.6157595462       14.7459384147
S         17.6762288315       32.1955647505       16.3131427319
C         18.0061495124       28.6020490932        8.0088015141
C         18.1032271021       26.4660097112        9.1642845606
C         19.5652010906       34.4268922902       13.4362276977
C         17.5294234029       33.7226175500       17.2713611736
O         16.3027134445       31.7231732830       16.1017104134
O         18.7303747572       31.3137060580       16.8311062136
C         18.0787884280       27.2005331467        7.9684528791
C         18.3495363689       35.3441103531       13.1706948574
C         20.8532096625       35.2736128766       13.5095489693
C         16.5146852131       34.6518015393       16.9664819818
C         18.4445994370       34.0060092965       18.3051511899
C         16.4127597317       35.8503516449       17.6925927446
C         18.3404222615       35.2050076072       19.0305766159
C         17.3206335138       36.1218480423       18.7288666070
O         17.2283005991       37.2951072395       19.4311542447
C         16.3896120557       37.3604691108       20.5962566568
F         16.7790064261       36.4788951311       21.5431398018
F         16.4430103099       38.5919957198       21.1456786678
F         15.0962910505       37.1073790589       20.2985656481
H         21.2766291070       23.2442904274        4.7580692037
H         20.6402102960       25.6255004368        4.7210065969
H         22.2286676336       23.5712281006        8.9638857488
H         20.7781640546       26.9979404168        6.7757856942
H         22.7554714410       21.3237866432        4.8924561204
H         22.4335342077       19.8868469677        5.8969885086
H         21.0760941876       20.8859209138        5.3168091504
H         23.2102817517       27.4698235604        8.8591376006
H         21.5849736684       28.1622004836        8.5366001928
H         23.0689216499       28.1560220848       11.0689810723
H         20.4465897469       28.4043264565       12.5581271025
H         19.2688787588       30.8804103064       11.3502949635
H         20.1491207214       31.2810915397       13.5844575328
H         17.7462702157       28.5361381697       12.5945877171
H         17.0454255704       29.9274445786       11.7952095955
H         19.2001030466       30.2113058376       15.3886452214
H         17.9577946003       32.3383308273       12.7069509546
H         17.0928446616       31.2279475048       13.7465900734
H         17.8949487855       30.3525858937        9.2687348154
H         18.0760081570       26.5562538721       11.3203773967
H         19.3353710025       34.3432275559       15.5655081140
H         20.2916896349       33.0179726591       14.9248889640
H         17.9916886083       29.1724657164        7.0835586033
H         18.1677483579       25.3809515802        9.1349013218
H         19.6780420763       33.7350914441       12.5904342188
H         18.1187759255       26.6842909711        7.0125750915
H         18.4888733232       35.9203251246       12.2471523789
H         17.4265000848       34.7613510572       13.0609927877
H         18.2036014925       36.0543423923       13.9947466685
H         20.8060536488       35.9986494921       14.3324808532
H         21.7331752945       34.6367631233       13.6673725711
H         21.0086475027       35.8305801843       12.5765815348
H         15.8113741712       34.4451907373       16.1628171397
H         19.2372606268       33.2999794250       18.5423869330
H         15.6324019094       36.5672214157       17.4515544577
H         19.0492804083       35.4233702993       19.8248346782
    84
VM2 Rank=21     G=200.227           E=108.462           -TS=91.765              
C         21.5327183785       26.7877678632        6.0673330783
C         20.7305343466       27.8197309692        6.5962774756
C         22.3625337910       26.0250372165        6.9034029268
C         19.8468932754       28.6259913270        5.6737752541
C         20.7778040625       28.0687038353        7.9856846822
C         22.3997491482       26.2834529056        8.2813205286
C         19.0093681258       29.7663131325        6.2417681249
O         19.7905086264       28.3856832011        4.4783461069
C         21.6049119382       27.3047189549        8.8316528979
N         21.6418316629       27.5682115190       10.2288275150
C         21.5958590688       26.6279984653       11.2405470680
C         21.7654038847       28.9258285759       10.7471850805
O         21.6862173603       27.2922102592       12.4273055558
O         21.4924547856       25.4192394075       11.1228208750
C         21.7771050122       28.7326875603       12.2736930854
C         20.6218119525       29.4801734659       12.9681207686
O         20.4699460605       30.6859288368       12.8722973749
N         19.7276809544       28.6890437730       13.6568016300
C         18.3485675675       29.0991202023       13.9655103315
C         18.1727178528       29.4613789772       15.4677109853
C         17.3815725190       27.9843669006       13.4958561068
O         16.8179564099       29.8465395235       15.7077471280
C         19.1284006409       30.6110132634       15.8909247297
C         17.5304979912       27.6708447835       12.0118285437
N         19.1192670474       30.9424507743       17.3441669317
C         18.1788897663       26.4954629823       11.5894869674
C         17.0264371266       28.5645925981       11.0495989835
C         19.5100882134       29.8523249660       18.2740515550
S         17.9325572293       32.0140498739       17.9518260790
C         18.3172744473       26.2151057961       10.2197735781
C         17.1625727983       28.2844841579        9.6798642801
C         20.8684249354       29.1728397253       17.9552065497
C         17.7001249322       33.2265551443       16.6277775835
O         16.7192963344       31.2116087237       18.1557333502
O         18.6021045936       32.7213933044       19.0500179767
C         17.8065021087       27.1079193740        9.2644401232
C         22.0320345016       30.1902379766       17.9723531367
C         21.1455931129       28.0432292486       18.9693058497
C         16.5540354505       33.1793009054       15.8082650951
C         18.6864915273       34.2040887178       16.3862236204
C         16.4024448653       34.0932237895       14.7521780334
C         18.5326170361       35.1177236556       15.3299115925
C         17.3964810564       35.0539299255       14.5074931976
O         17.2509405732       35.9397558318       13.4721478554
C         17.7581512855       35.5964850786       12.1718981741
F         17.5141571412       36.5928808553       11.2949900393
F         19.0939179129       35.3960775004       12.1920900693
F         17.1755505886       34.4792941760       11.6844615249
H         21.5148201146       26.5753145724        5.0010604812
H         22.9776431849       25.2333499211        6.4824986219
H         20.1610538681       28.8481953712        8.4204861583
H         23.0483758110       25.6882613349        8.9191701458
H         19.6588513773       30.5033933533        6.7273039530
H         18.4546104564       30.2611060557        5.4360135708
H         18.2948559527       29.3767477761        6.9744357643
H         22.7007324756       29.3846436881       10.4025920949
H         20.9114414714       29.5410275254       10.4355632785
H         22.7181166444       29.1009000535       12.7004062138
H         19.9454323313       27.7003346977       13.6678967602
H         18.1130516450       30.0025898434       13.3849202939
H         18.4127093726       28.5657628544       16.0557930511
H         17.5456531814       27.0812613191       14.0970200731
H         16.3462059679       28.2909347584       13.6914473931
H         16.7187125427       30.0176630921       16.6733669913
H         20.1488186645       30.3279691455       15.6111563942
H         18.9058390582       31.4916387805       15.2773799583
H         18.5783102095       25.7984441234       12.3213567607
H         16.5267532809       29.4766963432       11.3652053831
H         19.5742254564       30.2583142313       19.2932756706
H         18.7218723962       29.0877041782       18.2933469916
H         18.8219618281       25.3066363812        9.8997597235
H         16.7642965968       28.9770795473        8.9431386638
H         20.8197126422       28.7106668391       16.9598072520
H         17.9107274153       26.8876492909        8.2050785057
H         22.9870614274       29.6962353706       17.7529019303
H         21.8854734701       30.9764831425       17.2213862181
H         22.1175835658       30.6742957050       18.9536672228
H         22.0883717680       27.5314501772       18.7368960403
H         21.2168785132       28.4362437873       19.9918021465
H         20.3452626392       27.2923454481       18.9487215967
H         15.7868498008       32.4283286695       15.9821513606
H         19.5755074818       34.2467034377       17.0115282972
H         15.5197979857       34.0508319205       14.1197067631
H         19.2966426904       35.8678217749       15.1440642849
    84
VM2 Rank=22     G=200.236           E=108.840           -TS=91.396              
C         22.4549400586       23.6585421529        6.8904351894
C         21.7741486099       24.8813043569        6.7183391315
C         22.9257196018       23.2721358957        8.1547122704
C         21.2788463109       25.2733810135        5.3461852087
C         21.5735837048       25.7084732096        7.8454162666
C         22.7200123304       24.1036472911        9.2651432426
C         20.5817668411       26.6155287615        5.1538078362
O         21.4278790767       24.5379161073        4.3834341971
C         22.0395556614       25.3255064906        9.1180575616
N         21.8299952646       26.1694974984       10.2434681349
C         21.3877245377       25.7740784504       11.4914820373
C         22.1035231132       27.6010164584       10.1868524095
O         21.3516456346       26.8799299661       12.2873909104
O         21.0778333060       24.6493034696       11.8443422113
C         21.7476517747       28.0955272730       11.5998982218
C         20.6338564518       29.1611573744       11.5841252745
O         20.7483211228       30.2198046709       10.9905567822
N         19.4675906544       28.8141380580       12.2310940051
C         18.1618422016       29.4305338874       11.9483298837
C         17.7390445161       30.4234725185       13.0669122254
C         17.1186449974       28.3097987476       11.7180078864
O         16.4796519335       31.0182341779       12.7450573953
C         18.7930849848       31.5460337265       13.2654460673
C         17.5184940238       27.3626328798       10.5929403239
N         18.3997918678       32.6400921908       14.2002449533
C         17.3989611731       27.7715277852        9.2523739800
C         18.0179443416       26.0788898061       10.8810509109
C         19.3338864781       33.8010889492       14.1932077331
S         17.8196091293       32.1295760667       15.7328417301
C         17.7684752495       26.9053566052        8.2100432507
C         18.3901925788       25.2126066373        9.8394952385
C         19.5729339181       34.4601872372       12.8078986567
C         17.8177514188       33.6062248985       16.7823729138
O         16.4145590464       31.7771478550       15.4902435845
O         18.8012188240       31.1662687898       16.2451682204
C         18.2627907822       25.6243069008        8.5034786053
C         18.2441642387       34.8823176404       12.1395112272
C         20.4932683938       35.6897742339       12.9623465262
C         18.8715801401       33.8377563461       17.6899710632
C         16.7718565904       34.5458261832       16.6786707521
C         18.8759743880       34.9949307143       18.4871172452
C         16.7785816361       35.7023251965       17.4765891033
C         17.8262793372       35.9217194653       18.3852234822
O         17.8385182925       37.0545362749       19.1564578512
C         17.1821502885       37.0495969288       20.4348720018
F         15.8594201086       36.8000855490       20.3187717919
F         17.7093324177       36.1226779063       21.2644969529
F         17.3144026480       38.2505854038       21.0361175521
H         22.6222302140       23.0030517425        6.0391191680
H         23.4509518895       22.3275060023        8.2734432904
H         21.0410205490       26.6481823332        7.7434219057
H         23.0913901890       23.7956546819       10.2393352565
H         21.2467259165       27.4310586120        5.4597537619
H         20.3172958553       26.7525771277        4.0987785620
H         19.6668787088       26.6514192011        5.7543994009
H         23.1628263063       27.7805038963        9.9637919141
H         21.4754766778       28.0884213701        9.4300358736
H         22.6265361396       28.5372082173       12.0853158567
H         19.4803126832       27.9117421826       12.6900903300
H         18.2395674148       30.0047780094       11.0140013215
H         17.6492251794       29.8514829875       14.0005734678
H         16.9681492269       27.7531187998       12.6515453178
H         16.1470248738       28.7595896790       11.4771307682
H         16.1866784189       31.4840841068       13.5635674680
H         19.7256924719       31.0892373610       13.6217209571
H         18.9963420670       31.9500515448       12.2681399988
H         17.0169373168       28.7619093299        9.0190952691
H         18.1205509752       25.7510346568       11.9120750278
H         18.9476490987       34.5990504023       14.8375055263
H         20.3017975729       33.4920263814       14.6115332284
H         17.6664160892       27.2266140971        7.1768475334
H         18.7786043696       24.2231469185       10.0687809195
H         20.0925299563       33.7517307829       12.1486247732
H         18.5474449077       24.9515366265        7.6984782502
H         18.4291100849       35.3624420338       11.1702517239
H         17.5957464886       34.0151197547       11.9598032343
H         17.6925704768       35.5910740016       12.7702106996
H         20.0320635034       36.4545572259       13.6007136223
H         21.4541449817       35.4065291088       13.4110063342
H         20.7032392936       36.1458798741       11.9863054807
H         19.6881578921       33.1241877920       17.7736960858
H         15.9587146004       34.3812097082       15.9751749900
H         19.6918105985       35.1729659696       19.1826299077
H         15.9734446293       36.4270760410       17.3899986520
    84
VM2 Rank=23     G=200.262           E=108.735           -TS=91.527              
C         22.7021160129       24.4002859280        6.3577285021
C         21.5730025940       25.2448168050        6.3483666836
C         23.5949732247       24.4094995020        7.4403648295
C         20.6275660763       25.2147424962        5.1705542433
C         21.3583779653       26.0995052389        7.4520280202
C         23.3691000338       25.2630099517        8.5300255426
C         19.4220995359       26.1480204828        5.1501132534
O         20.8091642003       24.4581339323        4.2300289460
C         22.2472510322       26.1109149489        8.5443950946
N         22.0171618930       26.9777307309        9.6484198074
C         22.1107764212       26.6427075577       10.9858838907
C         21.6700857233       28.3813763118        9.4579787199
O         21.8471652013       27.7648849156       11.7131677033
O         22.3778906499       25.5511192328       11.4578958440
C         21.5368651555       28.9213561089       10.8927790314
C         20.1347742902       29.4942789290       11.1790326315
O         19.6332967454       30.3722862446       10.4981461882
N         19.4551252805       28.9084074558       12.2249615708
C         17.9932129667       28.9661349041       12.3880416370
C         17.5935323984       29.8571008953       13.5987015445
C         17.4506702688       27.5187671706       12.4936223300
O         16.1791642453       29.8073165035       13.7980073012
C         18.0290683130       31.3352286963       13.3935430815
C         17.8640365749       26.6475388844       11.3129324456
N         18.0776254843       32.1531153631       14.6358613745
C         17.2694941305       26.8390385768       10.0525199209
C         18.8472034643       25.6526532098       11.4681374867
C         19.0168884742       31.6970899384       15.6967007965
S         16.6060538622       32.8450642203       15.1595890090
C         17.6475316170       26.0406031870        8.9602593009
C         19.2266017845       24.8539650066       10.3764413709
C         20.4706618532       31.4442164448       15.2172403235
C         17.1224240452       34.0982799771       16.3573852381
O         16.1078456491       33.5859375486       13.9946000657
O         15.8292810469       31.7675650343       15.7865787703
C         18.6243214299       25.0451380199        9.1229923601
C         21.1015618579       32.7228827508       14.6202918518
C         21.3332159755       30.9339019912       16.3904577247
C         17.7973236147       35.2558537414       15.9207810989
C         16.8808521488       33.9111153837       17.7333390872
C         18.2211925066       36.2197980881       16.8510098179
C         17.3050829282       34.8767407007       18.6619268889
C         17.9675526101       36.0329934404       18.2194134155
O         18.3894592197       36.9679165194       19.1283533853
C         17.5299210709       38.0696405809       19.4637766845
F         17.2465096930       38.8316083550       18.3846860170
F         16.3610201931       37.6487847085       19.9947592622
F         18.1228985368       38.8679333864       20.3761799064
H         22.8906064221       23.7325593516        5.5204638651
H         24.4629175168       23.7545721256        7.4342932613
H         20.4913100983       26.7511234380        7.4753708126
H         24.0688667936       25.2637498953        9.3619798842
H         19.7532389414       27.1905088222        5.2166129633
H         18.8610026916       26.0147822987        4.2177821783
H         18.7613579282       25.9245545553        5.9943911619
H         22.4674608761       28.9037984965        8.9145122272
H         20.7224061985       28.4771081480        8.9125039019
H         22.2672989404       29.7197083563       11.0724667915
H         19.9616975472       28.1806746044       12.7139097553
H         17.5523819152       29.4182911395       11.4882612317
H         18.1040781029       29.4474720285       14.4794534315
H         17.7909034820       27.0709949891       13.4357923213
H         16.3550765386       27.5423451349       12.5512857887
H         15.9793787039       30.3123343957       14.6220645619
H         19.0191447693       31.3540509378       12.9267759681
H         17.3553983030       31.7981532637       12.6601698525
H         16.5119605047       27.6071012782        9.9208933168
H         19.3201500294       25.4976980962       12.4342279984
H         19.0708969404       32.4465302677       16.4961057765
H         18.6283573202       30.7804565712       16.1602779367
H         17.1789869050       26.1910353572        7.9912307259
H         19.9885448479       24.0884661114       10.5024914661
H         20.4707244807       30.6589410664       14.4493921076
H         18.9156452963       24.4232523958        8.2804202266
H         20.5363980803       33.0775710956       13.7494057425
H         21.1245451323       33.5335874978       15.3598230236
H         22.1314760992       32.5339850655       14.2919143687
H         22.3575092978       30.7204356694       16.0587736129
H         21.3865417609       31.6766567734       17.1970219014
H         20.9188706423       30.0072927662       16.8081643625
H         17.9972345706       35.4022026074       14.8616066253
H         16.3691625122       33.0168443183       18.0819232339
H         18.7459390679       37.1088676058       16.5116612485
H         17.1211625706       34.7287534111       19.7227198837
    84
VM2 Rank=24     G=200.278           E=109.002           -TS=91.276              
C         20.9577886904       24.7461903383        5.5945461082
C         22.1013833817       25.4912756720        5.9479266463
C         19.7402622805       24.9426004503        6.2637493105
C         23.4004637839       25.2603595672        5.2122608000
C         21.9960702911       26.4391025956        6.9896891007
C         19.6507416262       25.8858947480        7.2975333000
C         24.6398961649       26.0551861515        5.6083190143
O         23.4807596926       24.4467305754        4.3056026084
C         20.7799478537       26.6370201141        7.6724528867
N         20.6911813067       27.5935024275        8.7234915850
C         21.6295837983       27.8160904767        9.7145191055
C         19.5489229855       28.4925937860        8.8424375165
O         21.1774864825       28.8406216127       10.4916339475
O         22.6796588733       27.2210316699        9.8861290873
C         19.9124678004       29.3885840237       10.0390910470
C         18.8293143388       29.3848553786       11.1350270843
O         17.6659422157       29.6699305631       10.9082541960
N         19.2457728860       28.9716602021       12.3819105949
C         18.3393579402       28.4019060740       13.3923875197
C         18.1677502568       29.3580279422       14.6065314033
C         18.8616616023       26.9990743833       13.7927933259
O         17.3708426385       28.7304360802       15.6133807575
C         17.5049297796       30.7009844207       14.1902621370
C         19.1145970919       26.0957085976       12.5904279842
N         17.6704169565       31.8115324078       15.1668943774
C         20.4256310748       25.7148212756       12.2488717932
C         18.0389641071       25.6493423519       11.8008052062
C         19.0665715667       32.2321223467       15.4657255809
S         16.5565769935       31.8729770698       16.4607696822
C         20.6576789177       24.8910610798       11.1349491346
C         18.2703646265       24.8289386327       10.6841135580
C         19.9327288927       32.5504336398       14.2186534390
C         16.7576023619       33.5466650375       17.1163184340
O         15.2371029869       31.8494557010       15.8182803353
O         16.9703981768       30.8462385322       17.4261885057
C         19.5801334781       24.4469591734       10.3529277959
C         19.3188703290       33.6941276516       13.3792673370
C         21.3641984469       32.9298529724       14.6521076664
C         16.3218164873       34.6557991027       16.3640333787
C         17.3750311555       33.7529569230       18.3664380466
C         16.5036654151       35.9589865709       16.8565927719
C         17.5555527308       35.0571700150       18.8573846508
C         17.1277322262       36.1584243457       18.0985807297
O         17.3046522164       37.4290670056       18.5805772971
C         18.4922674730       38.1596159384       18.2322761578
F         19.6099747464       37.5252903358       18.6490580011
F         18.5932100318       38.3469201753       16.8981079026
F         18.4810748410       39.3788738646       18.8107211509
H         21.0117408357       24.0098925088        4.7962209320
H         18.8657823910       24.3610253434        5.9821562860
H         22.8594410640       27.0309050024        7.2766719403
H         18.7034811246       26.0194411076        7.8122927159
H         25.4922252876       25.7546231717        4.9878430890
H         24.4593004861       27.1265514044        5.4656593031
H         24.8849800199       25.8676531948        6.6599553120
H         19.4253355809       29.0863097641        7.9279351853
H         18.6324822546       27.9233080025        9.0455392024
H         20.0509613989       30.4254575707        9.7090448641
H         20.2310673508       28.7476392709       12.4505504559
H         17.3463814343       28.2660622626       12.9410040323
H         19.1719329792       29.5566363881       15.0019612200
H         19.7792656133       27.1112972855       14.3838434372
H         18.1339562138       26.5153383263       14.4566643582
H         17.3528318602       29.3333719196       16.3944752273
H         17.9197620486       31.0196017365       13.2283497641
H         16.4389845410       30.5188054508       13.9992068820
H         21.2674019207       26.0586213967       12.8439363595
H         17.0227876911       25.9411577915       12.0521454532
H         19.0606729294       33.1355636942       16.0879965671
H         19.5647546132       31.4537165649       16.0589670151
H         21.6733156012       24.6033503168       10.8743060687
H         17.4351119115       24.4878201268       10.0777875332
H         20.0109823144       31.6534066862       13.5895852558
H         19.7607913628       23.8115020897        9.4894729431
H         19.9438479256       33.9161948837       12.5050069332
H         18.3197590080       33.4277055632       13.0125284072
H         19.2261824408       34.6130234518       13.9723374548
H         21.9979151885       33.1274606617       13.7779762356
H         21.3638505402       33.8301095875       15.2802926440
H         21.8297609014       32.1164908529       15.2234724637
H         15.8476417484       34.5048364305       15.3967691702
H         17.7169821469       32.9039768122       18.9541135087
H         16.1652487024       36.8121306368       16.2747102706
H         18.0305814734       35.2141653065       19.8221183813
    84
VM2 Rank=25     G=200.316           E=108.650           -TS=91.666              
C         21.5896555616       26.3959546683        5.9292904983
C         20.8395162034       27.4694606278        6.4562332203
C         22.3729703714       25.5920924970        6.7731399426
C         19.9697891418       28.3407544061        5.5815316012
C         20.9011310152       27.7200258914        7.8424361451
C         22.4140244167       25.8468229944        8.1522210558
C         19.9358929875       28.0971601988        4.0771303483
O         19.2886124772       29.2358923015        6.0559007890
C         21.6751308871       26.9120923494        8.6953450453
N         21.7037418174       27.1704135996       10.0921995515
C         21.5177513538       26.2426707645       11.0985001633
C         21.9454065236       28.5094339572       10.6152693558
O         21.6170467737       26.8996292095       12.2889565793
O         21.3041694533       25.0491937131       10.9731131366
C         21.8519265130       28.3245726003       12.1398931021
C         20.7344325349       29.1832406080       12.7639196125
O         20.7014170726       30.3966039278       12.6505437285
N         19.7339950638       28.4882666930       13.4089114474
C         18.3860341104       29.0317066801       13.6424054086
C         18.1720047806       29.4248722459       15.1322698415
C         17.3410094121       28.0053572207       13.1378963932
O         16.8361570330       29.8966620263       15.3174387548
C         19.1756178135       30.5198698458       15.5884945394
C         17.5673608385       27.5905417972       11.6883837462
N         19.2029443888       30.7786496800       17.0560314363
C         18.0161915769       26.2928179485       11.3802770598
C         17.3342442526       28.5057744112       10.6453382438
C         19.5793676676       29.6328426552       17.9237123783
S         18.0486530785       31.8425398578       17.7338982376
C         18.2192001514       25.9111951359       10.0437260141
C         17.5394613612       28.1258909525        9.3082829484
C         20.8991614443       28.9157534906       17.5324298728
C         17.8971306890       33.1765042324       16.5196538432
O         16.7987034038       31.0802402618       17.8531666486
O         18.7248160865       32.4254341912       18.8992172109
C         17.9758696892       26.8259394230        9.0073910115
C         22.1038591600       29.8839058287       17.5608068282
C         21.1587249470       27.7293848893       18.4844494322
C         16.7615570957       33.2614959299       15.6886225865
C         18.9314923876       34.1238657349       16.3805887531
C         16.6619722951       34.2845259016       14.7307060084
C         18.8295390359       35.1467145518       15.4226229731
C         17.6921875108       35.2300581498       14.6037761404
O         17.6004186305       36.2218307393       13.6623782801
C         16.9517108293       37.4595823556       13.9968707455
F         16.9739726627       38.3020542099       12.9427803513
F         15.6574226346       37.2724877095       14.3362264895
F         17.5656048649       38.0842209360       15.0256224993
H         21.5706648229       26.1702743715        4.8671894030
H         22.9456310084       24.7664163119        6.3576057217
H         20.3226263140       28.5388418453        8.2611073661
H         23.0196507284       25.2147537745        8.7969002714
H         20.9435030982       28.1988092226        3.6585185787
H         19.5590152206       27.0893899716        3.8694384183
H         19.2768287192       28.8279172972        3.5939958886
H         22.9432989539       28.8600839439       10.3232579119
H         21.1834441520       29.2125046111       10.2545743472
H         22.7970399526       28.6059075330       12.6202743080
H         19.8541348063       27.4831742745       13.4355687349
H         18.2662504700       29.9451435609       13.0425790492
H         18.3314233773       28.5207985109       15.7342532947
H         17.3534628154       27.1248892984       13.7925337036
H         16.3349372786       28.4335889038       13.2311315389
H         16.7011056610       30.0392728732       16.2837885607
H         20.1811414812       30.2194660937       15.2765874298
H         18.9698365369       31.4373466419       15.0246470939
H         18.2085757792       25.5775754382       12.1754486662
H         16.9930350850       29.5123187382       10.8720977551
H         19.6902665222       29.9886833367       18.9574964979
H         18.7624165569       28.8988950527       17.9348635199
H         18.5691943026       24.9080905646        9.8124421792
H         17.3605253764       28.8373643600        8.5054915393
H         20.8028945527       28.5028358393       16.5189817069
H         18.1337832705       26.5310725870        7.9730366326
H         22.2381274228       30.3162557446       18.5606270185
H         23.0307571015       29.3632404681       17.2887288252
H         21.9682139773       30.7107403458       16.8526376287
H         20.3280878909       27.0125412239       18.4536096838
H         22.0727269219       27.1922740823       18.2000663770
H         21.2752120766       28.0704653652       19.5213363561
H         15.9608199014       32.5311374590       15.7790696530
H         19.8156389529       34.0610389491       17.0110831757
H         15.7884096634       34.3424027741       14.0869308086
H         19.6312033450       35.8723336012       15.3143229111
    84
VM2 Rank=26     G=200.334           E=109.126           -TS=91.208              
C         21.1187786301       24.6658613161        5.5262025789
C         22.3252829831       25.0933120669        6.1212894737
C         19.8843445895       25.1324247156        6.0041947007
C         23.6693070117       24.6127179592        5.6268710212
C         22.2624461797       25.9943438070        7.2051780248
C         19.8383429987       26.0289018390        7.0817910829
C         23.7336554136       23.6293383593        4.4636145258
O         24.7088232586       24.9964444191        6.1393435051
C         21.0279901184       26.4619631755        7.6949070487
N         20.9843288729       27.3715406263        8.7885588107
C         21.7399949101       27.3041933958        9.9443268338
C         20.1079707416       28.5370693971        8.7758418317
O         21.4235878179       28.3867473508       10.7099428622
O         22.5487489463       26.4452336652       10.2508700081
C         20.4507421576       29.2650510552       10.0871691345
C         19.2129272576       29.5132597205       10.9706575444
O         18.2243017506       30.0998292185       10.5648225000
N         19.2665168392       28.9700049730       12.2359191187
C         18.0710625881       28.6336799897       13.0265305282
C         17.9252887884       29.5668619608       14.2617578064
C         18.1319177445       27.1318561666       13.4031375897
O         16.8212133561       29.1448489117       15.0652290403
C         17.7164904682       31.0484346101       13.8402814536
C         18.3635945425       26.2281223471       12.1968358932
N         17.9820591399       32.0484700302       14.9099303424
C         19.5761304103       25.5283461911       12.0532769726
C         17.3722783049       26.1005147913       11.2065440276
C         19.3615885450       32.0753238548       15.4681220952
S         16.7066277456       32.3653222195       16.0014506594
C         19.7919090702       24.7047078323       10.9359991786
C         17.5886860861       25.2801700640       10.0868031716
C         20.4919190368       32.1777342854       14.4102939585
C         17.2053689226       33.9046067899       16.8099937898
O         15.5642267976       32.7132562426       15.1481096428
O         16.6607784168       31.2367889575       16.9404987655
C         18.7978670715       24.5793724848        9.9531111271
C         20.3582389038       33.4617608922       13.5601211200
C         21.8697347421       32.1509451104       15.1044222569
C         17.6155035465       33.9006934367       18.1584785279
C         17.2145405200       35.1122510057       16.0836361271
C         18.0244212159       35.0953877813       18.7750595130
C         17.6243572959       36.3055512791       16.7019110243
C         18.0210636348       36.2971619830       18.0488603208
O         18.4305286659       37.4589545366       18.6495483265
C         17.4629962334       38.3031942085       19.2947165541
F         18.0652197098       39.3876765129       19.8263175851
F         16.5263625558       38.7463412162       18.4277137351
F         16.8289354642       37.6604272477       20.2998082608
H         21.1232779683       23.9725847550        4.6903602808
H         18.9606334870       24.7972330090        5.5386533497
H         23.1848261078       26.3343698348        7.6691483214
H         18.8741512221       26.3743286631        7.4441032121
H         23.2756313757       24.0729475549        3.5724062087
H         24.7777750392       23.3822535503        4.2387684910
H         23.2002931796       22.7077193543        4.7224509182
H         20.3185343525       29.1713945915        7.9055692184
H         19.0554661961       28.2250488376        8.7653980468
H         20.9092305196       30.2381962297        9.8727203120
H         20.1314061369       28.4929451162       12.4596942556
H         17.1795877389       28.7792970826       12.4002100266
H         18.8547815322       29.4815084819       14.8387849892
H         18.9210479968       26.9790403261       14.1500339974
H         17.1940739857       26.8408227235       13.8930634655
H         16.8145213314       29.7069643990       15.8763997957
H         18.3660079224       31.2709954423       12.9873936778
H         16.6923005173       31.1614349416       13.4605380186
H         20.3547243230       25.6236922997       12.8053310374
H         16.4341246347       26.6401907175       11.3043856152
H         19.4763327400       32.9340913089       16.1411561335
H         19.5257228872       31.1795463944       16.0818926868
H         20.7324038899       24.1696144815       10.8291600440
H         16.8189835261       25.1861067643        9.3249892683
H         20.4479316310       31.3063574760       13.7430838161
H         18.9665650200       23.9434758377        9.0875762704
H         20.4014187787       34.3588663677       14.1910016676
H         21.1669792249       33.5273278848       12.8212823442
H         19.4076759864       33.4805523831       13.0126274585
H         21.9970663023       31.2303837307       15.6884758417
H         22.6805390887       32.1910664059       14.3656781768
H         21.9888755309       33.0044971662       15.7843668890
H         17.6211846335       32.9725302879       18.7255220423
H         16.9099101013       35.1214425951       15.0394386893
H         18.3439179324       35.0895305184       19.8137597744
H         17.6352249432       37.2342432847       16.1376664603
    84
VM2 Rank=27     G=200.335           E=108.888           -TS=91.447              
C         21.5522262827       23.2501511171        6.3819522207
C         21.2501506845       24.6251789416        6.3024939638
C         21.9678713083       22.6765537846        7.5935654113
C         20.8047408419       25.2183216187        4.9864698583
C         21.3727725084       25.4127448649        7.4681178653
C         22.0850474119       23.4709549727        8.7435036415
C         20.5244798178       26.7143222920        4.8921591466
O         20.6672043631       24.5242151435        3.9918404001
C         21.7850300640       24.8436591620        8.6886038028
N         21.9003129864       25.6510408433        9.8538027754
C         21.4294868355       25.3413221019       11.1155468104
C         22.5832430721       26.9392955728        9.8278076593
O         21.7594104121       26.3728073964       11.9429483262
O         20.8336518929       24.3336338902       11.4554813099
C         22.3563617866       27.4967693415       11.2458523648
C         21.4346892662       28.7349102029       11.2642273840
O         21.4656017429       29.5968382187       10.4014571741
N         20.5323329624       28.7849550361       12.3046168180
C         19.3414200576       29.6457619383       12.3268446894
C         19.2856013219       30.4441830504       13.6594738535
C         18.0706579315       28.7992476631       12.0516341124
O         19.1674832052       29.5452189500       14.7670877789
C         18.1264531300       31.4768429948       13.6743271928
C         18.1590427814       27.9830103506       10.7672411617
N         18.2417050963       32.5350137784       14.7148606150
C         18.1267022286       28.6234407251        9.5149766650
C         18.2723892208       26.5814894323       10.8221297693
C         19.4382084082       33.4167819349       14.6424023314
S         17.6783154270       32.1417400417       16.2796545385
C         18.1994354731       27.8709925138        8.3306189928
C         18.3435001735       25.8278234142        9.6389034121
C         19.6579659639       34.1019182666       13.2687099851
C         17.5022364009       33.7501631695       17.0881152425
O         16.3119058014       31.6485443351       16.0697246166
O         18.7152548090       31.3139784393       16.9095406554
C         18.3019780163       26.4719943646        8.3926410883
C         18.4512811145       34.9858745489       12.8786166264
C         20.9425071630       34.9563045897       13.3041008629
C         16.4973650389       34.6444907132       16.6680656087
C         18.3851988230       34.1300561625       18.1189612770
C         16.3731450390       35.9044533385       17.2773387892
C         18.2587605407       35.3903997206       18.7274297219
C         17.2487040985       36.2726883972       18.3115506229
O         17.1346576383       37.5052739108       18.8997560625
C         16.2620111296       37.6745025626       20.0289059426
F         14.9783214861       37.3899414196       19.7182280945
F         16.6244608072       36.8855468556       21.0640725481
F         16.2977174350       38.9516479170       20.4636402103
H         21.4658288829       22.6210526435        5.4992457425
H         22.1993780026       21.6152045870        7.6408781932
H         21.1335104828       26.4704396194        7.4374149363
H         22.4095735513       23.0167622791        9.6763769256
H         21.4190492552       27.2818329796        5.1724719036
H         20.2463392248       26.9791161713        3.8653476597
H         19.7010886378       26.9856692257        5.5615312297
H         23.6535341289       26.7934850343        9.6351275684
H         22.1564885646       27.5985780194        9.0619710153
H         23.3065413840       27.7807442672       11.7142283873
H         20.5833467710       28.0351879821       12.9837121246
H         19.4306904970       30.3810946511       11.5151434381
H         20.2371338389       30.9863983121       13.7319104359
H         17.8892039163       28.1333044094       12.9049096196
H         17.1949514719       29.4560067174       11.9921721129
H         19.2280008588       30.0820074987       15.5924003298
H         18.0751146948       31.9500939638       12.6865701541
H         17.1774333139       30.9385640283       13.7969705566
H         18.0455082121       29.7055988788        9.4600632273
H         18.3069556417       26.0739239143       11.7826073188
H         19.3583173892       34.2178573411       15.3877642678
H         20.3359135736       32.8417684151       14.9061412348
H         18.1706243324       28.3725066746        7.3667259962
H         18.4321080463       24.7452176849        9.6891779189
H         19.7988485623       33.3341480275       12.4958041158
H         18.3505616607       25.8868754976        7.4780943150
H         18.2781743751       35.7699308671       13.6269983854
H         18.6205493494       35.4731810054       11.9099840019
H         17.5325478229       34.3922024548       12.7942508764
H         21.1282061732       35.4237388264       12.3284862155
H         20.8680744804       35.7552475912       14.0532797403
H         21.8171037908       34.3401857255       13.5496650837
H         15.8190748816       34.3628246596       15.8656946388
H         19.1701758252       33.4510853875       18.4443539773
H         15.6005362309       36.5938861276       16.9476121014
H         18.9428596232       35.6828988148       19.5195552562
    84
VM2 Rank=28     G=200.344           E=109.917           -TS=90.426              
C         21.9807353634       22.9710176296        6.6858315460
C         21.8036373112       24.3603863009        6.5102882264
C         22.0844895203       22.4234432087        7.9744867465
C         21.6725253909       24.9804928544        5.1395082124
C         21.7396861774       25.1831905556        7.6538165679
C         22.0084875025       23.2541617337        9.1024435837
C         21.7887552247       24.0979065417        3.9020336085
O         21.4713239355       26.1766385397        5.0016861083
C         21.8318851197       24.6405223692        8.9488582921
N         21.7461548986       25.4858038576       10.0888590594
C         20.9741042944       25.2650656378       11.2127223470
C         22.5119479182       26.7227333042       10.1842830937
O         21.1996469325       26.2934603421       12.0775058099
O         20.2223089387       24.3280120904       11.4193471038
C         22.0818955010       27.3131386694       11.5408085079
C         21.3745374470       28.6782719423       11.4112621141
O         21.7273051286       29.5340012017       10.6167180307
N         20.2777960331       28.8540824069       12.2271463604
C         19.2421923854       29.8750007808       12.0149012263
C         18.9536666563       30.6121802223       13.3534717568
C         17.9893530099       29.2232233311       11.3699227113
O         18.4119836359       29.7102075799       14.3247043520
C         18.0120099332       31.8343814907       13.1856183221
C         18.3050228005       28.4425420307       10.0991873694
N         17.6672601956       32.5245679475       14.4552194320
C         18.6652941952       29.1224690947        8.9214740192
C         18.2419985402       27.0365258049       10.0924782851
C         16.4914586509       33.4193900818       14.3389015249
S         18.9411078254       32.9154781341       15.5362868589
C         18.9533525976       28.4057473459        7.7480358637
C         18.5270899191       26.3187494466        8.9189608683
C         15.3648027308       33.0384198169       15.3305023268
C         18.3068347045       34.1920668650       16.6580938762
O         19.1600094594       31.6848739264       16.3072298466
O         19.9806432032       33.5257363722       14.6990484188
C         18.8779658668       27.0040229590        7.7449124253
C         14.2681245339       34.1231780397       15.3393647356
C         14.7536899995       31.6628025031       14.9821785337
C         17.7596628321       33.8347136588       17.9077995743
C         18.3747918629       35.5538321179       16.2973799608
C         17.2638576716       34.8243367176       18.7731933547
C         17.8786883683       36.5420400146       17.1641889813
C         17.3276909787       36.1768232561       18.4025498766
O         16.8346946638       37.1410870614       19.2423806913
C         17.6970948454       37.7316493380       20.2285583577
F         18.1705636453       36.8109786683       21.0966335787
F         18.7550184820       38.3519654032       19.6616621942
F         17.0258531688       38.6556808050       20.9475553588
H         22.0362121123       22.3030549039        5.8313624390
H         22.2201815055       21.3517963349        8.0991807842
H         21.6027073802       26.2537224219        7.5307016535
H         22.0870676589       22.8176808816       10.0950228279
H         20.9942182818       23.3432646847        3.9043848450
H         21.6943519335       24.7082189023        2.9962766002
H         22.7628337553       23.5960255717        3.8901541199
H         23.5875791990       26.5063731711       10.1754502665
H         22.2623160081       27.3990799831        9.3568496808
H         22.9496868159       27.4483516711       12.1977317187
H         20.0641479656       28.0950850871       12.8631190271
H         19.6303948023       30.6233687912       11.3099708931
H         19.9238417621       30.9813263489       13.7135049474
H         17.5075352169       28.5634639616       12.1027497191
H         17.2503784029       29.9954728405       11.1293324609
H         18.4636066921       30.1804973344       15.1893544356
H         18.4840335583       32.5482389151       12.4974491655
H         17.0852272506       31.4878684670       12.7134719118
H         18.7253786270       30.2073750455        8.9170381521
H         17.9732599181       26.4982741471       10.9976926367
H         16.7868496498       34.4650503237       14.4866377030
H         16.0712403312       33.3694859925       13.3250940100
H         19.2328276616       28.9362602352        6.8412351730
H         18.4778700982       25.2325149992        8.9207738623
H         15.7783343080       32.9739957097       16.3436218690
H         19.0975488871       26.4503878842        6.8351129378
H         13.4750862170       33.8715839546       16.0552183000
H         14.6830906317       35.0967175026       15.6312574429
H         13.8087744711       34.2313152937       14.3482981661
H         15.5139809202       30.8717038892       15.0207758740
H         13.9610048202       31.3956995187       15.6924819776
H         14.3194927806       31.6657540236       13.9743193420
H         17.7090959442       32.7891335835       18.2031928433
H         18.8048874947       35.8441464801       15.3414355475
H         16.8317944120       34.5429588503       19.7298061939
H         17.9229140914       37.5892195618       16.8770723297
    84
VM2 Rank=29     G=200.350           E=108.401           -TS=91.949              
C         21.4214107001       26.1622255541        5.8496279310
C         20.6439820297       27.2348836145        6.3325693276
C         22.2691648102       25.4473728085        6.7096614852
C         19.7397463808       27.9877108475        5.3851719342
C         20.7348507817       27.5741123510        7.7005410997
C         22.3493113997       25.7950675495        8.0659492866
C         18.9234907431       29.1668889118        5.9025889335
O         19.6494868853       27.6730876133        4.2092147621
C         21.5798781274       26.8584695172        8.5707500509
N         21.6606744254       27.2128106423        9.9458830857
C         21.6400183547       26.3415531902       11.0183849775
C         21.8082793622       28.6004868599       10.3696423733
O         21.7733109559       27.0813271396       12.1553473270
O         21.5236998310       25.1287194175       10.9838598174
C         21.8750774693       28.5072639785       11.9041032549
C         20.7566808134       29.3148334307       12.5916670011
O         20.6045732799       30.5106168659       12.4099715244
N         19.8953398327       28.5857092598       13.3826618641
C         18.5366113115       29.0288181589       13.7342987846
C         18.4407410913       29.4528272342       15.2275305667
C         17.5372179002       27.9066625882       13.3582147513
O         17.0949739322       29.8160014535       15.5409182211
C         19.3849050663       30.6454290074       15.5451849258
C         17.6314365756       27.5057835062       11.8906438158
N         19.5584922446       30.9425844471       16.9952823024
C         18.2352246226       26.2904570247       11.5180276585
C         17.1211409394       28.3567757607       10.8935814894
C         20.1402661757       29.8586380441       17.8285162607
S         18.3928042814       31.9097170495       17.7886664003
C         18.3224542214       25.9279534895       10.1635014062
C         17.2066907583       27.9948772975        9.5389561659
C         21.4652364904       29.2537530386       17.2920092468
C         17.9877360306       33.2019724986       16.5875746349
O         17.2387752264       31.0402911181       18.0534054345
O         19.1366027348       32.5732264765       18.8663869964
C         17.8052991683       26.7784210581        9.1736533460
C         22.5700058869       30.3269785413       17.1613000047
C         21.9443527630       28.1203102066       18.2230946103
C         18.9112285306       34.2336526093       16.3239133385
C         16.7629998721       33.1715236406       15.8901189325
C         18.6114584795       35.2256411134       15.3750157473
C         16.4655495591       34.1639246461       14.9410164551
C         17.3864084783       35.1936841075       14.6899443308
O         17.1008791958       36.1556971181       13.7565388504
C         16.3953836971       37.3426407986       14.1542604387
F         17.0737736502       38.0369528298       15.0939870101
F         16.2196422500       38.1619851704       13.0963607809
F         15.1717326839       37.0566804152       14.6505010574
H         21.3700141025       25.8804340129        4.8006525071
H         22.8648133593       24.6234541304        6.3241060469
H         20.1386098314       28.3874248747        8.1005688662
H         23.0115388590       25.2362176408        8.7224265666
H         18.3477797337       29.6124055299        5.0828990661
H         18.2287032482       28.8291142357        6.6787208460
H         19.5896056657       29.9297222735        6.3211985546
H         22.7317368337       29.0306834209        9.9619002795
H         20.9452351291       29.1985643182       10.0497908718
H         22.8362713183       28.8883009214       12.2703004257
H         20.1094640265       27.5988894901       13.4570684001
H         18.2841362267       29.9102867081       13.1277904912
H         18.7403785052       28.5868317616       15.8319682965
H         17.7069121287       27.0361064300       14.0041765614
H         16.5138896907       28.2418991705       13.5694734021
H         17.0474786940       29.9713143404       16.5136396982
H         20.3706885785       30.4310134716       15.1196552534
H         19.0292487258       31.5259383334       14.9972033062
H         18.6393383453       25.6257197945       12.2768601925
H         16.6558424937       29.2991121203       11.1704369724
H         20.3393926102       30.2498992486       18.8359237515
H         19.4022634409       29.0542914567       17.9492227054
H         18.7924679034       24.9886746051        9.8819354845
H         16.8041725018       28.6551658622        8.7753341304
H         21.2884038396       28.8079964643       16.3036643077
H         17.8696187563       26.4945215078        8.1263452508
H         23.5022775630       29.8852850455       16.7870903026
H         22.2754642136       31.1201079449       16.4629266108
H         22.7813013858       30.7947541786       18.1314199455
H         22.8640848363       27.6607698886       17.8388068434
H         22.1505801475       28.4968432170       19.2334072918
H         21.1858937144       27.3308945711       18.3026947508
H         19.8625778323       34.2604044189       16.8506119490
H         16.0458389033       32.3756264787       16.0772162592
H         19.3279302085       36.0166325863       15.1702585423
H         15.5235034154       34.1331411121       14.4001733522
    84
VM2 Rank=30     G=200.360           E=109.223           -TS=91.138              
C         22.0575363765       24.7481689353        5.8455511846
C         22.6050605738       24.1945807667        7.0209770023
C         21.3301593913       25.9472203938        5.8901864934
C         23.3833015488       22.9019734633        6.9460621883
C         22.4059665231       24.8718453678        8.2442524003
C         21.1387414869       26.6079579610        7.1121936360
C         23.9589466254       22.2964373651        8.2215058372
O         23.5603276625       22.3280895238        5.8831440993
C         21.6702985387       26.0718044695        8.2995282749
N         21.4737395992       26.7397445193        9.5414601782
C         21.1680678957       26.1486262482       10.7536091438
C         21.6078774754       28.1873980867        9.6590413700
O         21.0998061805       27.1357258079       11.6911986641
O         20.9879019038       24.9633127008       10.9743885569
C         21.3926363830       28.4535096282       11.1588809555
C         20.2683947444       29.4738996501       11.4219264090
O         20.3035923047       30.6132029957       10.9894537435
N         19.1781805224       28.9945639279       12.1150070851
C         17.8287962363       29.5687130512       11.9948546901
C         17.4376775576       30.3958244828       13.2508773053
C         16.8236540301       28.4306228200       11.6908472095
O         16.1289875830       30.9469130105       13.0868466069
C         18.4444972558       31.5477877463       13.5143687726
C         17.2364631870       27.5870188211       10.4897553594
N         18.0647344333       32.4984685913       14.5994254940
C         17.2174142927       28.1402407502        9.1962437211
C         17.6572891131       26.2555487163       10.6645910279
C         18.9350886726       33.7059477265       14.6716462236
S         17.6239212086       31.7775148824       16.0935341634
C         17.6120173571       27.3707910519        8.0890833155
C         18.0485275449       25.4842312045        9.5576617074
C         19.0356197687       34.5384900935       13.3650793754
C         17.6219621046       33.1197726048       17.3100687888
O         16.2251637889       31.3720729206       15.9028292274
O         18.6888327497       30.8219374751       16.4203372148
C         18.0253687872       26.0412578707        8.2695948368
C         17.6405622235       34.9559429668       12.8453854112
C         19.8996381822       35.7945300415       13.6073752694
C         16.5228196998       33.9988791972       17.3908152978
C         18.7260881662       33.3079934772       18.1664226122
C         16.5302972688       35.0571232158       18.3150089049
C         18.7312237481       34.3669609422       19.0899807709
C         17.6378100950       35.2450744781       19.1573130799
O         17.6450569174       36.2763604396       20.0598188478
C         18.1513355694       37.5614122450       19.6626174313
F         19.4454814051       37.4930134556       19.2807069229
F         17.4426392133       38.0850262521       18.6384782669
F         18.0794961039       38.4334676582       20.6900649225
H         22.1958754665       24.2466942298        4.8906962338
H         20.9120939974       26.3631810999        4.9767214234
H         22.8224804993       24.4708918593        9.1628172556
H         20.5644974198       27.5298772990        7.1318190283
H         24.6730080459       22.9916410175        8.6771362639
H         23.1529185879       22.0886076332        8.9344585108
H         24.4770443496       21.3583303732        7.9905927480
H         22.6065816411       28.5114996330        9.3402259842
H         20.8410089744       28.6942915916        9.0589509071
H         22.3124238424       28.8445133141       11.6108781387
H         19.2563902154       28.0331802804       12.4237826556
H         17.8166253047       30.2551253381       11.1362230658
H         17.4454811146       29.7135592432       14.1119324427
H         16.7128421695       27.7982359912       12.5806902397
H         15.8320827175       28.8618734058       11.5030951222
H         15.8721961087       31.2949111305       13.9732753021
H         19.4227441966       31.1081917219       13.7494311010
H         18.5537305499       32.0782084810       12.5625965515
H         16.8983928729       29.1687598831        9.0499921423
H         17.6850538790       25.8168347883       11.6583974730
H         18.5579005385       34.3974174618       15.4335183275
H         19.9461245314       33.4078849624       14.9820344911
H         17.5959392133       27.8041478930        7.0922940764
H         18.3768574686       24.4574821210        9.6998476265
H         19.5406472558       33.9463191323       12.5899468616
H         18.3321321714       25.4449006608        7.4138475855
H         17.0265738045       34.0786098267       12.6043839284
H         17.1013973677       35.5496127321       13.5945385290
H         17.7275028189       35.5585882681       11.9324516180
H         19.4479883976       36.4484885533       14.3646591580
H         20.9046506395       35.5187070615       13.9518738455
H         20.0124673992       36.3755121719       12.6829807131
H         15.6666690933       33.8634058613       16.7336610604
H         19.5802638760       32.6367526314       18.1134024918
H         15.6807818799       35.7321925819       18.3751772986
H         19.5832372434       34.5091648212       19.7494366064
