    82
VM2 Rank=1      G=199.634           E=107.942           -TS=91.692              
C         20.2513088413       28.3095514844        6.3145625840
C         20.4694257880       26.9561631180        6.6509238433
C         19.9479037341       28.7400528747        4.8988230602
C         20.3217345451       29.2756194183        7.3389176922
C         20.7455248991       26.5827851091        7.9769004106
O         19.7607311960       29.9134112674        4.6181864362
C         19.8715797623       27.6907543096        3.7954363465
C         20.5995845326       28.9017147731        8.6637261320
C         20.8070976035       27.5505466770        8.9960672646
N         21.0811288704       27.1710483475       10.3403666032
C         22.0147325139       27.9242314587       11.1710648224
C         20.5564729600       26.0806909527       11.0094439239
C         22.0105103340       27.1637771001       12.5083798625
O         19.7653927198       25.2579839806       10.5816463241
O         21.0992824763       26.0618475381       12.2601217802
C         21.5608310489       28.0569243634       13.6807834249
N         20.2919299690       27.8170735872       14.1588926276
O         22.2382864912       28.9768681415       14.1070139425
C         19.4726857558       28.8633095691       14.7832030658
C         17.9930868870       28.6669169367       14.3659353186
C         19.7013329065       28.8918912179       16.3216813938
C         17.8210356948       28.6362603108       12.8522383310
C         18.9720756282       30.0553842641       17.0341749489
O         19.2798686409       27.6592159488       16.9021116212
C         18.0484722016       29.7969556953       12.0906954666
C         17.4542194596       27.4446949475       12.2002019576
N         19.2884132204       31.4040435993       16.4918311197
C         17.9030255320       29.7703505221       10.6942022534
C         17.3105182229       27.4164381782       10.8031241805
C         20.7233610362       31.7855633795       16.5182090084
S         18.1566610273       32.6292908760       16.8663508890
C         17.5333513871       28.5794650122       10.0496542736
C         21.2580971702       31.9557514307       17.9162408317
C         16.6969698393       32.0812528783       15.9550216778
O         17.9558568107       32.6101121073       18.3196707876
O         18.6491764877       33.8319188120       16.1831720436
S         22.0527625184       30.6932169277       18.8453560557
C         21.2055909159       33.1438629081       18.5988686915
C         16.6374759173       32.2500831617       14.5581677506
C         15.6362937649       31.4390153035       16.6228149566
C         22.2855276423       31.8092625874       20.1879861107
C         21.7874491348       33.0558118528       19.8962717319
C         15.5413281374       31.7665715727       13.8285651016
C         14.5328088065       30.9623946748       15.8967194515
O         15.5516337366       31.9405764249       12.4617178927
C         14.4855023008       31.1212205713       14.5015074823
C         14.7579609314       31.1341238278       11.5700485253
H         20.4272109092       26.1800444383        5.8926297026
H         20.1572398307       30.3254298172        7.1086539566
H         20.9120576156       25.5338441250        8.2083848694
H         20.8307390218       27.1679547308        3.7088829671
H         19.0839398314       26.9639167456        4.0237945073
H         19.6426831586       28.1707042017        2.8367874754
H         20.6362744921       29.6685306579        9.4320876501
H         21.6692772337       28.9572079656       11.3064703386
H         23.0157574151       27.9219726743       10.7215852295
H         23.0139396898       26.7853853602       12.7389243745
H         19.8099750989       27.0366914757       13.7294801435
H         19.8031659505       29.8314143008       14.3812546456
H         17.6038181256       27.7422899019       14.8105489491
H         17.3796874234       29.4761788228       14.7747361098
H         20.7795869178       29.0060797888       16.4953152818
H         17.8953036402       29.8616994106       16.9641919440
H         19.2193270920       30.0210786717       18.1034436992
H         19.7089797703       26.9596416126       16.3652245644
H         18.3334445164       30.7230135230       12.5813265583
H         17.2834012946       26.5375408825       12.7735265998
H         18.0757363773       30.6722590255       10.1127903527
H         17.0343471626       26.4907745577       10.3043155060
H         21.3315436575       31.0350216412       15.9981046521
H         20.8724341400       32.7231843811       15.9663293763
H         17.4270013437       28.5559034538        8.9680115038
H         20.7651962101       34.0534727078       18.2044677607
H         17.4531487479       32.7392526874       14.0326686733
H         15.6729001060       31.3005836622       17.7011001408
H         22.7742666833       31.4717426583       21.0930137642
H         21.8304306560       33.8950726927       20.5824352630
H         13.7162716290       30.4642454793       16.4140697685
H         13.6266882572       30.7448323436       13.9549605579
H         14.9778352483       30.0683407040       11.7174306241
H         13.6868336904       31.3046956369       11.7357069774
H         14.9883589689       31.3905816528       10.5284598018
    82
VM2 Rank=2      G=199.686           E=107.993           -TS=91.693              
C         20.2462424321       28.2874560293        6.3286533553
C         20.4658956430       26.9362476236        6.6662523071
C         19.9417757011       28.6622054071        4.8973807448
C         20.3190132582       29.2563722965        7.3523461071
C         20.7459724095       26.5607360690        7.9903941641
O         19.8854635309       27.8173114757        4.0178553164
C         19.6991726131       30.1243173034        4.5399829128
C         20.6012106816       28.8801471288        8.6759569880
C         20.8101778065       27.5290589976        9.0085162661
N         21.0876864858       27.1504174703       10.3522575539
C         22.0260358876       27.9020143816       11.1790407539
C         20.5619724124       26.0624325809       11.0243099850
C         22.0181695039       27.1475051820       12.5196891818
O         19.7681054907       25.2407814395       10.5997013283
O         21.1074641710       26.0445885158       12.2738502744
C         21.5644947898       28.0463321877       13.6862358927
N         20.2927543205       27.8111508246       14.1591932075
O         22.2418968525       28.9664685992       14.1121290638
C         19.4738888342       28.8604495020       14.7788764421
C         17.9943042615       28.6633345357       14.3618941261
C         19.7015606975       28.8945123133       16.3174411638
C         17.8222121140       28.6282742457       12.8483193868
C         18.9723763434       30.0607861140       17.0254464800
O         19.2792850909       27.6640754509       16.9020257749
C         18.0455921506       29.7878076120       12.0838308974
C         17.4586282058       27.4340245140       12.1994096392
N         19.2890998133       31.4074037020       16.4782834401
C         17.8988617163       29.7575322992       10.6875378158
C         17.3139430960       27.4020067329       10.8025216245
C         20.7241855471       31.7885314267       16.5032416726
S         18.1578714439       32.6343521019       16.8488369337
C         17.5322715929       28.5639825068       10.0461300187
C         21.2590701871       31.9635259759       17.9006264439
C         16.6975913846       32.0836701413       15.9400231334
O         17.9575651499       32.6203285131       18.3022826295
O         18.6505762183       33.8343975084       16.1612655411
S         22.0531512585       30.7039847160       18.8342936710
C         21.2072182187       33.1541450443       18.5789216075
C         16.6371025713       32.2485874839       14.5427463645
C         15.6373429981       31.4433809983       16.6103642415
C         22.2865295925       31.8247863108       20.1728493221
C         21.7890821712       33.0705210429       19.8766151047
C         15.5404072710       31.7631090691       13.8152721672
C         14.5333317785       30.9647610142       15.8863885723
O         15.5497328784       31.9333642050       12.4479339137
C         14.4850417136       31.1196743957       14.4907711807
C         14.7546717106       31.1251470117       11.5591052887
H         20.4184717632       26.1689715104        5.8973082613
H         20.1558658764       30.3080139009        7.1367211857
H         20.9129880488       25.5116491838        8.2206847754
H         18.8410215368       30.5097207262        5.1020101780
H         20.5859696886       30.7209914479        4.7815784350
H         19.4908487771       30.2186404465        3.4678563644
H         20.6399092689       29.6462434017        9.4450090638
H         21.6872720308       28.9377552522       11.3099994901
H         23.0267347697       27.8914294959       10.7289571814
H         23.0209320802       26.7704947465       12.7553365833
H         19.8107480763       27.0302518148       13.7308228727
H         19.8052818970       29.8267406015       14.3733234233
H         17.6045555143       27.7402159764       14.8092185465
H         17.3811364885       29.4740587964       14.7681740983
H         20.7797396823       29.0089170087       16.4913865251
H         17.8955866824       29.8670565125       16.9559534419
H         19.2193873582       30.0303386696       18.0948882548
H         19.7080537809       26.9624335023       16.3675678912
H         18.3281364687       30.7158609749       12.5720744858
H         17.2909393890       26.5277342994       12.7750213689
H         18.0681171338       30.6586924364       10.1040062406
H         17.0402808300       26.4742923652       10.3061397152
H         21.3321064660       31.0359431068       15.9857927788
H         20.8735317269       32.7241369738       15.9480260114
H         17.4248207167       28.5373811997        8.9647058132
H         20.7672724451       34.0625369580       18.1812286207
H         17.4523858310       32.7363129416       14.0153076580
H         15.6746854429       31.3080077223       17.6890128847
H         22.7751275543       31.4903118619       21.0790834191
H         21.8325221368       33.9122532195       20.5597157883
H         13.7171350215       30.4681104544       16.4057145286
H         13.6258190723       30.7417857299       13.9459049073
H         14.9738970118       30.0595948134       11.7091037124
H         13.6838199084       31.2969420350       11.7252893306
H         14.9843011538       31.3786981163       10.5166399971
    82
VM2 Rank=3      G=199.775           E=107.657           -TS=92.118              
C         20.2072163778       29.0255659406        6.9616098948
C         20.6296330625       27.6820892279        7.0296311078
C         19.8238427351       29.6240372895        5.6287619343
C         20.1559466846       29.7752692604        8.1562708944
C         20.9865020639       27.1001421680        8.2571674309
O         19.8767216486       28.9692001737        4.5997218214
C         19.3606099814       31.0750931054        5.5633555914
C         20.5150696182       29.1931507564        9.3830860372
C         20.9263935550       27.8489120023        9.4463269691
N         21.2790835832       27.2596864873       10.6932595326
C         22.1026142567       27.9692092861       11.6663431257
C         20.9325846783       25.9950634061       11.1327405320
C         22.2220142531       26.9779113657       12.8364122225
O         20.2745220192       25.1577406643       10.5400116904
O         21.4807711057       25.8214888385       12.3692094449
C         21.6567959928       27.5639855042       14.1438527316
N         20.4284629975       27.0793899655       14.5367755649
O         22.2050144199       28.4704130414       14.7475803935
C         19.4682155492       27.9091645860       15.2749379630
C         18.0267615153       27.5633797224       14.8265815210
C         19.6999552076       27.7928402221       16.8098913323
C         17.8446692143       27.6992208373       13.3193142074
C         18.8235649329       28.7600415714       17.6464081797
O         19.4590859162       26.4543930234       17.2401702981
C         17.8813019065       28.9677622501       12.7118747661
C         17.6565256918       26.5577412175       12.5184294587
N         18.8076213271       30.1652376561       17.1514351248
C         17.7207130189       29.0966339267       11.3231578246
C         17.5003548066       26.6850199697       11.1280451074
C         20.1485227941       30.8091949598       17.1314628657
S         17.5128885283       31.1432124144       17.7148097296
C         17.5319026115       27.9543677736       10.5296469498
C         20.2391791515       31.9537894515       16.1595912613
C         17.1123793432       32.2342672986       16.3336592938
O         16.3673325129       30.2315085782       17.8250115366
O         17.9794784318       31.8637144210       18.9056752901
S         20.1586590889       31.7899581522       14.4111986141
C         20.4602029565       33.2496501712       16.5484780426
C         16.6846745608       31.6804091411       15.1128353730
C         17.2289495522       33.6317510888       16.4594103560
C         20.3763518100       33.5275049350       14.2264745977
C         20.5305663168       34.1462921799       15.4433149266
C         16.4140600360       32.5047228021       14.0111286343
C         16.9465651146       34.4625616771       15.3628342976
O         16.0317230527       31.8942550335       12.8354618772
C         16.5466746645       33.9019269625       14.1379029868
C         15.8633213539       32.6071294936       11.5957406647
H         20.6811521007       27.0817921097        6.1245239112
H         19.8360219414       30.8128798029        8.1496494746
H         21.3100142340       26.0626679433        8.2785870344
H         19.1199275340       31.3455255605        4.5286137831
H         18.4658721594       31.2107160970        6.1813237168
H         20.1538195524       31.7381680788        5.9266035448
H         20.4547545410       29.7914757798       10.2876609270
H         21.6141384050       28.8980459122       11.9880865914
H         23.0888299851       28.1950405662       11.2415252530
H         23.2722169173       26.7141264953       13.0116858056
H         20.0570110468       26.3308861833       13.9644829762
H         19.6546714442       28.9528030439       14.9898430412
H         17.7745703599       26.5453604744       15.1494435864
H         17.3139403775       28.2242884003       15.3337079034
H         20.7539272593       28.0309595904       17.0037226612
H         17.8080417700       28.3448969552       17.6408775023
H         19.1663594869       28.7367366846       18.6891525251
H         19.9687844377       25.8885960898       16.6216977033
H         18.0356323539       29.8569919107       13.3140648283
H         17.6339378800       25.5698836540       12.9706451694
H         17.7462813625       30.0810171275       10.8632601264
H         17.3633791017       25.7985792660       10.5137116577
H         20.4116623434       31.1566993641       18.1399140978
H         20.9264020252       30.0975347347       16.8338025506
H         17.4170748604       28.0518094235        9.4530390611
H         20.5606863860       33.5674993815       17.5806784261
H         16.5748847865       30.6047732863       15.0145116894
H         17.5527868170       34.0708937975       17.4000519148
H         20.3825122881       33.9690572151       13.2383819426
H         20.6869622744       35.2135633229       15.5578024597
H         17.0475559588       35.5408323939       15.4588676927
H         16.3410685792       34.5592290436       13.2991955763
H         15.5848543935       31.9084235737       10.7968275332
H         15.0694655228       33.3596580078       11.6855626830
H         16.7973086880       33.1064412664       11.3073346794
    82
VM2 Rank=4      G=199.784           E=108.972           -TS=90.813              
C         21.0629072827       28.4972403987        6.1940261043
C         19.8763852701       28.4361793170        6.9565520154
C         21.0676901229       28.9922764940        4.7668339530
C         22.2696715209       28.0814675505        6.7940940673
C         19.9009433244       27.9713248236        8.2818757135
O         22.0990229315       29.0414096437        4.1152435021
C         19.7602849585       29.4413328819        4.1238478392
C         22.2930132392       27.6172717317        8.1197879539
C         21.1071667966       27.5573761077        8.8730617565
N         21.1277166252       27.0985824886       10.2182242839
C         22.1079304173       27.5948098164       11.1765514580
C         20.2497181056       26.1974514130       10.7892171072
C         21.6960016857       26.9213297034       12.4980414391
O         19.3563201595       25.5843267183       10.2311844897
O         20.5981553978       26.0577899552       12.1000859175
C         21.2855156477       27.9399834303       13.5805767988
N         20.0475058293       27.7392639398       14.1496920064
O         21.9748052698       28.9001890992       13.8819513279
C         19.2918190075       28.8114711857       14.8102136283
C         17.7746857460       28.5648928172       14.6113398660
C         19.7166793725       28.9405832654       16.3021107280
C         17.3937745747       28.4393230263       13.1416044055
C         19.0631154939       30.1383379516       17.0311759350
O         19.3996651968       27.7423279057       17.0077226656
C         17.5114914534       29.5467402729       12.2818860361
C         16.9311331802       27.2138036306       12.6283557820
N         19.2763188589       31.4526689084       16.3677673985
C         17.1611648320       29.4345030234       10.9264736706
C         16.5793207917       27.1005238435       11.2732507222
C         20.6937176889       31.8534198571       16.1786723759
S         18.1777930684       32.6853525535       16.8102845051
C         16.6893943293       28.2120304867       10.4229821908
C         21.4048408008       32.1211966896       17.4794112163
C         16.6212315694       32.0562877049       16.1446313560
O         18.1748425115       32.7640867209       18.2754099650
O         18.5462490086       33.8440819291       15.9873724270
S         22.3425790148       30.9322636028       18.3714922877
C         21.4176132661       33.3504559050       18.0869391912
C         16.3713514013       32.1241132989       14.7603355126
C         15.6736788336       31.4508959851       16.9926339484
C         22.7268899580       32.1362624945       19.5983143918
C         22.1678467574       33.3546063784       19.2980135293
C         15.1977066931       31.5769112994       14.2210659619
C         14.4931527122       30.9106933840       16.4573311536
O         15.0204825449       31.6532114398       12.8567425633
C         14.2556797664       30.9689594532       15.0737708483
C         14.1310269831       30.7763894739       12.1388480043
H         18.9255062281       28.7469854915        6.5341603966
H         23.1982141909       28.1174005127        6.2294064239
H         18.9768628955       27.9349477588        8.8511239282
H         19.0451726266       28.6111287709        4.1101715711
H         19.3323595042       30.2766944657        4.6894124923
H         19.9421253212       29.7683257485        3.0934271609
H         23.2363670169       27.2991517424        8.5552137290
H         22.0555110964       28.6896033915       11.2443422494
H         23.1211556541       27.2880452322       10.8895263519
H         22.5224047571       26.3233377616       12.9011182717
H         19.5340247741       26.9376083358       13.8026341460
H         19.5446730058       29.7559915992       14.3084480869
H         17.4731687575       27.6629506390       15.1587576376
H         17.2026388167       29.3868593762       15.0532267262
H         20.8055868455       29.0793512139       16.3276642233
H         17.9909926167       29.9267187222       17.1180172741
H         19.4504087822       30.1768676916       18.0578993575
H         19.7603410909       27.0145523813       16.4581822974
H         17.8678631997       30.4984129479       12.6651966121
H         16.8422733804       26.3474657933       13.2782092077
H         17.2488178348       30.2963553557       10.2699405043
H         16.2251768254       26.1502626813       10.8816937371
H         21.2437859644       31.0783109328       15.6306326340
H         20.7485371822       32.7548480992       15.5538965477
H         16.4143065383       28.1240895238        9.3750498313
H         20.9093760214       34.2266471956       17.6985187104
H         17.0985658913       32.5839884936       14.0966902816
H         15.8575470049       31.3902775040       18.0630177940
H         23.3382773279       31.8647452722       20.4493977967
H         22.2831900924       34.2372365613       19.9182433578
H         13.7641893514       30.4412399822       17.1136610478
H         13.3394212262       30.5445456036       14.6759229554
H         14.3911137735       29.7264008090       12.3281261834
H         13.0886152964       30.9460467674       12.4362520732
H         14.2136580104       30.9607316155       11.0604501944
    82
VM2 Rank=5      G=199.796           E=107.673           -TS=92.123              
C         20.2078401113       29.0405571741        6.9535518691
C         20.6249508313       27.6937477238        7.0206176078
C         19.8185366278       29.6904006975        5.6467335365
C         20.1579170756       29.7881003914        8.1477271944
C         20.9767893871       27.1127917835        8.2505008819
O         19.4586778191       30.8560838759        5.5996588195
C         19.8732818258       28.8768894059        4.3585250424
C         20.5115634290       29.2072079277        9.3763047007
C         20.9173691319       27.8615060315        9.4400356696
N         21.2657699709       27.2706708809       10.6875226911
C         22.0868011203       27.9786437935       11.6638522112
C         20.9173354373       26.0057353196       11.1246747843
C         22.2076603085       26.9835521453       12.8305558758
O         20.2597195377       25.1697773762       10.5294993133
O         21.4629543024       25.8299454218       12.3619555773
C         21.6481163804       27.5663124162       14.1418777803
N         20.4209964386       27.0814253165       14.5381021989
O         22.1992169259       28.4707345821       14.7459878219
C         19.4630297972       27.9111883437       15.2791944547
C         18.0205535909       27.5691728732       14.8312160740
C         19.6961342211       27.7911957677       16.8136166960
C         17.8383139756       27.7071239703       13.3241378553
C         18.8224634713       28.7584947168       17.6528566466
O         19.4529871927       26.4523588786       17.2413813585
C         17.8818669649       28.9758604605       12.7175332472
C         17.6439741631       26.5672027423       12.5224945657
N         18.8094131984       30.1647212222       17.1607399438
C         17.7224681350       29.1064284820       11.3288368853
C         17.4886548497       26.6962106972       11.1321714743
C         20.1516428277       30.8059144934       17.1420455350
S         17.5165653961       31.1444489128       17.7253868238
C         17.5275457809       27.9657357913       10.5345735461
C         20.2444716534       31.9525869577       16.1728421196
C         17.1176552876       32.2372431191       16.3451388423
O         16.3694433959       30.2346803660       17.8352999763
O         17.9847394619       31.8631472540       18.9167234407
S         20.1641713982       31.7928799756       14.4240653761
C         20.4673021131       33.2472181048       16.5647786051
C         16.6892621422       31.6850201270       15.1238085889
C         17.2361988016       33.6344570436       16.4720600926
C         20.3845947884       33.5305107075       14.2433940859
C         20.5393739539       34.1462791835       15.4616946306
C         16.4197629609       32.5106545047       14.0228287566
C         16.9550023625       34.4665918230       15.3761767833
O         16.0364550471       31.9017198746       12.8467050112
C         16.5543077566       33.9075581617       14.1507757164
C         15.8721486511       32.6153131816       11.6068392918
H         20.6805507293       27.0827021398        6.1246957138
H         19.8397750811       30.8275586161        8.1257503531
H         21.2966654328       26.0741896309        8.2736377029
H         19.5593728839       29.4963387038        3.5102943629
H         20.8959623641       28.5258395565        4.1805312276
H         19.2031353790       28.0130322815        4.4324783931
H         20.4516182266       29.8069673758       10.2798872668
H         21.5952379680       28.9048695271       11.9884669045
H         23.0727815651       28.2088605715       11.2408426783
H         23.2579135486       26.7170318142       13.0013351436
H         20.0472928203       26.3346436056       13.9649960938
H         19.6511188261       28.9551365220       14.9962979703
H         17.7663089847       26.5513209800       15.1529889819
H         17.3094534305       28.2310533643       15.3394716295
H         20.7507949981       28.0267953410       17.0067931154
H         17.8060289003       28.3455961785       17.6470825154
H         19.1658864812       28.7322376551       18.6953230155
H         19.9610728715       25.8868164140       16.6213467373
H         18.0408939747       29.8639040521       13.3202884733
H         17.6160363715       25.5791882867       12.9740691472
H         17.7537445758       30.0908833866       10.8693491201
H         17.3468738451       25.8109392434       10.5172483124
H         20.4156390297       31.1505477763       18.1512573930
H         20.9279810340       30.0933172044       16.8426066104
H         17.4136492047       28.0646807240        9.4579798547
H         20.5679134061       33.5625436737       17.5977415542
H         16.5780806072       30.6096269641       15.0244595673
H         17.5606365343       34.0723515497       17.4130762553
H         20.3917126535       33.9743136233       13.2563139217
H         20.6973462196       35.2130478142       15.5786709378
H         17.0575009719       35.5446387637       15.4731180582
H         16.3495492062       34.5658345638       13.3126219440
H         15.5926649822       31.9176062934       10.8073992333
H         15.0805720221       33.3703646390       11.6955455889
H         16.8081604469       33.1116483770       11.3198395115
    82
VM2 Rank=6      G=199.812           E=108.936           -TS=90.876              
C         21.0380717098       28.4942626529        6.1910579828
C         19.8536057965       28.4514319250        6.9551417859
C         20.9935790702       29.0024064121        4.7691602335
C         22.2401281367       28.0556659682        6.7879696430
C         19.8682502389       27.9833993382        8.2791110685
O         19.9488770933       29.3791872056        4.2619525537
C         22.2769342172       29.0464827700        3.9473388549
C         22.2536215929       27.5880717707        8.1130046142
C         21.0675922614       27.5469960237        8.8676458585
N         21.0817382280       27.0845834696       10.2116097761
C         22.0696459969       27.5636511744       11.1707352373
C         20.1906312269       26.1951527455       10.7805742905
C         21.6492065080       26.8917875563       12.4903964415
O         19.2887001603       25.5961446873       10.2209680704
O         20.5375856886       26.0467533923       12.0909065205
C         21.2562228993       27.9124994272       13.5774866623
N         20.0187807808       27.7249990546       14.1522894077
O         21.9580164872       28.8640764668       13.8774073685
C         19.2772936037       28.8061927343       14.8142644683
C         17.7568351652       28.5761728853       14.6209442007
C         19.7088239362       28.9328707320       16.3044316432
C         17.3698961365       28.4513130893       13.1527156479
C         19.0716920331       30.1395230803       17.0333928268
O         19.3803567893       27.7396120208       17.0132462976
C         17.5026925421       29.5535460779       12.2885125354
C         16.8872212648       27.2311525242       12.6451958031
N         19.2978986991       31.4499463147       16.3665438640
C         17.1482411369       29.4413761999       10.9341748272
C         16.5310615858       27.1180447711       11.2912241222
C         20.7191718755       31.8340633955       16.1721514782
S         18.2147346237       32.6960742839       16.8092359928
C         16.6570327130       28.2242685966       10.4362959857
C         21.4372610558       32.0969162407       17.4700522363
C         16.6492525590       32.0830850375       16.1495534979
O         18.2169500684       32.7784495168       18.2741623136
O         18.5938928237       33.8485094053       15.9823568363
S         22.3640386160       30.8995564479       18.3623107477
C         21.4660280808       33.3274910590       18.0743575392
C         16.3967155735       32.1492370889       14.7656502571
C         15.6968925790       31.4914967697       17.0019014832
C         22.7659871090       32.1021948457       19.5848121473
C         22.2200346207       33.3261125530       19.2830916738
C         15.2154951934       31.6138211039       14.2311081899
C         14.5088443246       30.9632635359       16.4713141388
O         15.0357698800       31.6874745414       12.8669787867
C         14.2686151917       31.0196810170       15.0881534556
C         14.1360821267       30.8170020910       12.1541106336
H         18.9135752119       28.7836484270        6.5212500596
H         23.1744664314       28.0713064663        6.2347556124
H         18.9435235884       27.9623874712        8.8480544894
H         23.0116091686       29.6971911536        4.4348188348
H         22.6953196082       28.0381930713        3.8518992293
H         22.0672111529       29.4385517832        2.9453125275
H         23.1910128376       27.2519851766        8.5479187651
H         22.0327487696       28.6588491568       11.2420623283
H         23.0782226129       27.2435464929       10.8819329447
H         22.4668090166       26.2794769886       12.8899038028
H         19.4945462980       26.9300185849       13.8059038412
H         19.5387743701       29.7471989014       14.3103416900
H         17.4471246986       27.6789119630       15.1714658613
H         17.1954597335       29.4054787775       15.0627552158
H         20.7993492313       29.0590388789       16.3260087645
H         17.9974750556       29.9405505426       17.1242391951
H         19.4628971291       30.1755852579       18.0587197657
H         19.7305012924       27.0067484444       16.4636407494
H         17.8743295695       30.5011454762       12.6673995462
H         16.7864137860       26.3687762376       13.2985638349
H         17.2480321089       30.2991350121       10.2740104330
H         16.1616206663       26.1718474290       10.9040029562
H         21.2587138242       31.0514172422       15.6243653367
H         20.7823258203       32.7332820608       15.5449841965
H         16.3791389866       28.1363235622        9.3890891030
H         20.9666894281       34.2084716202       17.6852282829
H         17.1275725105       32.5983895427       14.0986699592
H         15.8827454959       31.4322489024       18.0720192494
H         23.3768812743       31.8258490369       20.4346945346
H         22.3474480278       34.2089428439       19.9006691271
H         13.7761367574       30.5044626060       17.1309988137
H         13.3465193988       30.6045997203       14.6939582745
H         14.3862130568       29.7651546064       12.3464676324
H         13.0960576874       30.9979662249       12.4531938033
H         14.2181299832       30.9967633687       11.0748931422
    82
VM2 Rank=7      G=199.821           E=108.284           -TS=91.537              
C         20.1495303453       28.2732776748        6.3456110393
C         20.1772898323       29.2376904438        7.3736059379
C         19.7882789795       28.6886041215        4.9389529883
C         20.4638793860       26.9358928259        6.6698116017
C         20.5072768683       28.8775769951        8.6902369376
O         19.5172729355       29.8480154278        4.6689930488
C         19.7589770223       27.6413245155        3.8314143251
C         20.7921602595       26.5761591237        7.9876548710
C         20.8114372984       27.5418970613        9.0102446343
N         21.1378468242       27.1757470993       10.3461999072
C         22.0460298768       27.9789112505       11.1578060629
C         20.6884144059       26.0578462069       11.0242289907
C         22.0999314167       27.2267685097       12.4986733823
O         19.9349878617       25.1931769143       10.6115622094
O         21.2523240142       26.0720617384       12.2656139235
C         21.6092819224       28.0999424651       13.6695360782
N         20.3478783849       27.8111612941       14.1410748557
O         22.2487275605       29.0447196708       14.1000754645
C         19.4907529851       28.8212177238       14.7742870723
C         18.0139778952       28.5569620308       14.3847177019
C         19.7418795393       28.8653166539       16.3088456386
C         17.8175359277       28.5081179625       12.8751679799
C         18.9768313487       30.0017897894       17.0265503678
O         19.3795984661       27.6193903263       16.9008652152
C         17.9138533144       29.6864437704       12.1137990012
C         17.5592947561       27.2862536970       12.2271264499
N         19.2341371066       31.3596330784       16.4760073832
C         17.7443736659       29.6475640530       10.7201831842
C         17.3932565409       27.2453876357       10.8328416722
C         20.6539407748       31.7955898395       16.4902158141
S         18.0601403083       32.5394784838       16.8658153368
C         17.4837682569       28.4260892639       10.0791583041
C         21.1938170223       31.9859856348       17.8837931992
C         16.6286619223       31.9745936297       15.9190964128
O         17.8436073030       32.4698558613       18.3153414084
O         18.5242213060       33.7784222345       16.2290665711
S         22.0499947251       30.7565167147       18.8026000605
C         21.0966629351       33.1692048657       18.5700769326
C         16.5407741848       32.2568500725       14.5411556999
C         15.6137646740       31.2232177653       16.5431029000
C         22.2466871046       31.8783730523       20.1461270516
C         21.6932839400       33.1031533327       19.8620670160
C         15.4465337724       31.7870006057       13.7891625296
C         14.5270536561       30.7474189692       15.7923434053
O         15.3131784580       32.0366437983       12.4394252200
C         14.4480149994       31.0271654905       14.4182688243
C         16.1248779164       32.9915903261       11.7284953891
H         19.9383015626       30.2751179224        7.1527012196
H         20.4568821323       26.1618121783        5.9082972026
H         20.5081131931       29.6415220561        9.4623698706
H         20.7487700385       27.1839448144        3.7222806148
H         19.0263330761       26.8626667510        4.0717022191
H         19.4787896369       28.1090986027        2.8803966407
H         21.0321442261       25.5396160288        8.2104572943
H         21.6537136696       28.9949889078       11.2931352477
H         23.0387817759       28.0219620413       10.6923110545
H         23.1261602074       26.9099960523       12.7216895804
H         19.8968215483       27.0133321589       13.7104810022
H         19.7702982780       29.8014118548       14.3629321353
H         17.6719667792       27.6195602668       14.8413454043
H         17.3729453808       29.3431691046       14.7977957982
H         20.8169876247       29.0237965326       16.4661091420
H         17.9076261059       29.7668800590       16.9703499808
H         19.2379001604       29.9806471129       18.0928872725
H         19.8290218413       26.9350937936       16.3609303475
H         18.1204993401       30.6326413534       12.6040995812
H         17.4900033936       26.3662117519       12.8012226796
H         17.8169405038       30.5618147974       10.1371514237
H         17.2010959492       26.2974251519       10.3363861816
H         21.2856804464       31.0685067074       15.9649089457
H         20.7633092991       32.7378359560       15.9369680058
H         17.3594451811       28.3932190959        8.9996648457
H         20.6147887645       34.0602987940       18.1819833231
H         17.3289878463       32.8328947039       14.0665937633
H         15.6735058336       31.0001248257       17.6060642466
H         22.7574578489       31.5600073987       21.0459151747
H         21.7066186929       33.9419723359       20.5499883576
H         13.7474627895       30.1615845108       16.2735216525
H         13.6074525256       30.6588164294       13.8367728305
H         16.0261201884       33.9899229214       12.1740448203
H         17.1815384674       32.6976204339       11.7453434065
H         15.8036843294       33.0488572785       10.6808464704
    82
VM2 Rank=8      G=199.833           E=108.289           -TS=91.544              
C         20.1466612238       28.2520280469        6.3573911336
C         20.1734385887       29.2201398845        7.3841256927
C         19.7858432647       28.6095589703        4.9348388714
C         20.4674576373       26.9182706469        6.6834500822
C         20.5098002551       28.8600017345        8.6995213636
O         19.7697898533       27.7659050090        4.0524784566
C         19.4338425134       30.0523363626        4.5900706198
C         20.8017553550       26.5586761362        7.9994171305
C         20.8205307421       27.5258296747        9.0203268314
N         21.1524591105       27.1627854215       10.3556749186
C         22.0630769124       27.9683676600       11.1621395626
C         20.7062942124       26.0460567286       11.0377216313
C         22.1168924774       27.2228862662       12.5067116256
O         19.9527508639       25.1794453874       10.6294087025
O         21.2736715149       26.0641878327       12.2774870808
C         21.6199810157       28.1003198338       13.6717811880
N         20.3576109125       27.8108033975       14.1403695729
O         22.2558502769       29.0484230362       14.1002956261
C         19.4972265987       28.8204470648       14.7698490956
C         18.0212450460       28.5497523108       14.3817137484
C         19.7482601733       28.8707356485       16.3042854625
C         17.8237642294       28.4967501908       12.8724498582
C         18.9789937731       30.0066102931       17.0184348256
O         19.3908198315       27.6254166648       16.9005228971
C         17.5732029998       27.2719610211       12.2269387212
C         17.9106606240       29.6743719669       12.1088581221
N         19.2301890706       31.3635846018       16.4629531434
C         17.4052000988       27.2275006105       10.8330057356
C         17.7389479999       29.6319301057       10.7156059226
C         20.6482666400       31.8052345904       16.4739415481
S         18.0521040600       32.5400894027       16.8505757843
C         17.4858514585       28.4075181704       10.0771484034
C         21.1890336893       32.0027659983       17.8661826421
C         16.6211986862       31.9662298664       15.9083743065
O         17.8382840360       32.4746584235       18.3006973591
O         18.5101591927       33.7786276396       16.2086923212
S         22.0508243971       30.7798878149       18.7885307381
C         21.0883735495       33.1881792889       18.5481628731
C         16.5292115780       32.2442354415       14.5298409314
C         15.6108659886       31.2122105385       16.5365910208
C         22.2449816996       31.9074570170       20.1276367511
C         21.6867575697       33.1291342292       19.8396764016
C         15.4355002507       31.7674742232       13.7814351889
C         14.5247194470       30.7295221026       15.7894217243
O         15.2982947611       32.0127379434       12.4312784395
C         14.4416364886       31.0050233167       14.4147300935
C         16.1037193321       32.9699314842       11.7162558505
H         19.9320656490       30.2584219820        7.1773594462
H         20.4569375453       26.1522187981        5.9118982351
H         20.5102578097       29.6238022149        9.4718737398
H         20.2816277786       30.7088710182        4.8159475246
H         19.1965712147       30.1356655485        3.5230608024
H         18.5630022531       30.3745814327        5.1719866438
H         21.0461563737       25.5230531043        8.2215077261
H         21.6735568545       28.9861305733       11.2926515071
H         23.0553961798       28.0065091525       10.6952991971
H         23.1437209942       26.9111241990       12.7339836879
H         19.9094113337       27.0101823139       13.7120257099
H         19.7734957098       29.8000334923       14.3548490222
H         17.6829811668       27.6121573113       14.8407362966
H         17.3775079672       29.3344892149       14.7933917083
H         20.8227554184       29.0338783452       16.4609557998
H         17.9107480754       29.7670228685       16.9638934894
H         19.2409359738       29.9903400510       18.0846437864
H         19.8425691129       26.9410294382       16.3626511525
H         17.5112023624       26.3524649676       12.8027424388
H         18.1113661732       30.6228431003       12.5972202403
H         17.2189083442       26.2773344731       10.3385212467
H         17.8037997608       30.5457456629       10.1310415858
H         21.2823046441       31.0788140265       15.9504878556
H         20.7532026848       32.7459388249       15.9172220064
H         17.3595004149       28.3717325206        8.9980271876
H         20.6027912712       34.0760537947       18.1573224978
H         17.3138947574       32.8224071852       14.0520314576
H         15.6737511121       30.9924058645       17.6000560213
H         22.7579807054       31.5943238649       21.0279933074
H         21.6978348172       33.9705591587       20.5244481810
H         13.7486920150       30.1416426612       16.2738561950
H         13.6015077069       30.6313431589       13.8360168370
H         15.7801750646       33.0228295213       10.6691025737
H         16.0007463290       33.9689057695       12.1594080139
H         17.1618922587       32.6813833468       11.7317987768
    82
VM2 Rank=9      G=199.834           E=109.915           -TS=89.918              
C         21.3599808129       28.1617999025        6.0163394183
C         20.1301880921       28.0636893300        6.7022536093
C         21.4324513233       28.5824320535        4.5672841600
C         22.5454841005       27.8552522819        6.7158643736
C         20.0921290476       27.6701349474        8.0501423563
O         22.5010297143       28.6634241601        3.9822929920
C         20.1474113254       28.9143569345        3.8170233692
C         22.5061077207       27.4624499308        8.0640557872
C         21.2776246574       27.3659796797        8.7422765672
N         21.2348947967       26.9803143349       10.1109475915
C         22.1529221360       27.5490805639       11.0914134049
C         20.3432692900       26.0946580122       10.6864547001
C         21.7029472413       26.9181619195       12.4208938598
O         19.4774419752       25.4468896978       10.1237707226
O         20.6221584773       26.0355155387       12.0196326750
C         21.2601556340       27.9694019343       13.4580052142
N         19.9747560250       27.8331092078       13.9330828152
O         21.9709200443       28.8984928263       13.8033035582
C         19.2311765910       28.9333086383       14.5603586317
C         17.7243880585       28.7860796295       14.2304299671
C         19.5386891988       28.9966699734       16.0846802084
C         17.4654720006       28.7622148069       12.7298837008
C         18.8939055345       30.2076994346       16.7988495736
O         19.0990301659       27.7995357348       16.7233927476
C         17.1213815565       27.5609043241       12.0831080167
C         17.5855166759       29.9431508275       11.9750725849
N         19.2168824955       31.5261400542       16.1903820049
C         16.8886531881       27.5438923729       10.6979042831
C         17.3507121500       29.9280563295       10.5904974083
C         20.6627943459       31.8553833478       16.1074935317
S         18.1591927019       32.8030346650       16.6062355877
C         16.9972727259       28.7287413822        9.9522891948
C         21.2976543150       32.0509514434       17.4596629842
C         16.6161678521       32.2897157930       15.8186392018
O         18.0609827606       32.8245101637       18.0699992402
O         18.6459507009       33.9699409973       15.8599617507
S         22.1068011635       30.7899410773       18.3783365511
C         21.3364846150       33.2624857351       18.1008059615
C         15.6087146796       31.6602271063       16.5763189725
C         16.4315496781       32.4812751463       14.4355112662
C         22.4720962060       31.9402473946       19.6611790280
C         22.0020295046       33.1950488408       19.3586059330
C         14.4268729232       31.2146308091       15.9520990180
C         15.2532199623       32.0400234109       13.8132603876
O         13.4157232366       30.5810858284       16.6439481638
C         14.2559093987       31.4064735824       14.5719664165
C         13.4889032008       30.2794878950       18.0510905090
H         19.1933104415       28.2902715517        6.2021594894
H         23.5066203945       27.9212157481        6.2116576385
H         19.1342518757       27.6027794305        8.5570999865
H         20.3792440629       29.1998101459        2.7842941897
H         19.4860965272       28.0407122779        3.8022315120
H         19.6324177488       29.7483004824        4.3070645572
H         23.4358222674       27.2280701541        8.5750878097
H         22.0594498660       28.6431086739       11.1109353946
H         23.1888375663       27.2680264441       10.8658849149
H         22.5198551777       26.3367502861       12.8655352795
H         19.4511484841       27.0516754079       13.5571881189
H         19.5792717753       29.8730799069       14.1090138216
H         17.3290029828       27.8758220658       14.6988154713
H         17.1626643872       29.6168417390       14.6704119818
H         20.6279483259       29.0726146656       16.2012618118
H         17.8096846933       30.0475415082       16.8037011278
H         19.2078758434       30.2007381943       17.8510288529
H         19.4688985351       27.0672518300       16.1863339730
H         17.0339915078       26.6391553282       12.6519626076
H         17.8631597571       30.8732351276       12.4618176304
H         16.6258376434       26.6120408391       10.2031972345
H         17.4422398865       30.8446759022       10.0133134375
H         21.2081426247       31.0666396408       15.5743548385
H         20.8059447828       32.7685814615       15.5145996028
H         16.8127467132       28.7165658110        8.8810621494
H         20.9044745769       34.1751392683       17.7041753619
H         15.7600672233       31.5144832017       17.6414650939
H         17.2055410009       32.9639727309       13.8432097720
H         23.0086853500       31.6141965451       20.5430076486
H         22.1231180502       34.0545173263       20.0095096406
H         15.1151528379       32.1824585200       12.7440443676
H         13.3458609793       31.0602934025       14.0899445543
H         14.3417784535       29.6216096770       18.2627975552
H         13.5932457882       31.1996054511       18.6405152690
H         12.5730286635       29.7681952383       18.3734517924
    82
VM2 Rank=10     G=199.848           E=109.380           -TS=90.468              
C         20.8855582620       28.2556154941        6.0904784495
C         19.7318335643       28.0082512093        6.8651886304
C         20.7975806663       28.6702640577        4.6405612024
C         22.1484510673       28.1071337751        6.7001772080
C         19.8430049007       27.6239788512        8.2117046984
O         21.8014254157       28.8813017805        3.9784544202
C         19.4292691760       28.8305058755        3.9875408838
C         22.2582375408       27.7234353079        8.0470921333
C         21.1050428685       27.4779086592        8.8141756276
N         21.2121855433       27.1010676802       10.1818792844
C         22.1221977177       27.7876327197       11.0919467367
C         20.4828152104       26.1162762248       10.8213758040
C         21.8606148453       27.1104767403       12.4487220462
O         19.6637079026       25.3625359674       10.3245649782
O         20.8644158535       26.1034551115       12.1301432169
C         21.3827968458       28.1034741478       13.5266979217
N         20.1600569270       27.8234636650       14.0950083715
O         22.0096302678       29.1056644005       13.8271799993
C         19.3480529206       28.8326429529       14.7871793723
C         17.8459895267       28.5198515575       14.5694732607
C         19.7603992800       28.9255155592       16.2848025535
C         17.4823926356       28.4514674349       13.0924336814
C         19.0443139649       30.0585374873       17.0565200224
O         19.5016792783       27.6865281553       16.9423842266
C         17.4028635029       29.6319623173       12.3326237082
C         17.2397803967       27.2123041530       12.4715888161
N         19.1911921135       31.4082844545       16.4486690245
C         17.0694089721       29.5784017173       10.9694313919
C         16.9093233297       27.1567122875       11.1074049732
C         20.5883338848       31.8830250153       16.2783842061
S         18.0410608560       32.5655178250       16.9592346415
C         16.8177854397       28.3403751097       10.3575570823
C         21.2889975976       32.1243562745       17.5901662431
C         16.5166571301       31.9371145307       16.2201429834
O         18.0146796974       32.5284473303       18.4257962583
O         18.3813791538       33.7992127514       16.2394994740
S         22.2842373718       30.9416364624       18.4265741645
C         21.2447265498       33.3235121505       18.2538817919
C         16.2371011085       32.1892750250       14.8621459394
C         15.6187277596       31.1678089142       16.9856003286
C         22.6133191234       32.1045833133       19.7077993993
C         21.9964379960       33.3074974868       19.4639358876
C         15.0689036253       31.6711368628       14.2701877926
C         14.4583335957       30.6439393244       16.3939944367
O         14.7496754266       31.8897175996       12.9464929398
C         14.1884299533       30.8935741016       15.0384961171
C         15.4229932350       32.8606201777       12.1217076704
H         18.7396350034       28.1103556010        6.4359017363
H         23.0538601574       28.2899997931        6.1264591811
H         18.9411322847       27.4399368274        8.7877097707
H         18.8498762034       29.5964552597        4.5152169491
H         19.5466295454       29.1345502153        2.9408596564
H         18.8849582292       27.8800078816        4.0205474580
H         23.2452035442       27.6126116896        8.4875913928
H         21.8899741345       28.8604934045       11.1245637547
H         23.1654009168       27.6417448300       10.7863520842
H         22.7748980322       26.6317825271       12.8202563067
H         19.6998262369       26.9891074881       13.7513027126
H         19.5550613527       29.8064182643       14.3212767961
H         17.5865114964       27.5771357531       15.0676680781
H         17.2312996763       29.2906090909       15.0470850960
H         20.8408561868       29.1178050570       16.3211593487
H         17.9842714833       29.7895287580       17.1293844707
H         19.4259085605       30.0749703188       18.0860180902
H         19.9073562077       26.9996801647       16.3721497036
H         17.5991389454       30.5914584326       12.8007337921
H         17.3066108643       26.2912640283       13.0443399149
H         17.0038980803       30.4948158870       10.3888031499
H         16.7252304663       26.1962227331       10.6323250660
H         21.1729115653       31.1602847374       15.6955991862
H         20.6002907077       32.8133102546       15.6950184227
H         16.5564062009       28.2980277283        9.3032666133
H         20.6951157286       34.1918008109       17.9062118360
H         16.9356447543       32.7799649615       14.2778174621
H         15.8261590945       30.9682249552       18.0345875640
H         23.2387162229       31.8235103136       20.5454979420
H         22.0711385156       34.1651339108       20.1241701581
H         13.7692351550       30.0443324535       16.9840119833
H         13.2907001674       30.4881590020       14.5801348798
H         14.9644207540       32.8871877535       11.1252006551
H         15.3454382606       33.8626006085       12.5632689805
H         16.4832369089       32.6058597239       12.0022301089
    82
VM2 Rank=11     G=199.887           E=108.898           -TS=90.990              
C         20.8457957487       28.1736320312        6.0679533792
C         22.0947482990       28.0223362845        6.7081029534
C         20.7375751714       28.5768888886        4.6162006375
C         19.6749929351       27.9373913900        6.8168942429
C         22.1669411733       27.6470549960        8.0603146355
O         19.6521971602       28.7037665153        4.0716988873
C         22.0071093694       28.8308201924        3.8111435284
C         19.7485885960       27.5616914610        8.1679919665
C         20.9945589667       27.4134314080        8.8028278008
N         21.0676413266       27.0458226537       10.1764691992
C         21.9929908069       27.7033538488       11.0934938392
C         20.2921272758       26.0962252908       10.8161981945
C         21.7120769028       27.0254142284       12.4456484165
O         19.4448241423       25.3747064738       10.3187184069
O         20.6601279241       26.0767684921       12.1287523455
C         21.3057950169       28.0282906919       13.5431472845
N         20.0622348425       27.8294395075       14.0996108563
O         22.0039194851       28.9749288875       13.8656690652
C         19.3141747989       28.8904393104       14.7857709283
C         17.8006933026       28.7042571424       14.5113340628
C         19.6838595522       28.9269139235       16.2968684740
C         17.4847468030       28.6907539448       13.0211716128
C         19.0319672438       30.0986956412       17.0683922603
O         19.3102109993       27.7006098145       16.9220868711
C         17.0766841256       27.5022683195       12.3881367901
C         17.6155603275       29.8672433670       12.2612956617
N         19.2970839430       31.4427228264       16.4885467409
C         16.7891694592       27.4946318489       11.0131360390
C         17.3275040291       29.8613881403       10.8869346829
C         20.7289406549       31.8163545019       16.3634855161
S         18.2178115007       32.6762031360       16.9746772438
C         16.9078466926       28.6760240305       10.2636090069
C         21.4070538629       31.9917059199       17.6972373986
C         16.6646787879       32.1292421967       16.2327406457
O         18.1762054836       32.6679645457       18.4413160377
O         18.6380414178       33.8713875208       16.2326679832
S         22.2845027048       30.7292488246       18.5487450220
C         21.4348773157       33.1850451512       18.3721603246
C         16.4508230256       32.2939503546       14.8506491181
C         15.6830355812       31.4921199949       17.0163078162
C         22.6638791461       31.8527684683       19.8511080149
C         22.1476759112       33.1013406575       19.6028011085
C         15.2796699912       31.8105203347       14.2487677887
C         14.5047748134       31.0159682829       16.4187624432
O         15.1385883706       31.9799586458       12.8886563484
C         14.3035214249       31.1701267786       15.0368080149
C         14.2581735879       31.1641831350       12.0919904050
H         23.0212480896       28.1925534826        6.1678209048
H         18.6991026158       28.0454040105        6.3497397085
H         23.1425645949       27.5331657823        8.5244227459
H         22.5830964570       29.6440756477        4.2668401461
H         22.6217741139       27.9240047919        3.7852377889
H         21.7493714071       29.1127335538        2.7835958904
H         18.8305169869       27.3858624616        8.7201347684
H         21.7855439237       28.7810674125       11.1329776367
H         23.0337424001       27.5352867058       10.7913207050
H         22.6041264245       26.4923570786       12.7966928678
H         19.5458438991       27.0365644784       13.7377306562
H         19.6151280586       29.8516201699       14.3458459458
H         17.4505392335       27.7771626298       14.9825627496
H         17.2334563619       29.5125257155       14.9840530065
H         20.7742281705       29.0349724438       16.3692995540
H         17.9530522458       29.9084040471       17.1065248254
H         19.3833953763       30.0708126822       18.1082999737
H         19.6801129422       26.9944598533       16.3510491750
H         16.9807170181       26.5832952001       12.9600540028
H         17.9348951079       30.7898558053       12.7368892930
H         16.4751509224       26.5729592413       10.5294979788
H         17.4236793526       30.7763727411       10.3080675556
H         21.2762132092       31.0595407194       15.7877533730
H         20.8242750996       32.7500094273       15.7932718531
H         16.6795951567       28.6721515562        9.2008214675
H         20.9628007433       34.0954840194       18.0184152450
H         17.2039856682       32.7798626341       14.2363439768
H         15.8386501932       31.3571791997       18.0843827411
H         23.2413933799       31.5175928403       20.7031612446
H         22.2680742161       33.9450645998       20.2741132247
H         13.7494754937       30.5217786783       17.0252640243
H         13.3885525885       30.7943418076       14.5900750714
H         14.5011472261       30.1006645789       12.2177840493
H         13.2103380005       31.3275358116       12.3734200604
H         14.3709933373       31.4181840146       11.0306107548
    82
VM2 Rank=12     G=199.933           E=108.891           -TS=91.042              
C         20.8670081427       28.2228401549        6.0648142376
C         19.7123804356       27.9201463705        6.8178348808
C         20.7876227273       28.6207139454        4.6097244994
C         22.1225945976       28.1464368314        6.7017992169
C         19.8154896914       27.5531918943        8.1697857637
O         21.7925719924       28.8791196229        3.9663511677
C         19.4266712566       28.7034395872        3.9275529636
C         22.2241922778       27.7801042473        8.0541711288
C         21.0701381754       27.4801850379        8.8012753047
N         21.1692788322       27.1213965127       10.1758329968
C         22.0640250292       27.8291617209       11.0859579196
C         20.4475738188       26.1350169497       10.8230443219
C         21.8286308335       27.1397398681       12.4409076102
O         19.6348469815       25.3697863622       10.3332259365
O         20.8227462984       26.1394720096       12.1336929684
C         21.3827954258       28.1226229169       13.5410247031
N         20.1483639638       27.8727020524       14.0971867647
O         22.0423732945       29.0958789174       13.8653968290
C         19.3578085172       28.9016961938       14.7843837123
C         17.8534492970       28.6572601670       14.5056270050
C         19.7224035754       28.9486123089       16.2963974596
C         17.5418299960       28.6359152113       13.0146275282
C         19.0234332876       30.0920173299       17.0692854289
O         19.3955429592       27.7070186484       16.9176382694
C         17.1787769629       27.4349471428       12.3777500956
C         17.6314336888       29.8182898684       12.2578980494
N         19.2371469007       31.4468564042       16.4933850336
C         16.8947043892       27.4203201217       11.0020943872
C         17.3469666536       29.8053953174       10.8828452984
C         20.6535716935       31.8766179818       16.3730044603
S         18.1090764558       32.6358799024       16.9794875823
C         16.9720466238       28.6071425347       10.2556930916
C         21.3208945991       32.0749760560       17.7089730931
C         16.5805546262       32.0302903294       16.2320061731
O         18.0639518557       32.6224091827       18.4459825460
O         18.4840687005       33.8484398324       16.2414424878
S         22.2450708846       30.8457161127       18.5596181327
C         21.3000700553       33.2666992744       18.3869956197
C         16.3641640338       32.1896982905       14.8496850146
C         15.6225003868       31.3533963213       17.0114124585
C         22.5766634454       31.9798290877       19.8658360986
C         22.0124342043       33.2078079683       19.6193244828
C         15.2144940523       31.6621391380       14.2434620388
C         14.4654246845       30.8328403391       16.4095188208
O         15.0705515809       31.8290308862       12.8833408975
C         14.2620480846       30.9821829138       15.0273475158
C         14.2256140308       30.9806201328       12.0823580047
H         18.7254286842       27.9650991166        6.3672125691
H         23.0289636913       28.3723578061        6.1451937743
H         18.9117651830       27.3247649166        8.7263661819
H         18.7967465154       29.4414371647        4.4368411630
H         19.5495955908       29.0056322674        2.8809744386
H         18.9327732693       27.7256969782        3.9574192604
H         23.2070462771       27.7254751766        8.5136111581
H         21.7991704189       28.8942312372       11.1253326955
H         23.1104091021       27.7167563363       10.7774984664
H         22.7491556054       26.6520906638       12.7843900607
H         19.6646381677       27.0599220214       13.7343736515
H         19.6219304783       29.8751394137       14.3477905196
H         17.5387689707       27.7157712692       14.9733261784
H         17.2538894679       29.4412878602       14.9792588703
H         20.8075557554       29.0990148011       16.3716196250
H         17.9526956757       29.8596001236       17.1043465131
H         19.3732739823       30.0752183298       18.1099652376
H         19.7945809856       27.0173588038       16.3460671561
H         17.1149337828       26.5116814529       12.9472428091
H         17.9157310449       30.7507607981       12.7364972599
H         16.6151675737       26.4890854449       10.5156314313
H         17.4110255429       30.7247454714       10.3064663005
H         21.2315248645       31.1432929887       15.7968550665
H         20.7136999646       32.8147495710       15.8053425679
H         16.7462897606       28.5977472887        9.1924404949
H         20.7934895757       34.1588186998       18.0343066947
H         17.0993844695       32.7061403872       14.2385606337
H         15.7803839587       31.2221784189       18.0796180962
H         23.1647150971       31.6653519365       20.7185725905
H         22.0978502116       34.0538295308       20.2931026051
H         13.7284203119       30.3080437866       17.0128076212
H         13.3637250749       30.5718835709       14.5772127747
H         14.3312532927       31.2413051406       11.0218620742
H         14.5104295345       29.9273496773       12.2065945011
H         13.1713029732       31.1014485796       12.3610546601
    82
VM2 Rank=13     G=199.951           E=108.961           -TS=90.991              
C         20.6594601523       28.2229256046        6.2291731158
C         20.7674809482       26.8580533843        6.5726889867
C         20.4713520897       28.6724473228        4.7994008059
C         20.7303789955       29.1823749108        7.2597669247
C         20.9375335360       26.4673564555        7.9114640181
O         20.3782271210       29.8555473638        4.5127522839
C         20.3942722997       27.6305101467        3.6891204269
C         20.9021019191       28.7910705970        8.5974972389
C         21.0009056159       27.4292452465        8.9358582087
N         21.1672064626       27.0324590544       10.2923162470
C         22.1088509814       27.7107855962       11.1764893618
C         20.5178526274       25.9907149665       10.9281643588
C         21.9490949736       26.9717145900       12.5162549735
O         19.6895571827       25.2330366163       10.4533469106
O         20.9785780036       25.9368848400       12.2103551765
C         21.4802480946       27.9138818643       13.6418420729
N         20.1593224510       27.7900431530       14.0115280361
O         22.1967869144       28.7766692516       14.1204306829
C         19.3879938467       28.9053076872       14.5745186031
C         17.9271606370       28.8258127377       14.0630828252
C         19.5161437768       28.9304616145       16.1247811827
C         17.8512029245       28.8108542735       12.5417130969
C         18.8414732689       30.1580722226       16.7805622415
O         18.9548195572       27.7436862979       16.6820226807
C         17.4933626033       27.6350317022       11.8568147654
C         18.1598583587       29.9705377722       11.8075753699
N         19.2973611674       31.4689117930       16.2449732506
C         17.4398826183       27.6210591578       10.4532001477
C         18.1040464010       29.9583667825       10.4042647867
C         20.7539589253       31.7350692250       16.3596083282
S         18.2472463941       32.7856471635       16.5367933034
C         17.7434318843       28.7829478627        9.7265316366
C         21.2112981055       31.8839898409       17.7872570924
C         16.8097188369       32.3520198589       15.5319612794
O         17.9477060671       32.7910962344       17.9730917099
O         18.8817043984       33.9402492202       15.8888282195
S         21.8421871004       30.5769276326       18.7783863686
C         21.2111523736       33.0828998105       18.4528282067
C         15.6771701043       31.7652501251       16.1305072602
C         16.8331547285       32.5610111238       14.1392075224
C         22.0782480128       31.6915227325       20.1216377252
C         21.7010088953       32.9689847948       19.7857276488
C         14.5771875690       31.3800154972       15.3389105133
C         15.7365354664       32.1799232104       13.3501824360
O         13.4500725384       30.7898832304       15.8716478386
C         14.6134570532       31.5890087287       13.9511628095
C         13.3082460178       30.4757307028       17.2707713213
H         20.7203494333       26.0863940180        5.8101421155
H         20.6487240377       30.2406847668        7.0242002435
H         21.0199665422       25.4098300182        8.1492026907
H         21.3206853940       27.0459966208        3.6591703120
H         19.5482902464       26.9568201244        3.8659525904
H         20.2563777874       28.1245130699        2.7202551924
H         20.9406903105       29.5534633732        9.3702526288
H         21.8517886431       28.7727429790       11.2804691212
H         23.1324084157       27.6112444412       10.7937200078
H         22.9016307108       26.5246862473       12.8261843047
H         19.6476264503       27.0494058183       13.5478654504
H         19.8218606885       29.8390275447       14.1898332698
H         17.4381511502       27.9344590490       14.4761344129
H         17.3539210459       29.6809675624       14.4359512235
H         20.5862322738       28.9567687958       16.3699059151
H         17.7590667373       30.0492935687       16.6466173905
H         19.0202935882       30.1195290061       17.8632361660
H         19.3592253590       27.0047158581       16.1799300207
H         17.2599279556       26.7291435145       12.4097844890
H         18.4466030499       30.8811663023       12.3250518896
H         17.1702616691       26.7074293013        9.9291260743
H         18.3438454147       30.8573580264        9.8422943273
H         21.3313315927       30.9301479225       15.8879369490
H         21.0129418244       32.6488852125       15.8084325868
H         17.7070436794       28.7700065023        8.6400574679
H         20.8709466646       34.0184302331       18.0216368722
H         15.6686516702       31.6050370361       17.2042544019
H         17.7051957143       33.0098977999       13.6691743456
H         22.4802939886       31.3303072074       21.0595833752
H         21.7676979899       33.8126700319       20.4645309656
H         15.7589640470       32.3353609738       12.2741203262
H         13.7666100607       31.2890742317       13.3402187924
H         14.0913909332       29.7770833702       17.5926263850
H         13.3693840419       31.3859477951       17.8812550447
H         12.3334547184       30.0058992885       17.4529798742
    82
VM2 Rank=14     G=199.958           E=108.965           -TS=90.994              
C         20.6204200000       28.2382602178        6.2481863544
C         20.7320729666       26.8735996917        6.5913314399
C         20.4212444331       28.6871324512        4.8197092249
C         20.6984553859       29.1980966718        7.2779010064
C         20.9125644426       26.4834843518        7.9289017445
O         20.3249831598       29.8700546078        4.5333631329
C         20.3367754490       27.6447417571        3.7103886959
C         20.8806361202       28.8073666470        8.6144204528
C         20.9829187669       27.4457218876        8.9525437249
N         21.1600484243       27.0494964802       10.3078574005
C         22.1060035574       27.7306900667       11.1852263676
C         20.5189519026       26.0053798798       10.9482377875
C         21.9626068517       26.9873902165       12.5245051948
O         19.6890881154       25.2455377422       10.4796424506
O         20.9904271600       25.9518175224       12.2265185098
C         21.5054470758       27.9250109742       13.6586452785
N         20.1894722279       27.7966191776       14.0439104405
O         22.2256436789       28.7880916403       14.1311739413
C         19.4216462340       28.9084407440       14.6183903492
C         17.9563450506       28.8281702118       14.1198849689
C         19.5639646975       28.9276732900       16.1674709816
C         17.8663311236       28.8126647192       12.5992376229
C         18.8917554295       30.1507547393       16.8343185565
O         19.0117587865       27.7367123336       16.7249046357
C         17.4952482307       27.6384679064       11.9186117202
C         18.1752415864       29.9698579862       11.8612912038
N         19.3442125774       31.4649915956       16.3041906875
C         17.4288498115       27.6237015534       10.5155590132
C         18.1063419739       29.9569763600       10.4585878506
C         20.8006689352       31.7328118488       16.4164409555
S         18.2917580413       32.7780957152       16.6044901825
C         17.7326301453       28.7831872827        9.7851601544
C         21.2615568248       31.8734945886       17.8437849857
C         16.8597191649       32.3522951123       15.5890378055
O         17.9884972385       32.7710921155       18.0400561734
O         18.9278405753       33.9392036019       15.9696698566
S         21.9006738887       30.5619412196       18.8236445773
C         21.2580312904       33.0674944949       18.5181179709
C         15.7234197806       31.7612519605       16.1745866010
C         16.8898467032       32.5696548655       14.1979204855
C         22.1356736720       31.6677184553       20.1743528788
C         21.7520433738       32.9459635645       19.8488127591
C         14.6307118497       31.3792398922       15.3813375334
C         15.7975912877       32.1917824768       13.4009306784
O         13.5547137284       30.7926913257       16.0138585326
C         14.6703745690       31.5948010544       13.9890475552
C         12.3907937114       30.3163770025       15.3108395766
H         20.6797988145       26.1016444192        5.8294195662
H         20.6143558508       30.2562726923        7.0425875371
H         20.9977370695       25.4260870416        8.1662234315
H         19.4927577997       26.9703451214        3.8937912364
H         20.1911662793       28.1382796978        2.7424164165
H         21.2634687393       27.0610553854        3.6736869018
H         20.9248641925       29.5700893549        9.3865325587
H         21.8435864780       28.7908264419       11.2943688823
H         23.1266153724       27.6381787118       10.7929440285
H         22.9193296405       26.5407500095       12.8218416896
H         19.6742655538       27.0561685627       13.5838006676
H         19.8503740753       29.8445327793       14.2336648003
H         17.4715785226       27.9366784474       14.5376026284
H         17.3861429940       29.6830692691       14.4978542359
H         20.6361792672       28.9559992820       16.4027749546
H         17.8085192210       30.0425575804       16.7057324990
H         19.0762110297       30.1058832153       17.9157903402
H         19.4135137630       27.0012657018       16.2155423566
H         17.2616079140       26.7343886256       12.4744424717
H         18.4723497448       30.8791158320       12.3753028071
H         17.1491152535       26.7112615986        9.9947328348
H         18.3462880596       30.8540966910        9.8937051145
H         21.3778574436       30.9316796731       15.9381585512
H         21.0569014083       32.6503487639       15.8702080896
H         17.6862593246       28.7696181326        8.6990726867
H         20.9126465947       34.0046779233       18.0947045956
H         15.6908012182       31.5850377539       17.2465040527
H         17.7639576034       33.0219495359       13.7350490993
H         22.5418188981       31.3013973482       21.1085467271
H         21.8169714534       33.7849488973       20.5335869978
H         15.8270013928       32.3542904262       12.3260627376
H         13.8381116000       31.3046236995       13.3556677022
H         11.6742589225       29.8835351210       16.0202931194
H         11.8942128786       31.1392429808       14.7805551645
H         12.6671704680       29.5404789150       14.5851432715
    82
VM2 Rank=15     G=199.960           E=108.957           -TS=91.004              
C         20.6099558500       28.2167327712        6.2633268394
C         20.7214874162       26.8539730415        6.6076660261
C         20.4061086928       28.6103781937        4.8193131585
C         20.6930319453       29.1791066697        7.2924507860
C         20.9066239607       26.4611648256        7.9434215950
O         20.3396923002       27.7707699284        3.9354433378
C         20.2801879278       30.0852596940        4.4543055347
C         20.8801284450       28.7854711209        8.6278135798
C         20.9821096749       27.4236476607        8.9661318613
N         21.1634220343       27.0277685465       10.3209317903
C         22.1152695456       27.7062372081       11.1940539364
C         20.5209173080       25.9866071828       10.9646816549
C         21.9684283184       26.9697106816       12.5366784706
O         19.6873992260       25.2285758121       10.4996949883
O         20.9960438589       25.9334794688       12.2416448313
C         21.5085943297       27.9138133976       13.6644017067
N         20.1908077404       27.7901738537       14.0451462759
O         22.2288436882       28.7775146771       14.1357080923
C         19.4239153896       28.9051351027       14.6148207979
C         17.9585381568       28.8240857340       14.1166403330
C         19.5656920002       28.9302438855       16.1639238256
C         17.8678386638       28.8036689367       12.5961045484
C         18.8937107437       30.1560136654       16.8260531372
O         19.0128645176       27.7415985278       16.7256832201
C         17.4974105639       27.6270055166       11.9194170052
C         18.1743047358       29.9590726554       11.8543492296
N         19.3465845190       31.4681631255       16.2911473781
C         17.4290471087       27.6080836584       10.5165166942
C         18.1031609119       29.9421361330       10.4517913506
C         20.8030716102       31.7360191960       16.4029426621
S         18.2943294869       32.7825614742       16.5865528311
C         17.7299331817       28.7659142228        9.7823209542
C         21.2634643768       31.8818768732       17.8299308134
C         16.8630097648       32.3541544166       15.5711695710
O         17.9898716547       32.7798743429       18.0218802535
O         18.9313631072       33.9416193357       15.9489416992
S         21.9019970482       30.5738174974       18.8148286776
C         21.2598487175       33.0783329276       18.4998982027
C         15.7267132604       31.7635940588       16.1572216535
C         16.8937296444       32.5689466234       14.1796681033
C         22.1366065894       31.6844825355       20.1615862727
C         21.7533052631       32.9615880255       19.8312258258
C         14.6346839916       31.3793864029       15.3640932382
C         15.8020869363       32.1890215503       13.3828172383
O         13.5587546755       30.7932316796       15.9970923184
C         14.6749410479       31.5924147329       13.9714332105
C         12.3961700701       30.3135724296       15.2941344890
H         20.6632824320       26.0912735474        5.8349148000
H         20.6109997674       30.2391544207        7.0719357464
H         20.9909998094       25.4034524280        8.1794357209
H         20.1350629371       30.1928515096        3.3730497495
H         19.4212492100       30.5270535947        4.9718696695
H         21.1907643585       30.6217542097        4.7438288441
H         20.9281595040       29.5472892765        9.4006586985
H         21.8611609765       28.7687991407       11.2989668868
H         23.1345876085       27.6042830292       10.8007534602
H         22.9241282024       26.5242868704       12.8390831240
H         19.6753600885       27.0488365235       13.5867765443
H         19.8536325061       29.8392529515       14.2264096009
H         17.4732240213       27.9343379800       14.5374338328
H         17.3889161214       29.6805891823       14.4918378974
H         20.6378212846       28.9590762796       16.3995442355
H         17.8104671777       30.0476387911       16.6977349068
H         19.0779579976       30.1151115792       17.9077173711
H         19.4141488310       27.0041069721       16.2189154934
H         17.2655791356       26.7242744835       12.4781890677
H         18.4708746161       30.8702010502       12.3653337504
H         17.1497859658       26.6937540316        9.9987546095
H         18.3408563571       30.8380471700        9.8840974866
H         21.3802146866       30.9329422231       15.9278753825
H         21.0597605342       32.6514447804       15.8533913290
H         17.6816505265       28.7490108906        8.6964083005
H         20.9147735018       34.0140174817       18.0729348408
H         15.6936255818       31.5893580942       17.2294481228
H         17.7678275877       33.0208578031       13.7163972500
H         22.5423144344       31.3215125154       21.0972755036
H         21.8180798029       33.8030569904       20.5129596000
H         15.8319478425       32.3495829819       12.3076711726
H         13.8431945401       31.3005586765       13.3381471325
H         11.6795640466       29.8814515000       16.0039553983
H         11.8989417061       31.1344438540       14.7613725726
H         12.6743361879       29.5362993575       14.5705925984
    82
VM2 Rank=16     G=199.971           E=108.977           -TS=90.994              
C         20.6532097209       28.1953101239        6.2378250779
C         20.7636293400       26.8331777184        6.5850406204
C         20.4626809935       28.5867050387        4.7913819294
C         20.7247165457       29.1591982493        7.2664154261
C         20.9365595352       26.4424439200        7.9230391954
O         20.4061457220       27.7458175578        3.9080411105
C         20.3379607094       30.0608946392        4.4231830689
C         20.8996050727       28.7676441217        8.6040444624
C         21.0007304277       27.4064512665        8.9450472787
N         21.1697895876       27.0126592347       10.3019583466
C         22.1144895795       27.6917208476       11.1822940748
C         20.5203431374       25.9734147652       10.9417385790
C         21.9532970386       26.9590484171       12.5253837844
O         19.6901659837       25.2155495482       10.4705520175
O         20.9832147518       25.9226776474       12.2232920813
C         21.4825033305       27.9068274732       13.6454602815
N         20.1604325175       27.7862534705       14.0121955645
O         22.1988841005       28.7707448865       14.1222383452
C         19.3895266358       28.9038026543       14.5712482489
C         17.9286153815       28.8230076699       14.0602197323
C         19.5174678480       28.9338901088       16.1214813161
C         17.8520957844       28.8033247133       12.5389334769
C         18.8427943180       30.1635281064       16.7734523157
O         18.9560656801       27.7488825609       16.6824076946
C         17.4967410993       27.6246155095       11.8577219062
C         18.1569949796       29.9617137722       11.8011972788
N         19.2988086946       31.4727474754       16.2340259281
C         17.4417929826       27.6065573366       10.4542181688
C         18.0994770719       29.9455405206       10.3979825372
C         20.7554538259       31.7390170142       16.3478893430
S         18.2489414713       32.7904578974       16.5223840713
C         17.7411431671       28.7672747584        9.7239584916
C         21.2128949225       31.8916536665       17.7751188922
C         16.8111492776       32.3543791915       15.5189793702
O         17.9495987266       32.7998476974       17.9587019607
O         18.8835110788       33.9432004208       15.8712233471
S         21.8437861838       30.5871498755       18.7696123742
C         21.2127612936       33.0922732943       18.4376034260
C         15.6788497073       31.7688457458       16.1192088166
C         16.8340844164       32.5602841861       14.1257589541
C         22.0797891088       31.7051812725       20.1100128894
C         21.7025800946       32.9817799125       19.7708056830
C         14.5786585754       31.3816981114       15.3288358838
C         15.7372387266       32.1773273204       13.3379525208
O         13.4517915258       30.7926167635       15.8632543997
C         14.6144411388       31.5875986537       13.9406153906
C         13.3105881892       30.4812648638       17.2630643374
H         20.7140832413       26.0693659041        5.8127846664
H         20.6429602122       30.2188107994        7.0437146406
H         21.0203109434       25.3852034190        8.1614056071
H         20.2033069029       30.1668256023        3.3404093132
H         19.4732603527       30.5019684760        4.9316861320
H         21.2447731355       30.5992589966        4.7209269677
H         20.9387350563       29.5304884517        9.3763990528
H         21.8615885769       28.7550893176       11.2818199833
H         23.1373191298       27.5866214488       10.7990684117
H         22.9055069121       26.5138925665       12.8389856940
H         19.6487312963       27.0444174425       13.5504897373
H         19.8237704830       29.8360541877       14.1834261673
H         17.4394460337       27.9330751901       14.4761410186
H         17.3556141229       29.6794388394       14.4305429756
H         20.5875183496       28.9609185465       16.3666784169
H         17.7603956615       30.0544108172       16.6397542608
H         19.0215084276       30.1282124768       17.8562572671
H         19.3603942623       27.0083369930       16.1825796874
H         17.2661951473       26.7196902209       12.4134758724
H         18.4418381705       30.8745317400       12.3158461977
H         17.1740203451       26.6907388028        9.9330136959
H         18.3360000944       30.8437089311        9.8333646462
H         21.3326850880       30.9327556489       15.8783384004
H         21.0145473519       32.6513244151       15.7942741859
H         17.7031657486       28.7510752925        8.6376261295
H         20.8725460765       34.0266901194       18.0040155931
H         15.6706812785       31.6110678444       17.1933196763
H         17.7059012190       33.0082575023       13.6544394224
H         22.4817767836       31.3463669278       21.0489053104
H         21.7692420028       33.8272025292       20.4474464787
H         15.7592719590       32.3303983989       12.2615447147
H         13.7674323148       31.2861906395       13.3306207902
H         14.0939477599       29.7833539601       17.5859916142
H         13.3718762983       31.3927127567       17.8716920710
H         12.3359263012       30.0116909799       17.4466225442
    82
VM2 Rank=17     G=200.023           E=110.272           -TS=89.751              
C         19.9058615370       27.8820641619        6.1925983086
C         20.7695636033       26.7934849477        6.4411475299
C         19.2904705577       28.1168860927        4.8332397234
C         19.6174933087       28.7662477551        7.2522865339
C         21.3246953961       26.5959902421        7.7165836924
O         18.5433790800       29.0606328296        4.6288886855
C         19.6051072079       27.1572794960        3.6911150584
C         20.1740842044       28.5690760204        8.5264387620
C         21.0284114976       27.4787156911        8.7706872677
N         21.5862650751       27.2744791380       10.0632780786
C         22.1687488068       28.3729272627       10.8261685758
C         21.6709216542       26.0715752843       10.7387792424
C         22.6077780956       27.7092485342       12.1427939749
O         21.2851814049       24.9795654491       10.3589306741
O         22.2785499280       26.3109946244       11.9356652502
C         21.8862657476       28.3170332557       13.3611043987
N         20.8829284747       27.5473643002       13.9074997636
O         22.1192418977       29.4418931148       13.7702018587
C         19.7456693890       28.1301437893       14.6313791617
C         18.4676661110       27.3027884407       14.3440174192
C         20.0765900277       28.2771951413       16.1451173611
C         18.1674073043       27.2159910505       12.8533754819
C         18.9649901033       28.9848644718       16.9557437774
O         20.3226186826       26.9943480110       16.7182920385
C         17.6403030735       28.3303267576       12.1756231170
C         18.4317618667       26.0333794051       12.1381886025
N         18.5077177829       30.2754384952       16.3779468748
C         17.3768274591       28.2632362717       10.7974620664
C         18.1686240752       25.9654468298       10.7599852564
C         19.5445724901       31.3145707601       16.1353206330
S         16.9503123512       30.7719345766       16.8757189644
C         17.6398608483       27.0795851881       10.0895539217
C         19.9386808728       32.0767010093       17.3756865465
C         16.6300349064       32.2812987342       15.9342582422
O         16.0621055752       29.7521465866       16.3051270104
O         17.0057295283       31.0446819011       18.3163139154
S         20.7325290390       31.3907821249       18.7870108999
C         19.7748050143       33.4336747542       17.4921191762
C         16.5646671729       33.5268463170       16.5878502204
C         16.4530337712       32.2198322800       14.5384425916
C         20.7784238537       32.9749220012       19.5540864791
C         20.2437605748       33.9410031563       18.7377345407
C         16.3413894136       34.7039094231       15.8577502656
C         16.2249822412       33.3945656696       13.8041949983
O         16.3056613879       35.8925519067       16.5561223803
C         16.1714376895       34.6357658546       14.4602722405
C         16.1088899170       37.1726108925       15.9248984379
H         21.0194584171       26.0895305701        5.6530069439
H         18.9537369578       29.6119459501        7.0897897959
H         21.9879870062       25.7508010525        7.8823030953
H         20.6827925608       27.1518525392        3.4927191500
H         19.2815950047       26.1437803664        3.9537415654
H         19.0797398400       27.4716551884        2.7817686511
H         19.9222852777       29.2596899816        9.3262901133
H         21.4255565687       29.1593252685       11.0102478305
H         23.0308570485       28.7931427609       10.2929918963
H         23.6871600280       27.8311558318       12.2954408003
H         20.7605460790       26.6328751807       13.4906246301
H         19.5777854397       29.1380126922       14.2270965228
H         18.5717218835       26.2975468731       14.7717634401
H         17.6085808530       27.7592155487       14.8506412523
H         20.9929969631       28.8765817531       16.2289927785
H         18.1144684749       28.2938273970       17.0229115628
H         19.3163417495       29.1344452056       17.9835717180
H         20.9653330401       26.5614682726       16.1170097419
H         17.4367740969       29.2492781882       12.7180658003
H         18.8444895522       25.1665784291       12.6474190097
H         16.9707397647       29.1276621894       10.2783450213
H         18.3810895967       25.0513424362       10.2108936134
H         20.4486065887       30.8735651900       15.6988270885
H         19.1816962407       32.0296018510       15.3861349586
H         17.4413121317       27.0278501032        9.0219045859
H         19.3362358968       34.0633621535       16.7256955795
H         16.6987714998       33.5864036941       17.6647890393
H         16.4960660769       31.2618619967       14.0256904644
H         21.2035190761       33.0850552374       20.5435080030
H         20.1852917952       34.9901778086       19.0077018163
H         16.0913631051       33.3440644644       12.7261479243
H         15.9972999868       35.5334300718       13.8754180618
H         16.1220531743       37.9694470080       16.6792099336
H         16.9073618010       37.3736715056       15.1989811022
H         15.1411184481       37.2053682176       15.4079227039
    82
VM2 Rank=18     G=200.027           E=109.948           -TS=90.079              
C         19.7276015498       28.2012823812        6.3463391255
C         19.4806353160       29.0830416601        7.4204406926
C         19.1233430173       28.4220137738        4.9796450506
C         20.5631276955       27.0877164602        6.5700856319
C         20.0534474727       28.8529638084        8.6822051402
O         19.3458885880       27.6557895076        4.0555548372
C         18.2165586669       29.6250758862        4.7456101402
C         21.1339167663       26.8573179512        7.8326125631
C         20.8797064679       27.7354818828        8.9013066618
N         21.4520335488       27.5009867805       10.1828494974
C         22.0610633084       28.5781124969       10.9555761331
C         21.5309538611       26.2854251297       10.8366122293
C         22.5280409192       27.8828201138       12.2459066927
O         21.1263230267       25.2047493117       10.4441869712
O         22.1632015474       26.4954876109       12.0262951053
C         21.8616054548       28.4844440077       13.4980035957
N         20.8614995288       27.7261997737       14.0655798914
O         22.1307967257       29.5976974836       13.9164345566
C         19.7552561180       28.3223520556       14.8258860089
C         18.4532276129       27.5262225565       14.5594657669
C         20.1286226845       28.4432783796       16.3322866653
C         18.1387452710       27.4245216918       13.0719218855
C         19.0460348203       29.1442266528       17.1871392963
O         20.3837345881       27.1501719221       16.8775223462
C         18.3163628624       26.2086138926       12.3863476139
C         17.6897785746       28.5555936025       12.3658149544
N         18.5945693820       30.4519598726       16.6458042287
C         18.0431530288       26.1242028316       11.0109818320
C         17.4151753699       28.4719308351       10.9909664014
C         19.6518052785       31.4728009189       16.4163823879
S         17.0630688251       30.9789615749       17.1910786153
C         17.5915958239       27.2552357236       10.3130172931
C         20.2692336552       31.9834248322       17.6927508781
C         16.6691646161       32.3632205299       16.0995257692
O         16.1554405026       29.9003260214       16.7816208825
O         17.1856672757       31.3969328771       18.5917853678
S         21.5926395749       31.2051567221       18.5495670719
C         19.8977879774       33.1632054359       18.2849150415
C         16.5091904705       32.1367273533       14.7193069831
C         16.5360364599       33.6689722872       16.6090937932
C         21.5934989507       32.4930885075       19.7504256837
C         20.6480980156       33.4467573609       19.4622339975
C         16.2310350917       33.2000724581       13.8483872287
C         16.2544314130       34.7369533147       15.7415754210
O         16.0972271415       32.9088315287       12.5069311367
C         16.1042450332       34.5058793598       14.3634487394
C         15.8314301209       33.9097728808       11.5055721938
H         18.8423323700       29.9521009226        7.2924564341
H         20.7721765900       26.3932104849        5.7600185846
H         19.8362697615       29.5416315977        9.4937500648
H         18.7672222219       30.5524222270        4.9395142159
H         17.8649100198       29.6331818874        3.7073271120
H         17.3483937359       29.5749368082        5.4123972668
H         21.7754853764       25.9916072111        7.9759025094
H         21.3270304729       29.3636915867       11.1763085148
H         22.9120804784       29.0061064480       10.4108803701
H         23.6143829971       27.9790307588       12.3635644763
H         20.7065714664       26.8218161282       13.6371674138
H         19.5979885342       29.3383755120       14.4383648266
H         18.5348932467       26.5248525482       15.0009318021
H         17.6114024748       28.0127919943       15.0672792188
H         21.0503458581       29.0369152624       16.3972240555
H         18.1910018598       28.4600368932       17.2639560416
H         19.4281784891       29.2747636261       18.2076235845
H         21.0011134702       26.7216391038       16.2472425989
H         18.6699399742       25.3282814532       12.9164243347
H         17.5568238843       29.5015581657       12.8818344360
H         18.1891838564       25.1838775776       10.4850322489
H         17.0689762138       29.3498398319       10.4513515865
H         20.4529800870       31.0604213642       15.7904481087
H         19.2491418922       32.3236673961       15.8527141891
H         17.3858970554       27.1904316088        9.2474768028
H         19.1188325043       33.8155465891       17.9086312113
H         16.6046600783       31.1314082436       14.3203410747
H         16.6503281269       33.8551089942       17.6745453715
H         22.2925441191       32.4621468659       20.5763892704
H         20.4860619608       34.3329929080       20.0666688851
H         16.1532980762       35.7450827289       16.1366428423
H         15.8887739519       35.3445089240       13.7088614077
H         15.7707013420       33.4426573333       10.5145157237
H         14.8778010307       34.4150299162       11.7060503722
H         16.6336087570       34.6587322836       11.4838136176
    82
VM2 Rank=19     G=200.033           E=110.273           -TS=89.760              
C         19.9231862618       27.8728729835        6.2005098917
C         19.6192374714       28.7533265212        7.2610793267
C         19.3250314462       28.0472638808        4.8244690141
C         20.8104168315       26.8049929690        6.4471837789
C         20.1874022139       28.5666231295        8.5320967368
O         19.5970950750       27.2829103837        3.9121537869
C         18.3614395970       29.2000698292        4.5658217357
C         21.3766854174       26.6179383368        7.7188759340
C         21.0662696807       27.4950201614        8.7732673000
N         21.6338670537       27.3037562620       10.0634626333
C         22.2008298744       28.4139996718       10.8209114819
C         21.7422453429       26.1041888792       10.7414007447
C         22.6515672412       27.7622379425       12.1395218709
O         21.3738954322       25.0047399531       10.3658217342
O         22.3499246347       26.3573020205       11.9354505180
C         21.9162489303       28.3586068632       13.3552524122
N         20.9260021665       27.5715577738       13.9008493689
O         22.1278716028       29.4881209934       13.7631224979
C         19.7786811678       28.1338622013       14.6250413757
C         18.5164098444       27.2815231337       14.3410985986
C         20.1086641842       28.2895017655       16.1381633417
C         18.2129881000       27.1892406291       12.8514550551
C         18.9858242963       28.9792906007       16.9487222025
O         20.3777118516       27.0122615532       16.7135377502
C         17.6540545773       28.2903538801       12.1776195626
C         18.5046938243       26.0147840447       12.1334756537
N         18.5056809370       30.2605653931       16.3688296605
C         17.3858499701       28.2180790705       10.8006127148
C         18.2370845873       25.9417349609       10.7564036598
C         19.5234193772       31.3182710426       16.1257648648
S         16.9377956224       30.7280723050       16.8618034165
C         17.6761211358       27.0424394595       10.0899688078
C         19.8953998863       32.0957971985       17.3634615604
C         16.5954885658       32.2366093380       15.9266546866
O         16.0698383864       29.6956594849       16.2828492557
O         16.9828216152       30.9954881064       18.3037638322
S         20.6790899820       31.4316097937       18.7907796990
C         19.7156788111       33.4519485840       17.4651866081
C         16.5090790875       33.4778555723       16.5859980641
C         16.4221044436       32.1790276389       14.5302121338
C         20.6989748833       33.0232468736       19.5433154053
C         20.1640049537       33.9758772756       18.7115144191
C         16.2686669761       34.6547238251       15.8610636355
C         16.1769083583       33.3535184940       13.8011072864
O         16.2129751906       35.8393097351       16.5649965192
C         16.1025005994       34.5905781945       14.4629490650
C         15.9982725115       37.1192412906       15.9394003984
H         18.9393626550       29.5873749837        7.1155013734
H         21.0633558759       26.1124063472        5.6480644792
H         19.9251801046       29.2513016540        9.3337845502
H         18.0222007959       29.1785289493        3.5236095790
H         17.4890518705       29.1135723113        5.2233062685
H         18.8621714815       30.1562814874        4.7548370475
H         22.0583036982       25.7868018533        7.8810172678
H         21.4466048259       29.1903369344       11.0027408076
H         23.0559887309       28.8444106989       10.2846861299
H         23.7280803002       27.9059583231       12.2934424471
H         20.8209042998       26.6542814112       13.4854610282
H         19.5911039767       29.1376702436       14.2192703441
H         18.6414781894       26.2783594033       14.7680931714
H         17.6500321790       27.7206516105       14.8505488761
H         21.0145715927       28.9048919052       16.2199207211
H         18.1474336279       28.2738012080       17.0181144680
H         19.3356502675       29.1368195612       17.9758580602
H         21.0276615886       26.5896865358       16.1127156744
H         17.4289542200       29.2028961560       12.7223774082
H         18.9418786373       25.1582659301       12.6396881778
H         16.9546730213       29.0722018430       10.2847260566
H         18.4705980668       25.0340816365       10.2051466948
H         20.4383709187       30.8926758104       15.6968336685
H         19.1505184485       32.0213963241       15.3702557969
H         17.4736077365       26.9864487519        9.0233371880
H         19.2791886921       34.0696066142       16.6878122088
H         16.6403641222       33.5344540010       17.6634447581
H         16.4813236132       31.2243447538       14.0129688541
H         21.1107471629       33.1471274731       20.5367370404
H         20.0909021655       35.0268034498       18.9709007796
H         16.0461826461       33.3060710231       12.7225689199
H         15.9153383516       35.4881694496       13.8820217992
H         15.9975231485       37.9125416585       16.6975419359
H         16.7953291374       37.3358931264       15.2164218791
H         15.0313491789       37.1397886271       15.4202176967
    82
VM2 Rank=20     G=200.040           E=108.816           -TS=91.224              
C         20.5414886061       28.0675259013        6.0185835292
C         19.4855832233       27.5439294017        6.7914508096
C         20.3170493825       28.3816813226        4.5581880276
C         21.7884178299       28.2813528475        6.6438253511
C         19.6682947949       27.2442470412        8.1511347522
O         19.2342721643       28.1917939414        4.0270078265
C         21.4635621756       28.9469260184        3.7273339804
C         21.9695249743       27.9821882834        8.0047405028
C         20.9109047910       27.4625768216        8.7740705272
N         21.0930778190       27.1727254896       10.1584108653
C         21.8674912955       28.0529829092       11.0293320824
C         20.5654348275       26.0988612367       10.8542449905
C         21.8661532771       27.3211621247       12.3814070939
O         19.8684619788       25.2000673903       10.4155309443
O         20.9619335076       26.2103736220       12.1540539867
C         21.4443474105       28.2255893299       13.5540352660
N         20.2259981890       27.9310337630       14.1226775166
O         22.1012878797       29.1873575321       13.9154504442
C         19.4127155279       28.9379390809       14.8155037627
C         17.9209662227       28.7169618171       14.4605237608
C         19.7149478687       28.9330672513       16.3411130221
C         17.6831878475       28.7271375452       12.9555275241
C         18.9966339401       30.0629764634       17.1162191486
O         19.3472614246       27.6777892257       16.9095843234
C         17.9028568645       29.9016414419       12.2127009089
C         17.2647986124       27.5592447388       12.2918594864
N         19.2589075734       31.4305992631       16.5927306446
C         17.6989020825       29.9124656589       10.8234952737
C         17.0567717120       27.5696493107       10.9028220675
C         20.6848028148       31.8442763698       16.5641818755
S         18.1176018350       32.6210584253       17.0425762713
C         17.2702648467       28.7475666677       10.1687949533
C         21.2777678688       31.9953414005       17.9407289315
C         16.6324297348       32.0582485808       16.1829596473
O         17.9808801984       32.5673399686       18.5024543394
O         18.5527227935       33.8486076055       16.3647791361
S         22.1418582022       30.7312688841       18.8033873047
C         21.2286644115       33.1659580457       18.6531729943
C         16.5120308112       32.2479039630       14.7926716320
C         15.6134598453       31.3834193546       16.8827871219
C         22.4090758031       31.8216894760       20.1605848056
C         21.8700046217       33.0622917230       19.9210455007
C         15.3968976912       31.7527840355       14.1005921069
C         14.4907443510       30.8955444336       16.1946275468
O         15.3472738060       31.9475608454       12.7375102047
C         14.3828543800       31.0752389899       14.8053307559
C         14.5454321816       31.1280544575       11.8652564527
H         18.5141580392       27.3668770951        6.3362272004
H         22.6298495457       28.6801082037        6.0850280241
H         18.8343289149       26.8417125914        8.7179236343
H         21.7994989801       29.8996276345        4.1519685008
H         22.3017969243       28.2411985093        3.7167886116
H         21.1313843012       29.1168115351        2.6965315570
H         22.9440005975       28.1524756814        8.4529644750
H         21.3741274254       29.0312631623       11.1058092079
H         22.8940121270       28.1796908579       10.6656085625
H         22.8712759452       26.9398857979       12.5998418955
H         19.7518939152       27.1253833255       13.7324657516
H         19.7000968022       29.9249842098       14.4270754682
H         17.5753543218       27.7698880264       14.8937599908
H         17.3077408146       29.4980233194       14.9207906353
H         20.7977854803       29.0667695742       16.4654154103
H         17.9219520095       29.8476031727       17.0921174917
H         19.2950727104       30.0087438639       18.1714972214
H         19.7686395398       27.0004014626       16.3392917118
H         18.2275350045       30.8097148063       12.7122749056
H         17.0988268191       26.6423474930       12.8509714006
H         17.8660696690       30.8249310492       10.2569996036
H         16.7308540551       26.6645952607       10.3964104821
H         21.2851975892       31.1196785746       16.0000991671
H         20.7883938733       32.7971646120       16.0282718423
H         17.1067885791       28.7576442318        9.0941706719
H         20.7502776621       34.0735071794       18.3004812885
H         17.2954972617       32.7617993573       14.2423580157
H         15.6974124033       31.2285336291       17.9561761345
H         22.9455233230       31.4754164064       21.0347584524
H         21.9244985894       33.8864728557       20.6244530587
H         13.7064274358       30.3724087817       16.7365836410
H         13.5100441717       30.6898093032       14.2880375782
H         14.7271854547       31.4056276679       10.8194659100
H         14.8044756455       30.0680314827       11.9885331533
H         13.4766559084       31.2618248419       12.0741499931
    82
VM2 Rank=21     G=200.060           E=108.220           -TS=91.840              
C         20.1022962310       29.0357235332        7.0981090034
C         20.7112155813       27.7641687898        7.1226173444
C         19.6213905224       29.6110593513        5.7868934112
C         19.9597735449       29.7365456832        8.3149080855
C         21.1619734164       27.2041991824        8.3293156060
O         19.7539324045       28.9998485347        4.7383941498
C         18.9559497924       30.9826613172        5.7686618843
C         20.4124341789       29.1766712870        9.5209264047
C         21.0115973220       27.9036325065        9.5400393457
N         21.4575614055       27.3348221730       10.7657571827
C         22.2028910657       28.1190879031       11.7441760132
C         21.2727126087       26.0289843210       11.1813670465
C         22.4109085469       27.1404904963       12.9122982941
O         20.7214953262       25.1276859248       10.5738635956
O         21.8385627642       25.9034014735       12.4157665963
C         21.7278950352       27.6429362588       14.1977740957
N         20.5266565030       27.0459614024       14.5154951760
O         22.1625626966       28.5813971151       14.8428859915
C         19.4489132520       27.7841918613       15.1870357328
C         18.0741194795       27.2377916051       14.7285908623
C         19.6465276869       27.7831813569       16.7297329136
C         17.8881874368       27.3536070592       13.2217121802
C         18.6361285447       28.6842694614       17.4820350374
O         19.5515038094       26.4520486065       17.2328959354
C         17.6686582568       28.6132010404       12.6351040919
C         17.9464639100       26.2108263227       12.4034364306
N         18.5173680424       30.0630027094       16.9355316811
C         17.5060197232       28.7300966633       11.2447939553
C         17.7839478974       26.3270282287       11.0129840729
C         19.7450628898       30.8852718622       17.0998717909
S         17.0125827871       30.8037732808       17.2825022172
C         17.5646357865       27.5862773024       10.4331209680
C         19.9736955025       31.8603501486       15.9733210498
C         16.9646794592       32.3610887905       16.3665391741
O         16.0357144826       29.9315930350       16.6192483253
O         16.9809864524       31.0345969105       18.7316303491
S         20.0673787873       31.4382081945       14.2678603027
C         20.2057196237       33.1956794488       16.1823402344
C         16.8221185537       32.3502284213       14.9650906467
C         17.0538366360       33.5907925358       17.0484051025
C         20.3584758487       33.1227050885       13.8486192927
C         20.4131546155       33.9141391810       14.9695876328
C         16.7993503073       33.5600175990       14.2444733614
C         17.0172162159       34.7978705457       16.3321295314
O         16.6899920995       33.6016204700       12.8702775362
C         16.8931174928       34.7794963275       14.9332840966
C         16.8086354750       32.4337686897       12.0355962683
H         20.8355366883       27.2029090197        6.1997173357
H         19.4954038235       30.7176572350        8.3417851209
H         21.6282016193       26.2223340023        8.3183820986
H         18.0585414108       30.9718417538        6.3974394304
H         19.6512485188       31.7412934218        6.1452719843
H         18.6668057729       31.2454556558        4.7444104337
H         20.2764978179       29.7328857048       10.4439956734
H         21.6293953047       28.9983069041       12.0648002140
H         23.1655738629       28.4365451470       11.3240137114
H         23.4793620417       27.0134506167       13.1256556820
H         20.2593012387       26.2714272848       13.9206793012
H         19.5108275169       28.8251564880       14.8512495486
H         17.9625918090       26.1946558198       15.0505947570
H         17.2693623297       27.7939693376       15.2240906553
H         20.6571059911       28.1593735777       16.9335133828
H         17.6609984780       28.1815859380       17.4409975524
H         18.9171531728       28.7274132343       18.5426648845
H         20.1393124313       25.9168248535       16.6579193196
H         17.6263820142       29.5003093099       13.2593412865
H         18.1201780167       25.2318428978       12.8419956762
H         17.3393472282       29.7044470887       10.7942182128
H         17.8378269639       25.4416877505       10.3842339718
H         19.7077447907       31.4214520651       18.0580533307
H         20.6365868971       30.2488630228       17.1379548421
H         17.4477143600       27.6760209034        9.3560401032
H         20.2166418994       33.6665180597       17.1591736633
H         16.7418975386       31.3988826628       14.4506584183
H         17.1560129293       33.6104939319       18.1308707076
H         20.4752998443       33.4102641948       12.8118152608
H         20.5923965789       34.9835044906       14.9405145574
H         17.0906651643       35.7461474790       16.8589590800
H         16.8733908353       35.7128678124       14.3778778755
H         17.7816539329       31.9494085068       12.1875769582
H         16.0110408598       31.7133239658       12.2581088519
H         16.7273584233       32.7186467953       10.9790746692
    82
VM2 Rank=22     G=200.062           E=108.851           -TS=91.212              
C         20.5489384570       28.0905374053        6.0249382855
C         19.5076414251       27.5356806761        6.7986899169
C         20.3666647157       28.4196932675        4.5619816712
C         21.7887657872       28.3373087571        6.6486354367
C         19.7046335096       27.2399992241        8.1576459385
O         21.2752408144       28.8965519250        3.9003820764
C         19.0217996268       28.1536859629        3.8949401483
C         21.9839840106       28.0423525941        8.0081111520
C         20.9420669619       27.4922062598        8.7785932339
N         21.1352163167       27.2054645404       10.1621006564
C         21.8864607980       28.1057037166       11.0328787615
C         20.6394994546       26.1161183844       10.8573650597
C         21.9121327077       27.3696570899       12.3823590806
O         19.9657617074       25.1995987926       10.4190164513
O         21.0353938052       26.2368446204       12.1565487539
C         21.4749095643       28.2592904700       13.5604706975
N         20.2561015032       27.9481200596       14.1192025984
O         22.1201073008       29.2244900654       13.9336561368
C         19.4277674079       28.9424374796       14.8123049700
C         17.9404614506       28.7062677031       14.4484267896
C         19.7218086574       28.9340871987       16.3395083795
C         17.7099933226       28.7180338351       12.9422446670
C         18.9876203017       30.0533662033       17.1151680191
O         19.3641186548       27.6726765877       16.9007283465
C         17.9304290657       29.8939518083       12.2018004728
C         17.2966183846       27.5502261193       12.2753053483
N         19.2394994034       31.4256919392       16.5989163910
C         17.7327126824       29.9060129382       10.8116946005
C         17.0942832797       27.5620209058       10.8854546094
C         20.6612470917       31.8539978125       16.5818685838
S         18.0828308224       32.6026892673       17.0448496194
C         17.3089539152       28.7411587484       10.1537565773
C         21.2431643293       32.0053557106       17.9630834089
C         16.6098417868       32.0279788704       16.1722580755
O         17.9360673024       32.5421635622       18.5034847277
O         18.5102279345       33.8371426425       16.3747251428
S         22.1147464979       30.7467575340       18.8262052614
C         21.1766514861       33.1722255259       18.6802436132
C         16.4983700746       32.2202295022       14.7815672165
C         15.5920730320       31.3414649246       16.8623950888
C         22.3609451472       31.8339561487       20.1899487225
C         21.8103181816       33.0697947802       19.9520692829
C         15.3933785824       31.7163657277       14.0795898527
C         14.4794252614       30.8447417703       16.1642924475
O         15.3523608165       31.9143653811       12.7166838521
C         14.3804946940       31.0272191134       14.7746932266
C         14.5642719671       31.0903164484       11.8362166512
H         18.5369581798       27.3272290203        6.3588512384
H         22.6100995501       28.7613622941        6.0759838784
H         18.8842541897       26.8134965547        8.7268817665
H         18.2352415374       28.7298070698        4.3951722270
H         19.0611013934       28.4505085421        2.8403740043
H         18.7795835945       27.0865550247        3.9529642509
H         22.9547173010       28.2397428232        8.4532242171
H         21.3640387677       29.0683628270       11.1145991413
H         22.9072781148       28.2645321880       10.6657315622
H         22.9280975965       27.0135428073       12.5930130079
H         19.7928462119       27.1402601509       13.7206747611
H         19.7061558436       29.9344162250       14.4299843437
H         17.6030394770       27.7542238374       14.8771898631
H         17.3162912102       29.4791452183       14.9077381371
H         20.8025031606       29.0784559835       16.4703328349
H         17.9152883382       29.8274669792       17.0836659078
H         19.2802487905       29.9975939282       18.1719893792
H         19.7956179648       27.0021204171       16.3299172078
H         18.2506277912       30.8022395480       12.7038879588
H         17.1296767705       26.6323935409       12.8325943632
H         17.9005490682       30.8194983531       10.2470521912
H         16.7716312826       26.6571513507       10.3766669463
H         21.2728480851       31.1378799656       16.0189999882
H         20.7588039278       32.8100973155       16.0505693271
H         17.1499324545       28.7522822313        9.0785270854
H         20.6910231540       34.0761709191       18.3281955124
H         17.2811248583       32.7430243032       14.2386695443
H         15.6692514201       31.1844467967       17.9359828349
H         22.8950195946       31.4895521903       21.0663115778
H         21.8511517444       33.8913906651       20.6594164009
H         13.6960298173       30.3126205899       16.6987806234
H         13.5154288548       30.6348439582       14.2496741103
H         14.8315520384       30.0322466772       11.9586801210
H         13.4928312142       31.2142885093       12.0373559845
H         14.7515389759       31.3722549573       10.7925708335
    82
VM2 Rank=23     G=200.063           E=108.158           -TS=91.905              
C         20.0985895146       29.0466379415        7.0880571477
C         20.6965625117       27.7681854473        7.1122472271
C         19.6051309324       29.6717117652        5.8045805280
C         19.9636234283       29.7480283945        8.3035008373
C         21.1418087772       27.2080003549        8.3213285116
O         19.0873607412       30.7772997577        5.7949176580
C         19.7533324368       28.9088750848        4.4929483774
C         20.4103570735       29.1881511573        9.5112973208
C         20.9978407232       27.9098817060        9.5317436683
N         21.4388070583       27.3382344403       10.7581326785
C         22.1854796917       28.1186461072       11.7386701894
C         21.2478790371       26.0328088061       11.1724971229
C         22.3925595158       27.1366545177       12.9041271851
O         20.6935765506       25.1343335141       10.5635919626
O         21.8123940680       25.9034468245       12.4071046144
C         21.7171507557       27.6395336715       14.1934298810
N         20.5146736136       27.0471012239       14.5147290585
O         22.1584502267       28.5747690550       14.8387177850
C         19.4420837361       27.7893513309       15.1900606605
C         18.0637237824       27.2512688412       14.7324186434
C         19.6424179739       27.7834236772       16.7323677506
C         17.8786122764       27.3660005533       13.2253273609
C         18.6359130383       28.6852162881       17.4890070070
O         19.5443144960       26.4511404561       17.2318739088
C         17.6757109593       28.6269850806       12.6357231747
C         17.9220425159       26.2206255726       12.4097380006
N         18.5210692320       30.0660433200       16.9470309948
C         17.5151245289       28.7427205577       11.2450915033
C         17.7613205154       26.3356599574       11.0189792731
C         19.7512596403       30.8839642345       17.1142487328
S         17.0187811115       30.8106429312       17.2966969098
C         17.5589831275       27.5963670071       10.4361100596
C         19.9825264722       31.8625083320       15.9913153700
C         16.9731481301       32.3677022882       16.3802418460
O         16.0384012775       29.9410893620       16.6351776938
O         16.9899081927       31.0414285346       18.7458893742
S         20.0788554357       31.4455355853       14.2847722090
C         20.2151291175       33.1970073741       16.2049192096
C         16.8320797376       32.3566028537       14.9786272700
C         17.0624882001       33.5974765633       17.0619465431
C         20.3717116464       33.1311505726       13.8712467328
C         20.4250609447       33.9190832272       14.9947483249
C         16.8108432098       33.5662917955       14.2577739183
C         17.0274684876       34.8044298533       16.3453987713
O         16.7026570567       33.6078262195       12.8834930339
C         16.9047329185       34.7858426333       14.9464428141
C         16.8240555830       32.4403152283       12.0487111556
H         20.8219126547       27.1946148156        6.1987746732
H         19.5054079389       30.7339400247        8.3144781224
H         21.5997086980       26.2221652355        8.3125839726
H         19.3460823376       29.5022844479        3.6660481317
H         20.8119511559       28.7065446567        4.2949996907
H         19.2088851766       27.9594979489        4.5483980992
H         20.2790658515       29.7479959242       10.4327601374
H         21.6127712423       28.9974109030       12.0619620903
H         23.1483956456       28.4364556069       11.3193072707
H         23.4611736461       27.0036587583       13.1130059291
H         20.2418625961       26.2749883884       13.9191934084
H         19.5089148239       28.8308843686       14.8568527924
H         17.9455772988       26.2093186894       15.0558911722
H         17.2626191596       27.8133494562       15.2271673399
H         20.6545243930       28.1560100923       16.9352521491
H         17.6591725405       28.1857129689       17.4475230043
H         18.9183915673       28.7239970557       18.5494185307
H         20.1290066160       25.9157791823       16.6538422071
H         17.6452265318       29.5161107010       13.2577570184
H         18.0829943276       25.2405091778       12.8506309925
H         17.3619097749       29.7181423931       10.7919097704
H         17.8038109593       25.4482418207       10.3923019300
H         19.7157405100       31.4166896607       18.0744250009
H         20.6408572012       30.2447172954       17.1497975997
H         17.4438733568       27.6854426341        9.3587522793
H         20.2247127665       33.6647899122       17.1832340295
H         16.7516680326       31.4051885918       14.4643007982
H         17.1635449673       33.6173190185       18.1445143414
H         20.4904397137       33.4218321665       12.8355240387
H         20.6050531587       34.9884155381       14.9692776261
H         17.1010438602       35.7527640108       16.8721084324
H         16.8861540482       35.7191144577       14.3908279085
H         17.7977840838       31.9576256660       12.2014002332
H         16.0275056432       31.7184239172       12.2702563129
H         16.7433225081       32.7252116534       10.9921329084
    82
VM2 Rank=24     G=200.079           E=109.990           -TS=90.090              
C         19.7172880213       28.2102851540        6.3338970379
C         19.4729504927       29.0909010312        7.4074440355
C         19.0899970981       28.4801782923        4.9865399560
C         20.5497614964       27.0924313164        6.5574120137
C         20.0416807254       28.8615954925        8.6707953584
O         18.3710126965       29.4497971024        4.8036243925
C         19.3565315970       27.5238224152        3.8295434628
C         21.1169291426       26.8627814675        7.8221189042
C         20.8639433009       27.7416027586        8.8908974464
N         21.4338337816       27.5050866400       10.1732476413
C         22.0415909379       28.5809517672       10.9487474685
C         21.5114496502       26.2885438923       10.8253942565
C         22.5109466843       27.8826929348       12.2366316143
O         21.1062628776       25.2087206094       10.4311562780
O         22.1427960598       26.4964312184       12.0159135603
C         21.8500735169       28.4834960973       13.4920416985
N         20.8507825398       27.7259116598       14.0618814041
O         22.1225741147       29.5956264452       13.9113200058
C         19.7472832453       28.3228309224       14.8255309264
C         18.4425936614       27.5313466514       14.5582148871
C         20.1229477570       28.4381223468       16.3317470901
C         18.1269060867       27.4342359774       13.0706382652
C         19.0435981443       29.1402289316       17.1896968860
O         20.3743252831       27.1426066200       16.8729861269
C         18.3003131905       26.2194422032       12.3819946148
C         17.6816529030       28.5686056633       12.3674936133
N         18.5968934295       30.4515335028       16.6530938578
C         18.0267229006       26.1394230959       11.0064407402
C         17.4069057349       28.4893742853       10.9924137990
C         19.6578736654       31.4693278957       16.4275099830
S         17.0673351350       30.9818076877       17.2005754756
C         17.5791580860       27.2738228146       10.3113647685
C         20.2765007745       31.9734140057       17.7058861601
C         16.6797288106       32.3748252144       16.1179184962
O         16.1554872715       29.9096198436       16.7836479713
O         17.1907954072       31.3904435476       18.6039657146
S         21.5964574370       31.1873468200       18.5608988309
C         19.9090243992       33.1525437123       18.3018094570
C         16.5224600393       32.1587266432       14.7357057081
C         16.5486663345       33.6771919437       16.6366147961
C         21.6012622804       32.4711717962       19.7661410038
C         20.6595971750       33.4293154563       19.4805700789
C         16.2490509607       33.2291028231       13.8719015582
C         16.2718167295       34.7521520448       15.7762318603
O         16.1177151740       32.9480167913       12.5280465454
C         16.1243172595       34.5314565295       14.3961277603
C         15.8582059907       33.9571079353       11.5332264901
H         18.8345655617       29.9593008624        7.2641179530
H         20.7660016587       26.3902969351        5.7577807698
H         19.8246961526       29.5518256391        9.4809961357
H         18.8276867382       27.8647580355        2.9318577828
H         20.4303600525       27.4864573929        3.6143914331
H         19.0049304173       26.5182255835        4.0863841623
H         21.7560189860       25.9955355356        7.9674853023
H         21.3059344495       29.3641656757       11.1725389316
H         22.8912087217       29.0125336956       10.4046984012
H         23.5978884347       27.9763498925       12.3507645034
H         20.6931127133       26.8225211496       13.6323629250
H         19.5924203108       29.3405284584       14.4414229525
H         18.5214961528       26.5286534707       14.9971668648
H         17.6026364671       28.0192993818       15.0677927646
H         21.0467531622       29.0284509130       16.3972835641
H         18.1859431496       28.4591176528       17.2646528552
H         19.4268063358       29.2657519472       18.2104069934
H         20.9898937783       26.7139488618       16.2410259997
H         18.6510332639       25.3366134267       12.9098136143
H         17.5518952056       29.5137054097       12.8859629221
H         18.1695132231       25.1999480304       10.4780916185
H         17.0639063322       29.3698261821       10.4548546011
H         20.4577896632       31.0561729933       15.8004754621
H         19.2585634505       32.3235397694       15.8665354523
H         17.3733644865       27.2126826404        9.2455845214
H         19.1327720035       33.8090674065       17.9272216294
H         16.6165101085       31.1561073546       14.3296082471
H         16.6609390463       33.8553247119       17.7036540161
H         22.2996298374       32.4348338781       20.5924572568
H         20.5004435135       34.3140916886       20.0879017586
H         16.1722888462       35.7576416619       16.1783720047
H         15.9125093719       35.3753598994       13.7471454033
H         15.7987494940       33.4974153989       10.5386234861
H         14.9057316429       34.4641692620       11.7346300410
H         16.6629928963       34.7034522850       11.5191998256
    82
VM2 Rank=25     G=200.172           E=108.338           -TS=91.834              
C         20.2389990022       28.2966829205        6.3255394593
C         20.3136597359       29.2630631871        7.3514727453
C         19.9359225973       28.6754125789        4.8950206667
C         20.4556573707       26.9442479230        6.6600916448
C         20.5946266066       28.8831709250        8.6742954904
O         19.8780514832       27.8326752790        4.0135301075
C         19.6967379709       30.1388863986        4.5409097360
C         20.7344985855       26.5650758617        7.9834503164
C         20.8004369582       27.5308533600        9.0039233483
N         21.0765580254       27.1485257784       10.3470005082
C         22.0129797073       27.8987583194       11.1772625674
C         20.5513167841       26.0579052137       11.0152355340
C         22.0081504858       27.1374375410       12.5140437272
O         19.7581711354       25.2370978380       10.5876610160
O         21.0959247971       26.0365206465       12.2651138892
C         21.5587990826       28.0303279355       13.6867553434
N         20.2846823855       27.8001157071       14.1556700671
O         22.2415386610       28.9425460181       14.1211239011
C         19.4701484474       28.8513107257       14.7778337723
C         17.9891238989       28.6566085735       14.3651673150
C         19.7030949456       28.8837900954       16.3154276037
C         17.8139127055       28.6161409351       12.8519940597
C         18.9830538401       30.0531586710       17.0280010870
O         19.2790938914       27.6550601113       16.9019202378
C         17.4407044932       27.4215692008       12.2091465330
C         18.0457961025       29.7700953037       12.0816071894
N         19.3105975863       31.3987272139       16.4849375954
C         17.2948523381       27.3838043544       10.8125206424
C         17.8977120280       29.7341421924       10.6856116219
C         20.7457227880       31.7784760313       16.5289239174
S         18.1787291833       32.6307361779       16.8382519871
C         17.5217671789       28.5402861621       10.0502559932
C         21.2498741484       32.0092790982       17.9302547818
C         16.7207964989       32.0777726967       15.9264667420
O         17.9673248368       32.6266966639       18.2902963428
O         18.6748372033       33.8240436645       16.1414520964
S         21.2525449122       33.5641835901       18.7498431644
C         21.8050528981       31.0197475479       18.7009113434
C         16.6609374650       32.2443191164       14.5292888127
C         15.6594850497       31.4377284710       16.5954767433
C         21.9920449183       32.8307047689       20.1700160041
C         22.2216142143       31.4898994896       19.9795937360
C         15.5639329802       31.7609172487       13.8007981329
C         14.5557344948       30.9602141333       15.8704292752
O         15.5734193958       31.9340701374       12.4337728880
C         14.5080630391       31.1169446005       14.4750345168
C         14.7693171431       31.1362695927       11.5436657962
H         20.1530059939       30.3155674477        7.1381977162
H         20.4068683144       26.1788537623        5.8893590138
H         20.6350557294       29.6475187060        9.4449741723
H         20.5847800931       30.7330109977        4.7842115988
H         19.4890296863       30.2361488944        3.4689270905
H         18.8392426664       30.5249138971        5.1035096996
H         20.8992666590       25.5150865621        8.2112000558
H         21.6706254520       28.9325976528       11.3138219955
H         23.0135221606       27.8939923318       10.7267230724
H         23.0112859345       26.7582285219       12.7445429892
H         19.7987372190       27.0253028988       13.7206648694
H         19.8027904921       29.8170386382       14.3717879524
H         17.5980832935       27.7360243658       14.8165581953
H         17.3790568532       29.4701700363       14.7701735528
H         20.7824329237       28.9920986157       16.4827974604
H         17.9050413913       29.8674700892       16.9567589856
H         19.2282827726       30.0175377738       18.0976788948
H         19.6964319837       26.9516098190       16.3607224681
H         17.2666063927       26.5193772239       12.7892755051
H         18.3361184359       30.6982915999       12.5649636198
H         17.0138059130       26.4557913863       10.3208577191
H         18.0733854202       30.6311341065       10.0975801559
H         21.3659672053       31.0135237734       16.0453052848
H         20.9030889681       32.6981651813       15.9499885018
H         17.4134660806       28.5092390106        8.9690315330
H         21.9165225582       29.9891520945       18.3828754630
H         17.4763661787       32.7327212940       14.0027137515
H         15.6956619436       31.3019329117       17.6741080668
H         22.2099520307       33.4368048101       21.0400750639
H         22.6767955168       30.8471257183       20.7257409527
H         13.7389647095       30.4635503704       16.3888352270
H         13.6487615943       30.7402318825       13.9294844557
H         14.9997634107       31.3908374367       10.5016306906
H         14.9784957216       30.0682002208       11.6900672249
H         13.7004342589       31.3178723553       11.7121528809
    82
VM2 Rank=26     G=200.180           E=108.342           -TS=91.837              
C         20.2447359960       28.3253247392        6.3173039359
C         20.4569370710       26.9696528553        6.6481617727
C         19.9426707252       28.7628501335        4.9034326795
C         20.3199912109       29.2869419680        7.3454755802
C         20.7319214383       26.5897289405        7.9725118818
O         19.7607695163       29.9381632948        4.6275496007
C         19.8610063599       27.7183102993        3.7959235210
C         20.5967086972       28.9064812427        8.6686485188
C         20.7981821416       27.5530612190        8.9956127202
N         21.0709226720       27.1670089987       10.3383959673
C         22.0053540337       27.9149466176       11.1729658315
C         20.5441730418       26.0745311292       11.0024521593
C         22.0007904459       27.1474539566       12.5062210413
O         19.7519157538       25.2549837096       10.5708010804
O         21.0865659217       26.0491384928       12.2532122499
C         21.5547674843       28.0353757553       13.6839443120
N         20.2824274184       27.8023137106       14.1561904564
O         22.2381325516       28.9465906441       14.1194429123
C         19.4681614598       28.8517098131       14.7816987394
C         17.9870922776       28.6585067701       14.3685207135
C         19.7015806081       28.8800704532       16.3192552737
C         17.8121153835       28.6227166990       12.8551824298
C         18.9823424235       30.0480760922       17.0348953423
O         19.2770648320       27.6500705525       16.9026930377
C         17.4338895652       27.4314578825       12.2091190557
C         18.0498187077       29.7775038312       12.0877927504
N         19.3101978776       31.3947475378       16.4947306909
C         17.2890817375       27.3977396725       10.8122714631
C         17.9030754603       29.7455068133       10.6915709993
C         20.7454589325       31.7739237186       16.5389694055
S         18.1787998230       32.6264219065       16.8506948295
C         17.5223379281       28.5549233990       10.0529814277
C         21.2501352568       32.0018912188       17.9405664075
C         16.7204128551       32.0754609367       15.9384369795
O         17.9679268871       32.6199146774       18.3028072747
O         18.6749529851       33.8207928933       16.1557541755
S         21.2539201517       33.5553068513       18.7629639616
C         21.8050388868       31.0106635193       18.7092351375
C         16.6606090036       32.2434853252       14.5414309446
C         15.6587656025       31.4353231453       16.6068265748
C         21.9935694809       32.8188711462       20.1815282508
C         22.2223238031       31.4782830482       19.9886107435
C         15.5633704851       31.7613127100       13.8124833449
C         14.5547155009       30.9591840105       15.8813275812
O         15.5729280195       31.9356271089       12.4456305937
C         14.5071347000       31.1172976332       14.4860847612
C         14.7712068858       31.1363529271       11.5546908894
H         20.4109505064       26.1967770524        5.8867813676
H         20.1602201596       30.3384079492        7.1194731218
H         20.8939252441       25.5391214381        8.1995698339
H         19.0701592833       26.9941851096        4.0217951399
H         19.6338405836       28.2031072109        2.8393046690
H         20.8177168616       27.1914728224        3.7068058337
H         20.6373723474       29.6701486501        9.4399151024
H         21.6606568197       28.9474139517       11.3140471365
H         23.0063036161       27.9143863270       10.7233053438
H         23.0035711855       26.7653175894       12.7334039549
H         19.7960397605       27.0285731100       13.7197327177
H         19.8008463863       29.8185637168       14.3784027061
H         17.5960067939       27.7365720428       14.8171037899
H         17.3771326749       29.4708811728       14.7760143028
H         20.7810337905       28.9874006181       16.4865484637
H         17.9042189359       29.8629918893       16.9636887211
H         19.2280457285       30.0098984216       18.1043734160
H         19.6940507926       26.9477772463       16.3597185742
H         17.2552325353       26.5286558029       12.7869032311
H         18.3438689792       30.7032478250       12.5735945558
H         17.0041964916       26.4722335610       10.3181099644
H         18.0836032406       30.6429823861       10.1056998490
H         21.3652952827       31.0096917832       16.0536933479
H         20.9029407815       32.6946634128       15.9617367215
H         17.4152412251       28.5271092984        8.9715143391
H         21.9158381127       29.9805874149       18.3892871135
H         17.4763155986       32.7319212399       14.0153189530
H         15.6949143606       31.2983791064       17.6853134583
H         22.2121482369       33.4232875367       21.0525895048
H         22.6774374506       30.8339226556       20.7334287409
H         13.7376676049       30.4624780668       16.3992538745
H         13.6476281106       30.7416384062       13.9401317557
H         15.0017282835       31.3918908746       10.5129066049
H         14.9827865615       30.0687083924       11.7007424644
H         13.7017987159       31.3153839641       11.7225592238
    82
VM2 Rank=27     G=200.232           E=109.411           -TS=90.821              
C         20.1182416439       28.1067170603        6.2548847464
C         20.4681896164       26.7942634695        6.6392055699
C         19.7316066505       28.4447856600        4.8343427573
C         20.1336661892       29.1201975770        7.2349273394
C         20.8196554739       26.5066194021        7.9687263570
O         19.4296862653       29.5830418042        4.5121917688
C         19.7154915395       27.3447129378        3.7789310303
C         20.4866880126       28.8321339245        8.5632959942
C         20.8272449176       27.5212158814        8.9427968007
N         21.1782249646       27.2281788766       10.2900370801
C         22.1017677950       28.0728299020       11.0396279837
C         20.7466627392       26.1456472042       11.0335801272
C         22.1425962752       27.4200574898       12.4324978958
O         20.0032996780       25.2488991549       10.6743229996
O         21.3418585601       26.2219583039       12.2577595611
C         21.5813105569       28.3556907595       13.5219133673
N         20.4134928252       27.9428903561       14.1222831482
O         22.0908317266       29.4307127670       13.7913349758
C         19.4842664504       28.8578337983       14.7956469182
C         18.0290492069       28.5253190120       14.3783750938
C         19.7240357443       28.8525149508       16.3334327523
C         17.8447039526       28.5264997449       12.8659702542
C         18.9509013878       29.9746207791       17.0673557622
O         19.3491451078       27.5944484860       16.9006336653
C         17.6171541680       27.3229421559       12.1736445643
C         17.9185202817       29.7325027711       12.1463468007
N         19.2211075438       31.3453674961       16.5575528088
C         17.4571816564       27.3272726170       10.7780304257
C         17.7563632738       29.7388248983       10.7512258439
C         20.6413585367       31.7767707153       16.6047031807
S         18.0420133139       32.5174035804       16.9547224560
C         17.5236401778       28.5354650718       10.0667296492
C         21.1622815451       31.9191879850       18.0110842419
C         16.6271576754       31.9751448876       15.9703837807
O         17.8012272021       32.4129923752       18.3983309983
O         18.5178727608       33.7704707227       16.3554678579
S         22.0056723153       30.6584917472       18.8989067172
C         21.0526798497       33.0771762291       18.7372742785
C         16.5642753314       32.2880066677       14.5978210283
C         15.6000539652       31.2121938658       16.5594127575
C         22.1809708290       31.7325348350       20.2838124152
C         21.6300833195       32.9660757130       20.0348959384
C         15.4824390973       31.8379449040       13.8163844924
C         14.5259964367       30.7555401410       15.7791101025
O         15.3733001985       32.1187759306       12.4705836151
C         14.4716313974       31.0663105248       14.4105098624
C         16.2004018451       33.0868148635       11.7959922358
H         20.4713273075       25.9842580540        5.9159902169
H         19.8669446827       30.1397236764        6.9673148111
H         21.0868012550       25.4881312681        8.2390049797
H         19.0044572332       26.5615803725        4.0652029637
H         19.4138084575       27.7591755208        2.8099316850
H         20.7147627989       26.9059891481        3.6800508940
H         20.4769583603       29.6317561731        9.2985175952
H         21.7329785932       29.1049250164       11.0972531706
H         23.0944285470       28.0582902890       10.5722808107
H         23.1709071443       27.1595461279       12.7112823329
H         20.0744458993       27.0266660659       13.8583571442
H         19.6993532658       29.8720413558       14.4322429593
H         17.7436787982       27.5499320428       14.7924247314
H         17.3398129675       29.2535205380       14.8200938875
H         20.7986378115       29.0058923834       16.4989288239
H         17.8819576224       29.7462878247       16.9831508256
H         19.1899596864       29.9298309374       18.1380454229
H         19.7268550750       27.5571481489       17.8033307421
H         17.5681430625       26.3818260780       12.7147210513
H         18.1023226932       30.6651756533       12.6702122565
H         17.2882813703       26.3931747326       10.2479938638
H         17.8111147299       30.6744441370       10.2011224069
H         21.2776719227       31.0654507599       16.0634823297
H         20.7607204968       32.7362688762       16.0841473366
H         17.4025216183       28.5378033800        8.9863806415
H         20.5748214803       33.9807535187       18.3738412952
H         17.3618203294       32.8728766617       14.1503906022
H         15.6403426506       30.9656544321       17.6180916571
H         22.6787031594       31.3831115378       21.1793789246
H         21.6317803251       33.7800379374       20.7521822592
H         13.7369492121       30.1608316003       16.2332280175
H         13.6407321941       30.7130812088       13.8061918405
H         15.8980249208       33.1690116370       10.7444100114
H         16.0968070731       34.0751105024       12.2623405121
H         17.2557419199       32.7888345829       11.8249276365
    82
VM2 Rank=28     G=200.239           E=108.744           -TS=91.496              
C         20.1748543342       27.6065429919        5.8506766068
C         20.3904503517       26.3421649021        6.4398862853
C         19.8859939237       27.7598654046        4.3759223978
C         20.2348986922       28.7495856826        6.6737583588
C         20.6545563280       26.2279659497        7.8150714867
O         19.7018097353       28.8582916030        3.8757736120
C         19.8210765515       26.5200782600        3.4910348378
C         20.5004323876       28.6346309508        8.0480047992
C         20.7058177857       27.3716426025        8.6328869216
N         20.9755524446       27.2550440606       10.0259840634
C         21.8957655662       28.1618607995       10.7024745354
C         20.4641595664       26.3013766015       10.8864582171
C         21.9245913700       27.6429149997       12.1521958410
O         19.6764095732       25.4099911303       10.6195724669
O         21.0260856539       26.5044511042       12.1113591700
C         21.4810371124       28.7013812414       13.1824128663
N         20.6201375590       28.2514683626       14.1596302098
O         21.8139628546       29.8729366391       13.1116754653
C         19.6762054205       29.1232178923       14.8715158351
C         18.2376911587       28.8684744512       14.3481089019
C         19.8309354165       28.9529506599       16.4108277171
C         18.1091418051       29.0170255033       12.8356237966
C         18.9942792212       29.9731339671       17.2222966850
O         19.4540212460       27.6322499463       16.8096707601
C         17.6630510504       27.9361474395       12.0528743013
C         18.4339129516       30.2334153978       12.2066571619
N         19.2564357102       31.3963682340       16.8789392610
C         17.5369573424       28.0711623136       10.6604057687
C         18.3133603646       30.3682665721       10.8138319476
C         20.6560861022       31.8540396413       17.0668972529
S         18.0200572191       32.4979239775       17.3037725584
C         17.8590791302       29.2884019478       10.0407403148
C         21.0767489205       31.8713233896       18.5133211938
C         16.6657993042       31.9772589626       16.2282828123
O         17.7222590889       32.2936209618       18.7258699020
O         18.4748117830       33.8003013055       16.8012526742
S         21.8849635170       30.5459373481       19.3373636986
C         20.8950834552       32.9552039536       19.3333455468
C         16.6965872168       32.2934154280       14.8561159934
C         15.5996861587       31.2133102166       16.7413860313
C         21.9446742075       31.4889825325       20.8237854421
C         21.3862953445       32.7322648325       20.6518960366
C         15.6840934741       31.8388945291       13.9980549327
C         14.5802361731       30.7637121291       15.8867426488
O         15.7794513352       32.1628957102       12.6621897692
C         14.6225129359       31.0717954731       14.5166492672
C         15.0839911563       31.4321119980       11.6338036477
H         20.3565779416       25.4361800679        5.8421892524
H         20.0733818583       29.7363510013        6.2465932047
H         20.8216728925       25.2424142254        8.2421215731
H         19.0314466692       25.8480116916        3.8454691575
H         19.6016221198       26.8088648759        2.4565325756
H         20.7812321589       25.9925001805        3.5146319122
H         20.5331449551       29.5340090336        8.6563948167
H         21.5200117444       29.1921962774       10.6591013210
H         22.8923764329       28.1092183480       10.2465118740
H         22.9354073850       27.3151324221       12.4236813203
H         20.4151854333       27.2598356289       14.1456207260
H         19.9307187777       30.1654157048       14.6376293144
H         17.9187877511       27.8639286858       14.6533430534
H         17.5398018973       29.5608156125       14.8283294513
H         20.8913196508       29.1029592088       16.6529632113
H         17.9365841765       29.7348306934       17.0588212655
H         19.1800512695       29.8156753200       18.2928246327
H         19.7672922944       27.5044680560       17.7287502610
H         17.4149520730       26.9878031142       12.5218788923
H         18.7773945920       31.0779174148       12.7970081360
H         17.1947371637       27.2303934244       10.0620907803
H         18.5632234341       31.3122297581       10.3366057049
H         21.3481908600       31.2136324336       16.5067695376
H         20.7804309212       32.8625364914       16.6503455448
H         17.7598163158       29.3928388945        8.9633157389
H         20.4238322326       33.8815307586       19.0222991643
H         17.5182726094       32.8762351904       14.4487186489
H         15.5672358812       30.9605766476       17.7988585818
H         22.3883228154       31.0650060932       21.7155785291
H         21.3229760425       33.4759375270       21.4392818872
H         13.7594325210       30.1717136808       16.2846716609
H         13.8276246642       30.7148385956       13.8696171526
H         15.3739687651       31.8095983797       10.6453005189
H         15.3392102133       30.3651108505       11.6815624862
H         13.9977165346       31.5453096412       11.7387886669
    82
VM2 Rank=29     G=200.243           E=108.756           -TS=91.486              
C         20.1705503864       27.5605274687        5.8608835263
C         20.3919969722       26.3025379282        6.4578176948
C         19.8822591664       27.6471624478        4.3806017573
C         20.2275148869       28.7107974186        6.6768018142
C         20.6592465552       26.1942484561        7.8324833260
O         19.8381927456       26.6464538046        3.6825580016
C         19.6412570831       29.0102145294        3.7415583737
C         20.4964778136       28.6016904258        8.0512435289
C         20.7078199814       27.3427732377        8.6432314242
N         20.9807409551       27.2353394726       10.0364076291
C         21.9003453738       28.1483125533       10.7054133417
C         20.4736059159       26.2855098885       10.9036029130
C         21.9322467426       27.6391186782       12.1585344432
O         19.6874282158       25.3906622360       10.6437973294
O         21.0376325661       26.4973198265       12.1260555353
C         21.4856194923       28.7028171376       13.1820395790
N         20.6278074689       28.2560307146       14.1633945700
O         21.8137327338       29.8751975981       13.1029747810
C         19.6819523772       29.1287566128       14.8715046068
C         18.2437477108       28.8669629282       14.3507528868
C         19.8385028765       28.9667615756       16.4115357955
C         18.1130954999       29.0081935284       12.8377562172
C         18.9990058744       29.9880468467       17.2186770509
O         19.4664853642       27.6467677758       16.8172652153
C         18.4316629209       30.2232777841       12.2031309164
C         17.6707638387       27.9219878407       12.0602693092
N         19.2557424047       31.4104689974       16.8679474968
C         18.3084822823       30.3516674663       10.8099213665
C         17.5421175754       28.0504793849       10.6674185516
C         20.6539700880       31.8739970396       17.0521145836
S         18.0159862431       32.5097497671       17.2888348454
C         17.8577482824       29.2665446058       10.0421340187
C         21.0761561387       31.8998833679       18.4979700489
C         16.6621442442       31.9788573960       16.2178246958
O         17.7207665745       32.3115675626       18.7123339699
O         18.4654403596       33.8111770562       16.7791370963
S         21.8899104051       30.5814045746       19.3276232930
C         20.8916114358       32.9871526724       19.3128524413
C         16.6897297800       32.2885620464       14.8441183762
C         15.5996557649       31.2133852737       16.7361533614
C         21.9479558204       31.5319607247       20.8093171633
C         21.3850443121       32.7724240096       20.6319369315
C         15.6776936950       31.8261443540       13.9897443617
C         14.5806515012       30.7558823175       15.8851834762
O         15.7698591790       32.1440966732       12.6522021269
C         14.6197609575       31.0575675119       14.5135747476
C         15.0758814386       31.4055584835       11.6283654808
H         20.3572948559       25.3998260370        5.8526832286
H         20.0637394578       29.6992762106        6.2581747560
H         20.8305470893       25.2112530685        8.2636455359
H         18.7750959768       29.4940335391        4.2068580140
H         20.5236021757       29.6466347981        3.8728549539
H         19.4466766812       28.8924254398        2.6691697625
H         20.5273289236       29.5038697575        8.6556569610
H         21.5229000200       29.1777301915       10.6556737059
H         22.8963662737       28.0941880594       10.2483344956
H         22.9444239632       27.3167736961       12.4314543096
H         20.4267881440       27.2635152515       14.1563850841
H         19.9332015604       30.1704778272       14.6320209509
H         17.9283822213       27.8628216380       14.6609533161
H         17.5441159998       29.5592603937       14.8284909743
H         20.8985612584       29.1216297863       16.6520351991
H         17.9420126030       29.7451520305       17.0574613059
H         19.1863717106       29.8366250037       18.2897981042
H         19.7808957322       27.5246672254       17.7367284156
H         18.7722018240       31.0717993766       12.7894097898
H         17.4274854499       26.9745849730       12.5336887352
H         18.5533985837       31.2947218869       10.3283614238
H         17.2027646495       27.2056423938       10.0732057383
H         21.3477236938       31.2332839375       16.4943825326
H         20.7742926270       32.8808643030       16.6304720275
H         17.7562648962       29.3659554038        8.9644914788
H         20.4167763068       33.9102848557       18.9977845675
H         17.5086128267       32.8725113790       14.4327178313
H         15.5697027747       30.9655930278       17.7948688643
H         22.3940618954       31.1139298821       21.7026889773
H         21.3199909793       33.5197366301       21.4157276956
H         13.7626617542       30.1627201756       16.2871535449
H         13.8252647607       30.6945544801       13.8694379446
H         15.3354313835       30.3398289205       11.6809471850
H         13.9893116643       31.5149272712       11.7343466597
H         15.3629578849       31.7793906492       10.6376316897
    82
VM2 Rank=30     G=200.249           E=110.880           -TS=89.369              
C         20.2688270527       28.3812028840        6.0938581053
C         21.5673076369       28.6831476102        6.5539204310
C         19.8675412589       28.7530626497        4.6857947100
C         19.3767810874       27.7333309414        6.9754421290
C         21.9656495470       28.3490126104        7.8589586551
O         20.6464381196       29.3128721959        3.9304424199
C         18.4619421690       28.4252229031        4.1946705426
C         19.7764764379       27.3991429984        8.2799472871
C         21.0725690139       27.7028400227        8.7323799572
N         21.4684022649       27.3741360760       10.0582459367
C         22.1602927817       28.3373088375       10.9070082361
C         21.2292143587       26.1810328200       10.7133333266
C         22.3111049632       27.5979254975       12.2482605508
O         20.6926327713       25.1843690846       10.2610451794
O         21.7320096433       26.2946781039       11.9754466524
C         21.6123844649       28.3294535966       13.4116062964
N         20.6603060961       27.6007662233       14.0896807263
O         21.8385026468       29.4951936087       13.6901613955
C         19.6118394047       28.2217677770       14.9100257844
C         18.3220241988       27.3664009948       14.8413013514
C         20.1288752134       28.4661329345       16.3580994439
C         17.8240741116       27.1991314604       13.4118144832
C         19.1280774584       29.2336894261       17.2541537726
O         20.4493674291       27.2234152538       16.9808766841
C         18.0688308240       26.0084323985       12.7028669998
C         17.1283320225       28.2471944199       12.7825253723
N         18.6297034635       30.5035044384       16.6654572925
C         17.6168524562       25.8661394479       11.3804401421
C         16.6760211637       28.1063227440       11.4603012900
C         19.6629396977       31.4980415497       16.2705530370
S         17.1609300612       31.0748965728       17.3257076608
C         16.9175111008       26.9138575140       10.7598477630
C         20.3908464523       32.0953630592       17.4473393599
C         16.6912248531       32.4501414743       16.2518539714
O         16.2044916983       30.0045927813       17.0183682459
O         17.4133892353       31.5186464342       18.7009864850
S         21.7709016422       31.3619724503       18.2530529544
C         20.0857487318       33.3257094824       17.9705454893
C         16.4276839446       32.2138778625       14.8891035250
C         16.5930546978       33.7593128544       16.7608510373
C         21.8871636164       32.7399723450       19.3431223533
C         20.9341845590       33.6865131750       19.0565429945
C         16.0805985715       33.2708708941       14.0350310900
C         16.2444655030       34.8209043366       15.9101804193
O         15.8437211628       32.9706125914       12.7099317321
C         15.9902476655       34.5799791517       14.5492949308
C         15.4945167466       33.9639055115       11.7266217974
H         22.2752158622       29.1808774330        5.8955218196
H         18.3676597715       27.4823944793        6.6625826205
H         22.9739650804       28.5901917559        8.1840582539
H         18.3386474247       28.7620366078        3.1587581833
H         18.2933399293       27.3432809615        4.2369466020
H         17.7188053789       28.9308384871        4.8215014051
H         19.0724229067       26.9024867733        8.9409471880
H         21.5602153043       29.2508206468       11.0139608616
H         23.1453646274       28.5854656042       10.4933832970
H         23.3707803459       27.4925844012       12.5110949564
H         20.5173215270       26.6539166519       13.7598782294
H         19.3787694497       29.1998461209       14.4665736185
H         18.5004334154       26.3855193659       15.2999441541
H         17.5317499325       27.8390535427       15.4372004056
H         21.0464203770       29.0651116536       16.2852835609
H         18.2827849579       28.5639007765       17.4585502198
H         19.6014768915       29.4335911724       18.2238627361
H         21.0141464139       26.7475837542       16.3357499308
H         18.6103318041       25.1927514793       13.1743957131
H         16.9389543405       29.1721316387       13.3188419647
H         17.8116615845       24.9448381765       10.8367311788
H         16.1381448190       28.9200912658       10.9802304414
H         20.4047772002       31.0363413162       15.6070710161
H         19.2127577031       32.3085819613       15.6840687945
H         16.5655163216       26.8029389828        9.7373086328
H         19.2888786732       33.9628969023       17.6062691147
H         16.4963319469       31.2064744270       14.4899797938
H         16.7867038902       33.9532494046       17.8134476890
H         22.6514429348       32.7605944812       20.1094690336
H         20.8347373859       34.6211085111       19.5984457150
H         16.1710447951       35.8314872762       16.3051065389
H         15.7231981756       35.4136504076       13.9075128841
H         15.3581981915       33.4902160765       10.7462496040
H         14.5570781652       34.4659889111       11.9986917105
H         16.2885742949       34.7164771120       11.6370210534
