    83
VM2 Rank=1      G=226.666           E=130.291           -TS=96.374              
C         21.0126932924       24.9284824499        4.7579342476
C         20.9359877674       23.9402515746        5.7628540513
C         21.3286119546       26.2489473242        5.1378335832
C         20.7679997290       24.6059366231        3.3025940497
C         21.1658841053       24.2682241713        7.1095111653
C         21.5595960546       26.5756590933        6.4840391610
O         20.8375504315       25.4678932653        2.4407295986
C         20.4257603956       23.1764229676        2.8979721484
C         21.4739002533       25.5890848653        7.4833138628
N         21.7080218329       25.9192195040        8.8481677883
C         22.8084656598       26.7898602288        9.2450288911
C         20.9856769806       25.4702987270        9.9379168673
C         22.7053198687       26.8354829715       10.7812420322
O         20.0066110058       24.7439566502        9.9277127077
O         21.5706784092       25.9755813963       11.0599753204
C         22.5058894362       28.2607888347       11.3360576999
N         21.6005532513       28.3711894758       12.3692222127
O         23.0680702476       29.2374271095       10.8687191435
C         20.9281945281       29.6226722640       12.7444223924
C         20.9787380958       29.8055614705       14.2880705315
C         19.4867266860       29.6428654338       12.1634662862
C         20.4151298382       31.1819693395       14.7331287589
O         20.2780095514       28.7340053680       14.9267284776
C         19.4277243395       29.3243079480       10.6738994444
N         20.5545963734       31.4820276767       16.1866600681
C         19.9680092875       30.2204748218        9.7336095260
C         18.8360498214       28.1284089403       10.2263113873
C         21.9377616916       31.5350487486       16.7246624891
S         19.3853212297       30.8773122381       17.2814170393
C         19.9157250742       29.9257991985        8.3609815468
C         18.7790962137       27.8347416635        8.8538503825
C         22.8970611340       32.4956478417       15.9737749347
O         19.7785126844       29.4939616785       17.5795317472
C         17.8303088101       30.9224650899       16.3548452641
O         19.2823789476       31.9091325719       18.3201869721
C         19.3167153266       28.7348272006        7.9206201692
C         22.3704656040       33.9488937763       15.9850941250
C         24.3022177412       32.4429776137       16.6095585327
C         17.1776627924       32.1621347791       16.1310355885
C         17.2903581139       29.7318042664       15.8145832832
C         15.9935190302       32.2267470022       15.3674046503
C         16.1186036535       29.8262166857       15.0574142632
C         15.4910384528       31.0323098929       14.8400048484
O         15.4389864145       28.8267853810       14.4311302438
O         14.3846192215       30.8499253992       14.0678745339
C         14.2991986670       29.4302684774       13.7559079830
H         20.6987082875       22.9102098411        5.5139947357
H         21.3952949459       27.0302375379        4.3845629080
H         21.1050160094       23.4869663562        7.8629179595
H         21.7957040497       27.6034058359        6.7449256463
H         21.2416308033       22.5017076883        3.1807036597
H         19.5039934764       22.8565652257        3.3968475500
H         20.2790166430       23.1186579275        1.8131182710
H         22.6826431498       27.7896835149        8.8101748554
H         23.7688438653       26.3640603405        8.9283779323
H         23.6118024161       26.4224194141       11.2401172837
H         21.1924646647       27.5062749506       12.7031516755
H         21.4810422106       30.4608867315       12.2979326976
H         22.0378331143       29.7632252170       14.5757478372
H         18.8628464336       28.9303165400       12.7182202971
H         19.0347907643       30.6277433207       12.3269533930
H         20.9357895632       31.9562830991       14.1571386696
H         19.3673680263       31.2555569449       14.4259211910
H         20.4053243858       28.8268014984       15.8992658666
H         20.4341777562       31.1433303858       10.0677907076
H         18.4221016419       27.4229805559       10.9420749615
H         21.8998960713       31.8600555079       17.7738650261
H         22.3693126414       30.5250324189       16.7283072116
H         20.3365337196       30.6217044937        7.6396940959
H         18.3223228585       26.9080208284        8.5149386212
H         22.9996726024       32.1660508593       14.9310361500
H         19.2711614491       28.5081607717        6.8584044143
H         23.0613009416       34.6196921334       15.4586624414
H         21.3944229854       34.0233436863       15.4897689687
H         22.2552908646       34.3181954354       17.0122381614
H         24.7074706798       31.4232524563       16.5820177847
H         25.0011810604       33.0937428912       16.0684960624
H         24.2767232141       32.7704580628       17.6570227282
H         17.5992282392       33.0768019286       16.5422631760
H         17.7718088696       28.7694667362       15.9640447023
H         15.4893791444       33.1717199500       15.1852095090
H         13.3616316056       29.0107495537       14.1415712584
H         14.3742220597       29.2745276364       12.6724037830
    83
VM2 Rank=2      G=226.669           E=130.244           -TS=96.425              
C         20.7768326647       24.9500694001        4.8541238913
C         20.8090101899       23.9723495366        5.8716248879
C         21.0536252222       26.2884105216        5.2004041977
C         20.4576994634       24.5979573457        3.4202180313
C         21.1063489094       24.3278085246        7.1979513259
C         21.3520827536       26.6426459262        6.5262218870
O         20.4333461082       25.4510605245        2.5471553787
C         20.1581398364       23.1491450388        3.0520360587
C         21.3744913404       25.6662130249        7.5388781359
N         21.6777422708       26.0244624014        8.8830501212
C         22.7542264746       26.9557483197        9.2000444696
C         21.0531973043       25.5503083256       10.0216173909
C         22.7572732119       27.0040687702       10.7395405407
O         20.1158472429       24.7731089998       10.0819071627
O         21.6848175321       26.0956474561       11.0987910479
C         22.5346715321       28.4214873102       11.3053708092
N         21.7005712130       28.4957851073       12.3997871011
O         23.0166554600       29.4203741182       10.7972038578
C         20.9868245455       29.7132094203       12.8084644097
C         21.1244368252       29.9106791294       14.3460801964
C         19.5108194156       29.6451177770       12.3208442578
C         20.5514834696       31.2758747029       14.8169810071
O         20.5075694395       28.8156591781       15.0301047458
C         19.3655809459       29.2910690952       10.8454787600
N         20.5734994541       31.5032702818       16.2900504080
C         18.7639025976       28.0774540731       10.4638233272
C         19.8281669371       30.1738100268        9.8525334606
C         21.9071412676       31.4984399863       16.9422667148
S         19.2953438919       30.8982617851       17.2587203406
C         18.6218375850       27.7520373120        9.1048323507
C         19.6909011253       29.8473337773        8.4930624498
C         22.9346751016       32.4898523546       16.3359419470
O         19.6882674655       29.5336483988       17.6329168551
C         17.8605145329       30.8591316942       16.1529947936
O         19.0469978445       31.9522231469       18.2493113744
C         19.0830828780       28.6382853125        8.1190194329
C         22.4219133879       33.9468938825       16.3941625784
C         24.2808822251       32.3780217056       17.0820509290
C         17.1846245658       32.0641910230       15.8300994449
C         17.4569304255       29.6418257557       15.5559623096
C         16.1210174427       32.0691009065       14.9035105052
C         16.4066394721       29.6777275403       14.6340586884
C         15.7615443957       30.8514377339       14.3156849958
O         15.8868339030       28.6478453546       13.9117407288
O         14.8005918026       30.6160533035       13.3804676428
C         14.8513983276       29.1988946904       13.0499090506
H         20.6053927395       22.9293310819        5.6483081518
H         21.0369008889       27.0622195423        4.4367179541
H         21.1293137697       23.5540338834        7.9610983474
H         21.5555537692       27.6834830404        6.7614295752
H         19.2851254349       22.7936248046        3.6108658960
H         19.9470944103       23.0708018729        1.9791427959
H         21.0206444363       22.5163679464        3.2897332873
H         22.5425476264       27.9448858646        8.7740992655
H         23.7119458197       26.5819990150        8.8166574848
H         23.7112137041       26.6331523814       11.1336432123
H         21.3581884225       27.6142809857       12.7629256173
H         21.4633945956       30.5758659219       12.3223970059
H         22.1988998118       29.9076266293       14.5750349788
H         18.9639687442       28.9120529883       12.9272163231
H         19.0148738346       30.6063905156       12.4941897226
H         21.1346001621       32.0630208670       14.3241855815
H         19.5371721154       31.3994986547       14.4296056878
H         20.6111921727       28.9600413750       15.9980306441
H         18.4073405383       27.3831800260       11.2202837412
H         20.2997438831       31.1110259773       10.1351698622
H         21.7852282270       31.7564521377       18.0036651393
H         22.3264109603       30.4836218015       16.9144619345
H         18.1583901583       26.8115359724        8.8168887121
H         20.0521987551       30.5328494822        7.7307506091
H         23.1212019155       32.2239818107       15.2867169283
H         18.9714123662       28.3870045903        7.0672982408
H         23.1610919632       34.6392492921       15.9715441186
H         21.4925947864       34.0654778682       15.8232552291
H         22.2223429425       34.2533725421       17.4290124335
H         24.6776107053       31.3561824317       17.0247325038
H         25.0287862742       33.0507176969       16.6428400091
H         24.1704221980       32.6407966409       18.1421516843
H         17.5015055209       33.0002088505       16.2849413248
H         17.9595918686       28.7047689740       15.7778813168
H         15.6056639332       32.9884145605       14.6396957130
H         13.8856442335       28.7219972363       13.2587360292
H         15.1274642392       29.0661443437       11.9962227786
    83
VM2 Rank=3      G=226.685           E=130.305           -TS=96.379              
C         20.7755731894       24.9216355046        4.8687543853
C         20.8120767462       23.9490940026        5.8889176059
C         21.0494999918       26.2636018081        5.2096798873
C         20.4496582393       24.5099671433        3.4523398822
C         21.1100819251       24.3059361322        7.2143187215
C         21.3489020000       26.6193848775        6.5352700179
O         20.2170825090       23.3459127434        3.1668455575
C         20.4097497330       25.5666825546        2.3540936836
C         21.3754100142       25.6457657376        7.5508165294
N         21.6799611073       26.0085356753        8.8934304283
C         22.7563181195       26.9413888088        9.2061816190
C         21.0572073734       25.5373423495       10.0341891396
C         22.7597889485       26.9961422328       10.7454671054
O         20.1206842986       24.7594438733       10.0980540813
O         21.6895505020       26.0867461291       11.1088797071
C         22.5337954571       28.4154301934       11.3052742086
N         21.7001280305       28.4923239594       12.3998332743
O         23.0129861449       29.4133480916       10.7925779949
C         20.9844679223       29.7099731241       12.8044497091
C         21.1235511425       29.9139645050       14.3410582511
C         19.5080737969       29.6370546364       12.3188076529
C         20.5489709388       31.2801738125       14.8069603586
O         20.5091251256       28.8208612723       15.0303101138
C         19.3620798792       29.2782673240       10.8446630427
N         20.5739911572       31.5143629973       16.2789128666
C         18.7640828625       28.0615143984       10.4672479363
C         19.8201427786       30.1598519376        9.8485999147
C         21.9091568322       31.5149375784       16.9280349304
S         19.2992794649       30.9112571046       17.2532587176
C         18.6210099305       27.7319194586        9.1093680058
C         19.6818088674       29.8292537242        8.4902310093
C         22.9335622185       32.5052300396       16.3146165904
O         19.6951983290       29.5487278783       17.6318665016
C         17.8616643258       30.8657557377       16.1514117765
O         19.0519018340       31.9687588330       18.2403146782
C         19.0775091628       28.6171426113        8.1204325168
C         22.4184125486       33.9616449119       16.3671245818
C         24.2817040536       32.3992658116       17.0580839713
C         17.1831697453       32.0685686542       15.8256184871
C         17.4582280448       29.6455318502       15.5602592415
C         16.1169615415       32.0682942690       14.9020126096
C         16.4052773699       29.6762843502       14.6412046892
C         15.7575638759       30.8477957865       14.3200534144
O         15.8847564871       28.6427767139       13.9246032848
O         14.7941643841       30.6073112153       13.3886581534
C         14.8457310509       29.1888376467       13.0639131656
H         20.6083486398       22.9070868662        5.6543820299
H         21.0332230200       27.0443255554        4.4551014579
H         21.1356702259       23.5334372552        7.9786177527
H         21.5503360940       27.6610423173        6.7688181478
H         20.1582491735       25.1006511990        1.3942292514
H         19.6520805436       26.3226573403        2.5892092694
H         21.3882291393       26.0520617332        2.2657212397
H         22.5445497846       27.9286902455        8.7760748414
H         23.7139683802       26.5660436239        8.8241843102
H         23.7147542774       26.6293053374       11.1409034124
H         21.3600739587       27.6115700839       12.7669573015
H         21.4587639701       30.5715984729       12.3143477188
H         22.1982894461       29.9135284206       14.5687324124
H         18.9635364210       28.9046372987       12.9280558249
H         19.0101657050       30.5977323953       12.4897998018
H         21.1293799402       32.0662086282       14.3092189884
H         19.5335070405       31.3999397215       14.4213681753
H         20.6141878096       28.9691201193       15.9975055974
H         18.4110946602       27.3680812235       11.2261524247
H         20.2888719760       31.0994732824       10.1279621556
H         21.7892667961       31.7777624216       17.9884832308
H         22.3301192612       30.5007212334       16.9040617562
H         18.1603495591       26.7890420900        8.8247266141
H         20.0394579309       30.5139979565        7.7255134940
H         23.1181063862       32.2347088481       15.2662295272
H         18.9648218539       28.3627351931        7.0696156013
H         23.1554240961       34.6532653709       15.9395498617
H         21.4875921595       34.0759304309       15.7977919255
H         22.2206691889       34.2726699880       17.4009673249
H         24.1732796641       32.6669105903       18.1171759345
H         24.6800597901       31.3778466607       17.0047052058
H         25.0274154459       33.0711361029       16.6139084375
H         17.4999352623       33.0068212392       16.2759135872
H         17.9628274367       28.7100721675       15.7845094850
H         15.5995095008       32.9858103070       14.6360572942
H         13.8813067942       28.7115933236       13.2780303738
H         15.1184020450       29.0519682517       12.0098718454
    83
VM2 Rank=4      G=226.734           E=130.379           -TS=96.355              
C         21.0037979639       24.8992411370        4.7740204993
C         20.9321858020       23.9164793753        5.7824919097
C         21.3179074168       26.2236497592        5.1475006910
C         20.7472035734       24.5166545705        3.3353712768
C         21.1640745112       24.2464620923        7.1279160975
C         21.5511292584       26.5525143749        6.4931903087
O         20.4791112004       23.3675245452        3.0219229832
C         20.8240445649       25.5843526339        2.2497860973
C         21.4701501000       25.5690647166        7.4962240705
N         21.7070786134       25.9043282646        8.8593043313
C         22.8077842393       26.7771741005        9.2505577156
C         20.9877258403       25.4584489674        9.9522641788
C         22.7072262389       26.8292598710       10.7867397967
O         20.0092804259       24.7312334392        9.9468983895
O         21.5748187103       25.9682716668       11.0711733763
C         22.5055783062       28.2565665632       11.3356137331
N         21.6020679895       28.3694077211       12.3701031799
O         23.0646008492       29.2324307802       10.8628991753
C         20.9282834958       29.6211080965       12.7419513755
C         20.9808717915       29.8092746373       14.2849089899
C         19.4858740056       29.6368568993       12.1631941761
C         20.4160264537       31.1863784809       14.7262616691
O         20.2827132937       28.7387928678       14.9281664467
C         19.4250993609       29.3142186388       10.6745881847
N         20.5557454960       31.4907683396       16.1788685246
C         18.8363385274       28.1153219355       10.2312019803
C         19.9606655215       30.2097137195        9.7309709116
C         21.9390528799       31.5466760670       16.7161941693
S         19.3874034311       30.8882866799       17.2758719952
C         18.7774086780       27.8180981915        8.8595901401
C         19.9063407194       29.9115412674        8.3591771859
C         22.8970431873       32.5062532106       15.9623408097
O         19.7825818352       29.5065315053       17.5787149997
C         17.8322359153       30.9278894907       16.3492928010
O         19.2831453239       31.9235962594       18.3110310605
C         19.3101133205       28.7176338498        7.9230158023
C         22.3688959254       33.9589604628       15.9699018102
C         24.3024922800       32.4568024033       16.5977379365
C         17.1776355376       32.1657784539       16.1213692000
C         17.2941961448       29.7346031259       15.8129273796
C         15.9934606514       32.2260040785       15.3574275593
C         16.1223803435       29.8246720743       15.0553286549
C         15.4929356710       31.0290503693       14.8338884892
O         15.4444666274       28.8221256635       14.4321875163
O         14.3869408419       30.8423929596       14.0621720990
C         14.3038871363       29.4216056931       13.7547403220
H         20.6951647464       22.8874659960        5.5231692656
H         21.3842819834       27.0113397966        4.4029717420
H         21.1063416661       23.4667174075        7.8830765970
H         21.7857823934       27.5812788599        6.7515591886
H         21.8275218879       26.0240756235        2.2273897556
H         20.6109249541       25.1396777415        1.2706941179
H         20.0891118615       26.3728157147        2.4473661260
H         22.6809366723       27.7750828343        8.8116492374
H         23.7677802407       26.3503301542        8.9341524474
H         23.6153718202       26.4202061374       11.2459172026
H         21.1965650751       27.5050618791       12.7086337286
H         21.4790890839       30.4586728605       12.2917326463
H         22.0404483898       29.7694458548       14.5711760088
H         18.8642585556       28.9245936511       12.7208511280
H         19.0322092200       30.6212581613       12.3246893323
H         20.9356709687       31.9595528791       14.1478271418
H         19.3680828240       31.2580826825       14.4192895887
H         20.4108045670       28.8353000866       15.9002330622
H         18.4260722828       27.4103927475       10.9495767748
H         20.4245755472       31.1348716524       10.0619101292
H         21.9012434263       31.8744745028       17.7645300755
H         22.3716647492       30.5371257007       16.7223972275
H         18.3227872435       26.8891310334        8.5239408672
H         20.3233301767       30.6070606163        7.6353083999
H         22.9996095357       32.1739357135       14.9204631674
H         19.2626862541       28.4883984715        6.8614781193
H         21.3926261383       34.0310214859       15.4746699587
H         22.2536293836       34.3309084918       16.9960809564
H         23.0588521689       34.6290759289       15.4414507797
H         24.2770383173       32.7871053780       17.6443162421
H         24.7088144308       31.4374349322       16.5728250311
H         25.0005692498       33.1068281084       16.0546461769
H         17.5977364933       33.0824661015       16.5295843206
H         17.7771643586       28.7735262901       15.9655650854
H         15.4878554130       33.1695764921       15.1720605763
H         13.3668903380       29.0018149838       14.1414933097
H         14.3794614996       29.2625179831       12.6717596417
    83
VM2 Rank=5      G=227.026           E=130.400           -TS=96.626              
C         21.2852945080       24.8877202662        4.6350663574
C         21.2730683420       23.8813169777        5.6247218489
C         21.5109699477       26.2205017336        5.0357873467
C         21.0657138014       24.5717397862        3.1742899413
C         21.4777377067       24.2033986103        6.9768632977
C         21.7168273020       26.5414023494        6.3874545461
O         21.0787925661       25.4495040149        2.3257758780
C         20.8212579724       23.1288025538        2.7470608059
C         21.6958645698       25.5360545556        7.3712715763
N         21.9040293531       25.8602008881        8.7415960555
C         22.9479498721       26.7900660176        9.1563227878
C         21.2050154059       25.3532053457        9.8209010960
C         22.8263510676       26.8177005814       10.6917160076
O         20.2729908582       24.5677860328        9.7951605010
O         21.7516148040       25.8788807165       10.9529111018
C         22.5206834502       28.2218387628       11.2524421058
N         21.5995463602       28.2615582167       12.2768333489
O         23.0173827668       29.2387013269       10.7968814454
C         20.8411197484       29.4617406153       12.6556448611
C         20.8763433585       29.6451290756       14.1991665826
C         19.4043345522       29.3858086635       12.0707466954
C         20.2083871897       30.9731816496       14.6450860070
O         20.2521990561       28.5275823610       14.8386614665
C         19.3768750481       29.0957354838       10.5744163838
N         20.4325796824       31.3413718897       16.0719949710
C         19.8408639267       30.0554757627        9.6563678543
C         18.8939754175       27.8625741595       10.0982545091
C         21.8406264945       31.5680479580       16.4877635854
S         19.4395031128       30.6385085761       17.2751403999
C         19.8201816084       29.7868602594        8.2775549688
C         18.8688367262       27.5944102526        8.7196111965
C         22.6265043318       32.5867152674       15.6206839397
O         19.9680336721       29.2899089050       17.5187589343
C         17.7948183146       30.5753926398       16.5223308674
O         19.3653618696       31.6554047375       18.3310876886
C         19.3296773112       28.5577471970        7.8086982902
C         21.9476216084       33.9754503320       15.6190082213
C         24.0753191604       32.7131588412       16.1368454381
C         17.2591958688       29.3412775831       16.0712387744
C         17.0556529231       31.7696641454       16.3572964935
C         15.9923923279       29.2875944050       15.4537247900
C         15.8018927569       31.6864369527       15.7429652232
C         15.2873553636       30.4866461709       15.3048495477
O         14.9274233108       32.6947784801       15.4750166145
O         14.0634420396       30.6816995570       14.7412453068
C         13.7683925654       32.1053193429       14.8197843405
H         21.1058615011       22.8416096683        5.3596330016
H         21.5263888520       27.0159222839        4.2946085998
H         21.4676299976       23.4086409548        7.7184690411
H         21.8825719217       27.5785705167        6.6647677160
H         19.9222767866       22.7399708287        3.2384678415
H         20.6806060115       23.0779441282        1.6610550925
H         21.6802496926       22.5063102439        3.0217591191
H         22.7702478648       27.7842058114        8.7266760823
H         23.9343521251       26.4219485032        8.8474610432
H         23.7548433596       26.4668344767       11.1582909378
H         21.2498927808       27.3680548121       12.6015911064
H         21.3354608689       30.3377986988       12.2132144506
H         21.9361571876       29.6795372784       14.4843863961
H         18.8357830803       28.6160442391       12.6080583901
H         18.8793417818       30.3302585843       12.2544679726
H         20.5949687643       31.7749976508       14.0048286343
H         19.1366917347       30.9212494443       14.4249796692
H         20.4172129348       28.6082954789       15.8070587512
H         20.2233024301       31.0081064926       10.0125684971
H         18.5406549376       27.1083927306       10.7965692980
H         21.8519444354       31.9384207630       17.5223984503
H         22.3796323771       30.6111432612       16.4962286208
H         20.1816414930       30.5320943431        7.5735588569
H         18.4963416317       26.6387613854        8.3585957286
H         22.6812001387       32.2192897269       14.5869764296
H         19.3088904107       28.3506858446        6.7417053458
H         22.5166171369       34.6885100436       15.0089648464
H         20.9323590847       33.9229831124       15.2067272502
H         21.8766461832       34.3803991484       16.6366790713
H         24.5857843682       31.7416684969       16.1154157821
H         24.6537331747       33.4069512741       15.5132363676
H         24.0981073337       33.0864575197       17.1689343127
H         17.8301737877       28.4236731826       16.1932682692
H         17.4474747919       32.7275283979       16.6887574831
H         15.5755449279       28.3484769862       15.1008115744
H         13.6462462471       32.5245890518       13.8132554648
H         12.8653449103       32.2742129454       15.4196023741
    83
VM2 Rank=6      G=227.065           E=129.064           -TS=98.002              
C         20.3316879969       25.1459764759        5.5073971857
C         21.0489994575       24.9782899382        6.7095573790
C         19.2024121449       25.9929726747        5.5107767785
C         20.7831814526       24.4247594299        4.2592966461
C         20.6519546919       25.6391321463        7.8833625860
C         18.8067956459       26.6550131730        6.6851123320
O         21.7623543190       23.6955595020        4.2663051198
C         20.0036819967       24.6097368498        2.9621869506
C         19.5302972108       26.4878732582        7.8796551343
N         19.1302888758       27.1612472161        9.0673711667
C         19.0785477741       26.4746076818       10.3531218913
C         18.7356061530       28.4822148035        9.1680319525
C         18.5998349442       27.5636843985       11.3272509558
O         18.6834947087       29.3097583474        8.2748575678
O         18.4181664774       28.7211292831       10.4721066566
C         19.6127362486       27.8156872659       12.4588969974
N         20.3683571316       28.9595455325       12.3371360033
O         19.7954549970       27.0295708181       13.3712801636
C         21.6975114887       29.1379746789       12.9442648666
C         21.6155458187       29.7582260079       14.3689023177
C         22.5903499293       29.9595480532       11.9835058895
C         20.8480608898       31.1091431529       14.3946483224
O         21.0067415135       28.8161948871       15.2481050447
C         22.6988197173       29.3129037441       10.6078873216
N         20.6237360623       31.6869854834       15.7480825068
C         21.9703350297       29.8285723045        9.5194572917
C         23.5108146223       28.1796035976       10.4202019247
C         21.8371342982       31.9978196456       16.5438930340
S         19.2563528230       31.2227974187       16.6749321411
C         22.0563846575       29.2200263926        8.2564675395
C         23.5981301848       27.5708461906        9.1570244411
C         22.8688499906       32.9156937336       15.8366453124
O         19.7082204502       30.2770716177       17.7031432712
C         18.1164695224       30.3691535291       15.5497147825
O         18.6248352139       32.4994031305       17.0306656694
C         22.8726486196       28.0928222524        8.0741761304
C         22.2468521423       34.2760108330       15.4469128976
C         24.0910115061       33.1411573151       16.7514548328
C         17.4063418735       31.1064052534       14.5661909466
C         17.9095423882       28.9746655596       15.6689937544
C         16.5121182068       30.4629321028       13.6851688064
C         17.0068002324       28.3651268129       14.7920401933
C         16.3337363313       29.0831427723       13.8295063491
O         16.6468561627       27.0536214041       14.7301824091
O         15.5218625303       28.2559472308       13.1144167331
C         15.6100855681       26.9334461006       13.7167118035
H         21.9238726754       24.3332135739        6.7355014688
H         18.6203149827       26.1486711540        4.6073971878
H         21.2327071118       25.4997991178        8.7908637397
H         17.9322685046       27.3003196597        6.6619680756
H         18.9685244640       24.2762652665        3.0966095428
H         20.0073038958       25.6660395001        2.6705587438
H         20.4638980047       24.0200761824        2.1607643698
H         20.0718144628       26.1032244319       10.6366999350
H         18.3658324739       25.6411212700       10.3145131148
H         17.6476012866       27.2741460041       11.7840834295
H         20.1283197568       29.5498129937       11.5506857486
H         22.1628176123       28.1467309033       13.0474870318
H         22.6405207833       29.9425010781       14.7170950964
H         22.1987387319       30.9785890432       11.8809078653
H         23.5927011304       30.0617432412       12.4187593796
H         21.4172776847       31.8303416360       13.7986675280
H         19.8995467451       30.9942274883       13.8629605154
H         20.5091926642       28.1843538286       14.6747934086
H         21.3333264007       30.6992861072        9.6501276651
H         24.0727848775       27.7689505320       11.2547815417
H         21.5337953292       32.4947381763       17.4759228967
H         22.3272537711       31.0589181452       16.8364118536
H         21.4864315024       29.6192968373        7.4209648257
H         24.2268007627       26.6950170788        9.0178156961
H         23.2312917638       32.4206628360       14.9258046066
H         22.9367988003       27.6204755970        7.0970571062
H         21.8733919966       34.8065410234       16.3321659762
H         22.9873125694       34.9181741961       14.9533004961
H         21.4062748244       34.1458007652       14.7539867051
H         24.5656420501       32.1868542920       17.0138893344
H         24.8452677684       33.7621086550       16.2511854279
H         23.8019533887       33.6443876690       17.6832451047
H         17.5578052053       32.1804936646       14.4842073920
H         18.4324850576       28.3860208383       16.4178698028
H         15.9704336348       31.0179858698       12.9244308469
H         14.6544924168       26.6741100493       14.1895420967
H         15.8847837885       26.1808813439       12.9673401889
    83
VM2 Rank=7      G=227.073           E=130.457           -TS=96.616              
C         21.2831779637       24.8604297900        4.6493994444
C         21.2814063619       23.8599846621        5.6429478732
C         21.5018093791       26.1981443711        5.0430961748
C         21.0550243571       24.4821847386        3.2048215631
C         21.4886828226       24.1854041731        6.9934898528
C         21.7104896845       26.5225424077        6.3938904565
O         20.8696335819       23.3217081790        2.8738409507
C         21.0559603251       25.5688210144        2.1354285092
C         21.6997553789       25.5207381659        7.3817721106
N         21.9110538348       25.8514009772        8.7500122765
C         22.9520252809       26.7877668197        9.1574501914
C         21.2183393144       25.3451186543        9.8336886125
C         22.8345626555       26.8219879319       10.6930407534
O         20.2900379820       24.5551343058        9.8142801868
O         21.7662645983       25.8779339304       10.9617127381
C         22.5216628333       28.2268981606       11.2478588749
N         21.6034757169       28.2657235970       12.2749240044
O         23.0105187279       29.2446726971       10.7858944119
C         20.8394556282       29.4631210188       12.6512699813
C         20.8780184119       29.6525088517       14.1939920656
C         19.4014655305       29.3768817235       12.0708106199
C         20.2040070986       30.9785114715       14.6368990489
O         20.2618793964       28.5339298886       14.8394121598
C         19.3713804073       29.0823458741       10.5754145175
N         20.4302340380       31.3532522885       16.0617825023
C         18.8962107319       27.8442646933       10.1042744175
C         19.8251249750       30.0429745440        9.6531912352
C         21.8381862311       31.5892444290       16.4726562126
S         19.4444974850       30.6494137278       17.2703846463
C         18.8684024920       27.5721292198        8.7264609166
C         19.8016941122       29.7704638541        8.2751862054
C         22.6159088802       32.6090442086       15.5995784729
O         19.9811683342       29.3046679873       17.5174766903
C         17.7980352769       30.5744247622       16.5225648463
O         19.3677592449       31.6698095010       18.3227646091
C         19.3188105286       28.5364351808        7.8113610688
C         21.9293180686       33.9939757289       15.5947559811
C         24.0654635906       32.7454343681       16.1111029563
C         17.2679715931       29.3357103541       16.0775535624
C         17.0517877024       31.7639707105       16.3552895167
C         15.9997192204       29.2727428605       15.4639022304
C         15.7967495429       31.6715416813       15.7448954025
C         15.2876186758       30.4673157686       15.3126712572
O         14.9159321073       32.6740309577       15.4757845814
O         14.0610277352       30.6535115550       14.7519000033
C         13.7582921620       32.0757482148       14.8261153072
H         21.1183236295       22.8207253696        5.3679219422
H         21.5119647865       26.9996753692        4.3105474382
H         21.4860897866       23.3925008315        7.7370832745
H         21.8707729880       27.5614101544        6.6682251880
H         22.0254492397       26.0794231864        2.1212327071
H         20.8757287042       25.1247970913        1.1494577089
H         20.2664310650       26.2996857852        2.3435602360
H         22.7689607244       27.7791173896        8.7236571130
H         23.9391343760       26.4223762127        8.8476065834
H         23.7664795717       26.4791522423       11.1587560099
H         21.2604039921       27.3716294398       12.6050419795
H         21.3276458282       30.3402278332       12.2041101077
H         21.9384280102       29.6938265528       14.4760627353
H         18.8390907429       28.6053048303       12.6120112788
H         18.8713452866       30.3186943019       12.2533173180
H         20.5843152287       31.7800516930       13.9925537253
H         19.1319890341       30.9198460874       14.4200893713
H         20.4291836404       28.6191622538       15.8070283751
H         18.5508762066       27.0894116479       10.8058556051
H         20.2015665018       30.9994323286       10.0055048283
H         21.8504137347       31.9634854177       17.5058876231
H         22.3825102371       30.6353746297       16.4830834981
H         18.5017943281       26.6127422030        8.3693461864
H         20.1550423809       30.5165139088        7.5679482460
H         22.6696883729       32.2381118018       14.5670767718
H         19.2956158686       28.3264442691        6.7450358680
H         22.4926022818       34.7079270303       14.9804715833
H         20.9131906333       33.9343618831       15.1855901340
H         21.8589989257       34.4022695462       16.6111344936
H         24.6382239571       33.4401244237       15.4832903167
H         24.0891148639       33.1226615100       17.1417425971
H         24.5812631932       31.7767219971       16.0917778313
H         17.8443767379       28.4217360226       16.2012991941
H         17.4392413978       32.7252028981       16.6821046358
H         15.5870709300       28.3300403642       15.1156440380
H         13.6308738262       32.4906488832       13.8184305076
H         12.8560766788       32.2418156147       15.4279718703
    83
VM2 Rank=8      G=227.099           E=130.877           -TS=96.222              
C         21.7987563460       24.7596024624        4.3476865202
C         21.4129407567       24.2705327466        5.6124956732
C         21.8192470734       26.1563426188        4.1448262885
C         22.1756066416       23.7896177267        3.2526971559
C         21.0590255796       25.1508190725        6.6479263471
C         21.4665442536       27.0363627742        5.1816870103
O         22.1543252050       22.5830657214        3.4381300219
C         22.5927919813       24.3243255091        1.8872730545
C         21.0888439351       26.5424027093        6.4435824707
N         20.7308870780       27.4346628971        7.4932295708
C         19.5753431266       27.1828956534        8.3466404808
C         21.3720741866       28.6138704906        7.8249482685
C         19.5203488755       28.4192951522        9.2604529571
O         22.3693237751       29.0857537121        7.3064119852
O         20.6888075223       29.1805073784        8.8595290314
C         19.5261119428       28.0524915949       10.7570227517
N         20.5636420231       28.5794677285       11.4950858801
O         18.7048910014       27.2987840697       11.2506510652
C         21.0591324388       27.9770965688       12.7436593996
C         20.7350843986       28.8704828310       13.9743966593
C         22.5726746156       27.6845945051       12.5868397965
C         19.2026052317       29.0220526192       14.1857415256
O         21.3210157223       28.3106448551       15.1516943349
C         22.8930265282       26.8795019289       11.3319453383
N         18.7991657444       30.1536763973       15.0639186364
C         22.4647622321       25.5440481699       11.2186053756
C         23.6039164993       27.4684198317       10.2697056858
C         19.1884745632       31.5174129409       14.6125527243
S         18.8187096235       29.8680169589       16.7478431109
C         22.7466257699       24.8040296421       10.0581921301
C         23.8896718768       26.7280859799        9.1105995326
C         18.7755201538       31.8645519796       13.1580121262
O         18.0041289517       28.6609057900       16.9308464309
C         17.8367128831       31.2279772571       17.4221442282
O         20.2225316143       29.9319270630       17.1749428821
C         23.4624236066       25.3953287611        9.0050594865
C         17.2439528220       31.7774618126       12.9675892325
C         19.2687680128       33.2800066782       12.7917931606
C         18.4621631656       32.2585243027       18.1698881467
C         16.4450238268       31.2744537602       17.1766752891
C         17.7089211451       33.3368744846       18.6793327641
C         15.7235699919       32.3555318396       17.6931469702
C         16.3340013015       33.3532071073       18.4201313846
O         14.3909396235       32.6093567980       17.5795828843
O         15.4145433261       34.2826651485       18.8002153549
C         14.1224230274       33.8563639707       18.2816688760
H         21.3880522169       23.1992416048        5.7968269355
H         22.1073440020       26.5755496682        3.1854149824
H         20.7739470403       24.7432360809        7.6137136147
H         21.4869355555       28.1075349021        4.9977069258
H         22.8329825573       23.4916788815        1.2158672178
H         21.7759308968       24.9080945453        1.4482142720
H         23.4777247459       24.9625128711        1.9894863619
H         19.7255271508       26.2685193890        8.9353353415
H         18.6612116256       27.0950033637        7.7460433096
H         18.6104033312       28.9985936843        9.0614082566
H         21.1927281639       29.1818025300       10.9782426806
H         20.5527730263       27.0136566367       12.8973295965
H         21.1732075535       29.8572474316       13.7780154578
H         23.1246759708       28.6328572975       12.5817296439
H         22.9302684815       27.1335651806       13.4659149225
H         18.7198676161       29.1493683994       13.2112471731
H         18.8103459852       28.0756367108       14.5811703759
H         21.1613594607       28.9438378288       15.8916032991
H         21.9108177762       25.0804981521       12.0305318593
H         23.9338043972       28.5015089848       10.3389134245
H         18.7298998647       32.2725544097       15.2629160442
H         20.2746977906       31.6416970214       14.7161997764
H         22.4127325125       23.7727566653        9.9766596649
H         24.4361344867       27.1900693874        8.2919312304
H         19.2580569099       31.1630072130       12.4640568401
H         23.6821138637       24.8237311328        8.1067356742
H         16.8738855119       30.7645104198       13.1693192678
H         16.7222298179       32.4675748179       13.6430517154
H         16.9629670514       32.0332666124       11.9380883929
H         20.3595092818       33.3531880236       12.8903060163
H         19.0111771467       33.5274278434       11.7539140296
H         18.8166351522       34.0394207526       13.4428858620
H         19.5340086629       32.2227790226       18.3520063678
H         15.9466735198       30.4999834874       16.5998397721
H         18.1770875569       34.1323913233       19.2523584165
H         13.7252888180       34.6064406125       17.5863458112
H         13.4191885978       33.6850109520       19.1062308533
    83
VM2 Rank=9      G=227.106           E=129.106           -TS=98.000              
C         20.2998285011       25.1836294217        5.4865709176
C         21.0011923812       24.9892254902        6.6959664085
C         19.1935372464       26.0579374821        5.4847515851
C         20.7042699532       24.4844267610        4.2101343888
C         20.6052251599       25.6538502029        7.8684376672
C         18.7993266935       26.7234691059        6.6571328291
O         20.0892854112       24.6562149477        3.1695314998
C         21.9043808860       23.5441821464        4.2175373326
C         19.5050128807       26.5304592197        7.8581184300
N         19.1087286349       27.2059201542        9.0457946410
C         19.0217614420       26.5116316545       10.3255066840
C         18.7492575039       28.5364824347        9.1514219286
C         18.5641372307       27.6072720043       11.3024010101
O         18.7310812799       29.3715008789        8.2639026688
O         18.4226805762       28.7747989030       10.4533560723
C         19.5732936043       27.8238291455       12.4447037248
N         20.3619085006       28.9466588411       12.3370024983
O         19.7252577170       27.0274244005       13.3537943600
C         21.6888115756       29.0852431318       12.9592877200
C         21.6083599711       29.6986975364       14.3869895541
C         22.6136695341       29.8886730079       12.0135940423
C         20.8763532517       31.0691513593       14.4135748764
O         20.9659909873       28.7677101555       15.2539726169
C         22.7211004925       29.2475769072       10.6353009983
N         20.6544174282       31.6449779204       15.7682677712
C         22.0166617101       29.7868841840        9.5425136664
C         23.5082880920       28.0966755991       10.4490001790
C         21.8679292935       31.9195359443       16.5771361263
S         19.2667492679       31.2114027025       16.6796527805
C         22.1021088055       29.1843197656        8.2766268316
C         23.5951319771       27.4939390353        9.1828915269
C         22.9298518346       32.8141227208       15.8849197401
O         19.6838632957       30.2475589081       17.7057199604
C         18.1150996226       30.3956097174       15.5384684808
O         18.6660003489       32.5020615015       17.0379602088
C         22.8939054912       28.0395806511        8.0957297880
C         22.3471983257       34.1923469253       15.4973042636
C         24.1487132053       33.0025549653       16.8124212313
C         17.4341713394       31.1577403335       14.5532633986
C         17.8699908764       29.0064217525       15.6467012689
C         16.5314299834       30.5439404391       13.6598449370
C         16.9596179325       28.4267399528       14.7574750954
C         16.3149889116       29.1685276302       13.7935047876
O         16.5655242909       27.1257121490       14.6836550947
O         15.4881662200       28.3678234125       13.0655093355
C         15.5357403322       27.0395584975       13.6596490728
H         21.8598942207       24.3261805174        6.7417133397
H         18.6338533787       26.2249132890        4.5676213627
H         21.1712458177       25.4953717201        8.7821502586
H         17.9414731453       27.3904511584        6.6272811455
H         22.8063440439       24.0906488249        4.5153324106
H         21.7317974232       22.7222415144        4.9214223312
H         22.0590121499       23.1256094059        3.2162068217
H         20.0000736429       26.1085813433       10.6176660743
H         18.2850055129       25.7001496356       10.2722068585
H         17.6001398976       27.3413184998       11.7487766079
H         20.1460853192       29.5482305454       11.5521164932
H         22.1261611415       28.0811814431       13.0608489080
H         22.6341566539       29.8538102504       14.7467796226
H         22.2500288723       30.9182128251       11.9128430470
H         23.6133055662       29.9620946730       12.4607372715
H         21.4698855822       31.7785378587       13.8272203123
H         19.9302305358       30.9821940095       13.8723965651
H         20.4572229946       28.1532130850       14.6717300819
H         21.3989580739       30.6715829709        9.6719328097
H         24.0515422983       27.6678873429       11.2868474698
H         21.5688411749       32.4189610852       17.5092003010
H         22.3306304028       30.9665314463       16.8686949328
H         21.5507721342       29.6020810962        7.4376716444
H         24.2048591332       26.6046606995        9.0447827825
H         23.2879254425       32.3148862582       14.9746461693
H         22.9578505103       27.5723640457        7.1162060245
H         23.1088023080       34.8177469465       15.0144566649
H         21.5101932816       34.0879705796       14.7957356402
H         21.9792028492       34.7274647901       16.3820851132
H         24.9235941186       33.6063952743       16.3228415940
H         23.8640030643       33.5079764261       17.7443647965
H         24.5958322703       32.0347592822       17.0737525030
H         17.6149922692       32.2278905039       14.4796914643
H         18.3700235905       28.3993234424       16.3964923419
H         16.0119248571       31.1180375566       12.8977711250
H         14.5691402790       26.8024096351       14.1216294532
H         15.7977739185       26.2849398941       12.9078112401
    83
VM2 Rank=10     G=227.130           E=130.917           -TS=96.213              
C         21.8178917433       24.8450428742        4.3095214743
C         21.3700889601       24.3448174358        5.5510908269
C         21.9121289535       26.2419985811        4.1430920038
C         22.1928151035       23.9276746127        3.1694534887
C         21.0288695012       25.2203741921        6.5952667759
C         21.5723443057       27.1167116948        5.1882038978
O         22.5762632686       24.3700590897        2.0980626262
C         22.0913454673       22.4180157510        3.3565888504
C         21.1328124562       26.6132923094        6.4258417862
N         20.7872152558       27.4979570466        7.4859562216
C         19.5943229226       27.2855202677        8.2976652817
C         21.4757896917       28.6352312197        7.8655867336
C         19.5740678586       28.5002981889        9.2414346901
O         22.5110937791       29.0677960627        7.3890666971
O         20.7897677192       29.2117006500        8.8928763617
C         19.5190311528       28.0967313932       10.7275245428
N         20.5599476485       28.5525748828       11.5070181352
O         18.6476177015       27.3734755473       11.1788317898
C         20.9876524753       27.8976912927       12.7542046101
C         20.6734680553       28.7790408961       13.9961432490
C         22.4884547921       27.5318585903       12.6329440851
C         19.1450649628       29.0031425394       14.1690841120
O         21.1968624433       28.1649111000       15.1758252992
C         22.8043044707       26.7390074959       11.3691703359
N         18.7740147276       30.1376178622       15.0578048807
C         22.3159995263       25.4285396926       11.2145716864
C         23.5717713694       27.3150866694       10.3397708283
C         19.2415521249       31.4882576620       14.6426313759
S         18.7347375399       29.8212618067       16.7359155210
C         22.5945488432       24.7002444012       10.0459606636
C         23.8540402915       26.5863281421        9.1725108393
C         18.8866018128       31.8806225753       13.1842631378
O         17.8548967201       28.6547707300       16.8749356313
C         17.8065037243       31.2178645613       17.4115067322
O         20.1282747330       29.8050005404       17.1996119594
C         23.3669438271       25.2782151060        9.0259306097
C         17.3585138310       31.8722160803       12.9509636091
C         19.4581027557       33.2763066435       12.8581275900
C         18.4645443982       32.2016148091       18.1935338813
C         16.4256753616       31.3402095291       17.1330092611
C         17.7546373072       33.3082421602       18.7045552199
C         15.7474587813       32.4477964525       17.6519038031
C         16.3893657665       33.3998618539       18.4121794838
O         14.4328326265       32.7718537369       17.5105768555
O         15.5092032834       34.3686509955       18.7870319469
C         14.2105599596       34.0185142756       18.2292506083
H         21.2826056810       23.2760518706        5.7221191300
H         22.2514831758       26.6551721346        3.1963044564
H         20.6948686082       24.8069196393        7.5427624058
H         21.6512429090       28.1892040708        5.0297058174
H         22.4004225860       21.9047205940        2.4385608607
H         22.7432359532       22.0977655121        4.1771493128
H         21.0573138667       22.1379187036        3.5871310822
H         19.6789497587       26.3503734354        8.8664508946
H         18.6961147153       27.2600922298        7.6678597843
H         18.6998328731       29.1291136943        9.0328405053
H         21.2327940186       29.1348663235       11.0234003321
H         20.4289986405       26.9582328952       12.8706399698
H         21.1657231323       29.7464425420       13.8348255409
H         23.0874660633       28.4505923921       12.6653232932
H         22.7921400096       26.9442764941       13.5086155710
H         18.6963113594       29.1716964826       13.1846777192
H         18.6956816278       28.0706190513       14.5356859608
H         21.0497920284       28.7902707123       15.9249684950
H         21.7181650281       24.9753821570       12.0008325626
H         23.9486088384       28.3293161853       10.4408817016
H         18.8023311425       32.2536152043       15.2943952597
H         20.3292310643       31.5572363497       14.7777632663
H         22.2143099535       23.6882114366        9.9326141337
H         24.4445862601       27.0384464084        8.3793386274
H         19.3536279344       31.1685012408       12.4904960198
H         23.5843804466       24.7156296808        8.1214443322
H         16.9341116602       30.8753226905       13.1235898341
H         16.8523505239       32.5752620150       13.6249256315
H         17.1191128813       32.1594189657       11.9192355134
H         20.5479395826       33.2941024459       12.9874167925
H         19.2419002829       33.5541169856       11.8184918416
H         19.0254357247       34.0455526511       13.5109020897
H         19.5282080536       32.1075835698       18.4010780351
H         15.9032527816       30.6026458718       16.5297093130
H         18.2481054315       34.0684722978       19.3036587892
H         13.4789069375       33.8690954740       19.0330919101
H         13.8698559185       34.8001057977       17.5387140484
    83
VM2 Rank=11     G=227.171           E=131.104           -TS=96.067              
C         23.0899476087       24.7198856341        4.7189096313
C         23.1403570291       26.0346970017        5.2297924150
C         22.5331063884       23.7067561875        5.5261470631
C         23.6135996523       24.3790439001        3.3435992526
C         22.6450375647       26.3245497070        6.5119499436
C         22.0364599586       23.9977600718        6.8073616257
O         23.5683867507       23.2380315994        2.9115626019
C         24.2117814056       25.4795675406        2.4744505406
C         22.0833015642       25.3107020770        7.3095360453
N         21.5804111955       25.6079198599        8.6073232604
C         22.3109318450       26.4707386280        9.5287560826
C         20.4069079362       25.1328229229        9.1628530408
C         21.4517886362       26.4522559635       10.8047121514
O         19.5829387424       24.4017859652        8.6406776273
O         20.3158669484       25.6312876327       10.4284271297
C         21.0479980494       27.8666091751       11.2639528223
N         19.6963178415       28.1342275443       11.2530046385
O         21.8687197601       28.7200124576       11.5545073553
C         19.1420211825       29.4895777324       11.1088421874
C         18.5765774689       30.0297659250       12.4517496719
C         18.0871037520       29.4830623881        9.9752648850
C         19.6611665816       30.0528249004       13.5622404801
O         18.0642147176       31.3519135115       12.2711791969
C         18.6300507128       28.9109511292        8.6705150161
N         19.2612650757       30.7100786704       14.8403957770
C         18.1787255360       27.6654752496        8.1955890576
C         19.6018137499       29.6174773269        7.9383677896
C         20.3918296694       30.9076201105       15.7908543008
S         17.7756692185       30.1758528063       15.5135848031
C         18.6886220915       27.1358133717        6.9986090727
C         20.1147134212       29.0870645376        6.7428682618
C         21.5956284494       31.7177944255       15.2386034958
O         16.7496159029       30.9043081852       14.7561980958
C         17.7333890209       30.8279398150       17.2023186836
O         17.8414036278       28.7103266107       15.5531591794
C         19.6558176083       27.8468266265        6.2713267161
C         21.1534979381       33.0931746706       14.6877707861
C         22.6507058122       31.9143637051       16.3480819829
C         18.0633291854       29.9917802735       18.3003249026
C         17.3907189353       32.1825163685       17.4221506668
C         18.0539583915       30.4951898629       19.6179242268
C         17.3899047966       32.6542674051       18.7388009260
C         17.7105845689       31.8390294305       19.8012152354
O         17.1011263213       33.9081552844       19.1833041449
O         17.6381200852       32.5403083462       20.9659698353
C         17.2445673016       33.9018874624       20.6322673949
H         23.5605656598       26.8450745309        4.6416941048
H         22.4837780032       22.6844903023        5.1589783479
H         22.6887035067       27.3471916692        6.8759853973
H         21.6157790308       23.1958782649        7.4087052061
H         24.5391087108       25.0631563465        1.5146412798
H         23.4623510228       26.2564146746        2.2854934777
H         25.0757372024       25.9269569319        2.9786833475
H         22.3873365669       27.4882837998        9.1239427429
H         23.3136538871       26.0694605963        9.7226931180
H         22.0020473266       25.9775862447       11.6263492471
H         19.1071689917       27.3525955309       10.9929497347
H         19.9511683338       30.1667652110       10.8001545303
H         17.7644032964       29.3584666181       12.7627341269
H         17.2066666001       28.9160774826       10.3029516666
H         17.7361734921       30.5078991011        9.7992051430
H         19.9668431764       29.0192615537       13.7714809962
H         20.5288263025       30.5599334857       13.1273445424
H         17.5595280377       31.5573576692       13.0932801646
H         17.4344459917       27.1042744357        8.7541657701
H         19.9607570842       30.5781053875        8.2980790161
H         20.0495429912       31.4543383078       16.6766117893
H         20.7508940888       29.9288885222       16.1380997283
H         18.3390023698       26.1710261989        6.6391230338
H         20.8655988897       29.6376265065        6.1818956398
H         22.0804721991       31.1517132638       14.4317568069
H         20.0521144087       27.4346724225        5.3466629731
H         22.0160438472       33.6622052022       14.3184203269
H         20.4506894826       32.9800871577       13.8522578102
H         20.6601915669       33.6901662250       15.4653605804
H         22.9978956445       30.9475647560       16.7348363114
H         23.5264764348       32.4528374996       15.9635560603
H         22.2421223883       32.4901805855       17.1886713151
H         18.3307118283       28.9513414407       18.1294056534
H         17.1399590571       32.8442135919       16.5974231857
H         18.3064628863       29.8643421588       20.4656691361
H         16.2886228653       34.1496970367       21.1103572906
H         18.0242368281       34.6096673134       20.9404467609
    83
VM2 Rank=12     G=227.175           E=131.591           -TS=95.583              
C         22.9531219636       24.4442451806        4.7066392098
C         23.2570431358       25.6768914958        5.3234905614
C         22.0728699005       23.5622364831        5.3664399685
C         23.5436191560       24.0543102180        3.3720476047
C         22.6929646580       26.0151548443        6.5647434144
C         21.5079368990       23.9019751539        6.6067060747
O         23.2769304912       22.9844440956        2.8477602333
C         24.4926528726       25.0135141003        2.6623691064
C         21.8090154883       25.1341550972        7.2144029192
N         21.2377692180       25.4803825377        8.4711140456
C         22.0364602961       26.0858257847        9.5306662318
C         19.9255096311       25.2842166573        8.8596141643
C         21.0498652388       26.2124001084       10.7042270377
O         19.0194814442       24.8101925658        8.1959530339
O         19.8036857928       25.7226895667       10.1446319594
C         20.9465678313       27.6550897397       11.2357541662
N         19.7067426232       28.2451944967       11.1217815877
O         21.9098354774       28.2644471535       11.6683025463
C         19.5085983043       29.7007881127       11.0389445331
C         18.9202949003       30.2784726492       12.3557788179
C         18.6339142967       30.0192120265        9.8013566876
C         19.8360766210       29.9804663209       13.5730442837
O         18.7421788709       31.6924912449       12.2381212115
C         19.1860662751       29.4085729576        8.5180473407
N         19.4264697094       30.6435288521       14.8376610204
C         18.5139619401       28.3447208505        7.8879906915
C         20.3840727648       29.8935204452        7.9620179247
C         20.5004353164       30.6599673279       15.8591868554
S         17.7896316346       30.4773924265       15.3240345258
C         19.0305448488       27.7769058350        6.7115442420
C         20.9032579445       29.3240715533        6.7873640095
C         20.8226647574       32.0926450448       16.3510569323
O         17.0790131878       31.5300104559       14.5868539026
C         17.7230427648       30.8767308232       17.0912798641
O         17.4808280476       29.0512112388       15.1688510386
C         20.2245784320       28.2670859111        6.1602278450
C         21.7624715376       32.0424024394       17.5732353684
C         21.4541465996       32.9408633774       15.2248434679
C         17.9625803773       29.8671196525       18.0598998870
C         17.4106606432       32.1924880861       17.5073950593
C         17.9217191015       30.1634704253       19.4381444188
C         17.3784000368       32.4581148747       18.8800933764
C         17.6283252133       31.4783331538       19.8144876178
O         17.1180253912       33.6406035058       19.5020998567
O         17.5364721085       31.9964536531       21.0701214534
C         17.2094962568       33.4089914765       20.9366739026
H         23.9298746872       26.3856903927        4.8501480753
H         21.8231497856       22.6048292418        4.9155655257
H         22.9379004322       26.9743876816        7.0120901274
H         20.8352465401       23.2007097419        7.0938567667
H         24.8249933679       24.5781592645        1.7127417519
H         23.9826633826       25.9615053773        2.4572754116
H         25.3703970750       25.2046015769        3.2899649715
H         22.4022287810       27.0730415827        9.2196255479
H         22.8831281390       25.4398174720        9.7950741667
H         21.3649989705       25.5706858562       11.5361337082
H         18.9808655384       27.6471299454       10.7461419049
H         20.4860007913       30.1787803900       10.8817436502
H         17.9459366973       29.7988055431       12.5218731752
H         17.6103028690       29.6672521029        9.9812111002
H         18.5603655546       31.1072796115        9.6783685462
H         19.8716531467       28.8942982905       13.7296175988
H         20.8518348671       30.3000807925       13.3042860882
H         18.2227349110       31.9680042969       13.0297370754
H         17.5919435344       27.9539403608        8.3099837265
H         20.9138047196       30.7117009169        8.4426406721
H         20.2340096965       30.0185784096       16.7078751290
H         21.4269152638       30.2373445455       15.4465313431
H         18.5087324310       26.9524039203        6.2317624913
H         21.8294511391       29.7030186935        6.3628560745
H         19.8967984129       32.5888668995       16.6630772041
H         20.6251199445       27.8251092607        5.2513035694
H         21.9801749982       33.0534161174       17.9408741077
H         21.3037868214       31.4804035176       18.3971792445
H         22.7159836605       31.5605998734       17.3209591907
H         20.7753235356       33.0245316410       14.3660211047
H         21.6724524420       33.9574357813       15.5757868399
H         22.3924791094       32.4946912415       14.8714412881
H         18.1875120123       28.8520848217       17.7398030631
H         17.2117001966       32.9827347202       16.7885642786
H         18.1110089287       29.3989904064       20.1865362017
H         16.2480540309       33.6245951412       21.4193157765
H         18.0057026406       34.0261958428       21.3713323546
    83
VM2 Rank=13     G=227.175           E=131.045           -TS=96.130              
C         22.9484603197       24.5045473153        4.8352292346
C         21.9704421983       23.6815440364        5.4304350430
C         23.3059807449       25.7036423002        5.4884057045
C         23.5833217093       24.0890623763        3.5290188259
C         21.3625812253       24.0463661878        6.6429698496
C         22.6988243154       26.0669059632        6.7019569343
O         23.2694879647       23.0484054630        2.9730038739
C         24.6381081987       24.9847151904        2.8890104658
C         21.7177630006       25.2453155961        7.2868286026
N         21.1030735477       25.6169411234        8.5154539164
C         21.8826227449       26.1477656112        9.6279651110
C         19.7599757592       25.5139913123        8.8267764699
C         20.8425571893       26.3342181752       10.7460117857
O         18.8608407259       25.1165342516        8.1059496170
O         19.5977225966       25.9447026145       10.1099642582
C         20.8158480216       27.7747622490       11.2922869410
N         19.6371855348       28.4628607850       11.1025350698
O         21.7915367339       28.3009924170       11.7996471031
C         19.5612195793       29.9303329953       11.0269778851
C         18.9531036378       30.5456196654       12.3178976714
C         18.7809553470       30.3279536778        9.7498856532
C         19.7706463360       30.1553414379       13.5786724156
O         18.9123211581       31.9703866986       12.2096709240
C         19.3505044708       29.6861346771        8.4896525560
N         19.3629189018       30.8313313741       14.8444800396
C         18.6333775619       28.6806297521        7.8149964933
C         20.6086713365       30.0825948968        8.0003978359
C         20.3032783383       30.6030823633       15.9776793032
S         17.6873073122       30.7657742217       15.2101916928
C         19.1655720849       28.0831926974        6.6603837277
C         21.1431679996       29.4834083030        6.8476110232
C         21.7808703515       30.9992770824       15.7125746171
O         17.0954918973       31.8396532400       14.4017602829
C         17.5359309699       31.2677562930       16.9434815882
O         17.2899533692       29.3595523094       15.0744958200
C         20.4199573324       28.4851037854        6.1756838981
C         21.9035649895       32.4691867685       15.2489940968
C         22.6205288396       30.7828841205       16.9896589766
C         17.5704415152       32.6437139398       17.2882393480
C         17.4045174096       30.2877761785       17.9550821366
C         17.4745068934       33.0526624390       18.6346685220
C         17.3111832868       30.7223434895       19.2813199839
C         17.3451291872       32.0589556117       19.6108993252
O         17.1849495585       29.9673275622       20.4070275531
O         17.2408761892       32.2097043216       20.9600104804
C         17.1327216154       30.8790471304       21.5411573435
H         21.6775212533       22.7508753410        4.9505114265
H         24.0542516455       26.3668925257        5.0649247874
H         20.6141213404       23.3905300907        7.0803334881
H         22.9871968584       26.9998594153        7.1780577669
H         24.9909545301       24.5380446582        1.9521215674
H         24.2107801943       25.9701365886        2.6718070557
H         25.4906171791       25.1028599915        3.5673137593
H         22.3383361180       27.1082471711        9.3542379061
H         22.6621367260       25.4365826500        9.9290716571
H         21.0617526856       25.6619453236       11.5845743172
H         18.8943076145       27.9282331011       10.6689709369
H         20.5810767576       30.3280756191       10.9255708474
H         17.9318910708       30.1540429781       12.4216024327
H         17.7246433216       30.0570142744        9.8716121567
H         18.8002160191       31.4194373408        9.6370422904
H         19.7022552699       29.0680680827       13.7151467534
H         20.8158944633       30.3821407369       13.3438123371
H         18.3568688795       32.2804746068       12.9634035997
H         17.6640097288       28.3580875487        8.1853990619
H         21.1731544787       30.8549494672        8.5160188439
H         19.9919957327       31.1899592509       16.8492357261
H         20.2667132986       29.5454779129       16.2735779510
H         18.6085155179       27.3038323635        6.1460244112
H         22.1159111393       29.7938606264        6.4747464371
H         22.2029833863       30.3459702726       14.9369531879
H         20.8323906653       28.0200112963        5.2837691810
H         21.3663609433       32.6356768504       14.3064134999
H         21.4900744966       33.1556600894       15.9987569735
H         22.9537620707       32.7403891916       15.0824502372
H         22.5685539217       29.7376729108       17.3207958176
H         23.6762656323       31.0224289217       16.8084712493
H         22.2660476033       31.4182305700       17.8117131726
H         17.6768317018       33.3945876643       16.5082996954
H         17.3800233975       29.2274292717       17.7188749906
H         17.5017969476       34.1034236931       18.9094703873
H         17.9739878341       30.6906980981       22.2198378412
H         16.1783677498       30.7720099839       22.0717856631
    83
VM2 Rank=14     G=227.179           E=131.109           -TS=96.071              
C         23.0968427575       24.7438259064        4.7076333649
C         23.1391128195       26.0581205865        5.2162118030
C         22.5515375250       23.7260932180        5.5196410983
C         23.6298948124       24.4589781761        3.3232279517
C         22.6487456993       26.3500820186        6.4993936350
C         22.0597202388       24.0193034050        6.8026222145
O         24.1001239363       25.3462607179        2.6288115490
C         23.5801779469       23.0361064785        2.7779665931
C         22.0986961900       25.3339093957        7.3018073111
N         21.5994835881       25.6302309395        8.6012978583
C         22.3256901382       26.5036752862        9.5161525046
C         20.4337241196       25.1450817115        9.1644510448
C         21.4741776503       26.4792680699       10.7971277463
O         19.6143864227       24.4042663368        8.6487918013
O         20.3444509047       25.6461241881       10.4291110993
C         21.0586624316       27.8903075374       11.2561272336
N         19.7042301719       28.1437919806       11.2530285915
O         21.8722082187       28.7527385801       11.5401286833
C         19.1348408688       29.4929635305       11.1098988252
C         18.5697141213       30.0282442518       12.4548571471
C         18.0750818546       29.4739100276        9.9809806478
C         19.6594221101       30.0651773578       13.5599557816
O         18.0410800935       31.3441251375       12.2754264628
C         18.6181008801       28.9048985665        8.6748955486
N         19.2575459119       30.7184773163       14.8395074964
C         19.5807348487       29.6190538831        7.9381096811
C         18.1762557988       27.6546964495        8.2034669593
C         20.3899048476       30.9311760021       15.7845177218
S         17.7816169303       30.1666972876       15.5197639841
C         20.0941108827       29.0913874801        6.7416070939
C         18.6865771697       27.1277803159        7.0054513173
C         21.5810740271       31.7554181325       15.2257459271
O         16.7435522196       30.8840808378       14.7681941349
C         17.7405987601       30.8158608019       17.2096693689
O         17.8644629763       28.7019823975       15.5573919290
C         19.6447232858       27.8463398949        6.2736097081
C         21.1194989296       33.1245289334       14.6752340635
C         22.6386945726       31.9664444084       16.3301367609
C         18.0883984298       29.9826854641       18.3044319987
C         17.3807356098       32.1652966731       17.4336136096
C         18.0798738091       30.4839602903       19.6228459693
C         17.3811615901       32.6350279579       18.7509911085
C         17.7191848045       31.8226839007       19.8102422146
O         17.0777473384       33.8841490444       19.1991528593
O         17.6438488151       32.5211392107       20.9765092842
C         17.2295929424       33.8776499136       20.6472603128
H         23.5535083909       26.8618239706        4.6124038620
H         22.5021221212       22.6998046016        5.1682344847
H         22.6870503450       27.3742858714        6.8594713331
H         21.6480603506       23.2164400824        7.4089483752
H         24.1607826920       22.3673114235        3.4232816398
H         22.5423205144       22.6867632868        2.7373013887
H         24.0029342755       23.0069575936        1.7669251626
H         22.3883006898       27.5208595399        9.1080543210
H         23.3339601724       26.1142105303        9.7053503124
H         22.0339395164       26.0117567389       11.6164473796
H         19.1217280003       27.3555527995       10.9979864707
H         19.9352835051       30.1784914944       10.7969653455
H         17.7669225302       29.3479022130       12.7705085088
H         17.2018391227       28.8986815956       10.3135097673
H         17.7131333505       30.4948754473        9.8047294708
H         19.9785629314       29.0355396331       13.7684462445
H         20.5187980815       30.5823885471       13.1205231461
H         17.5384047417       31.5447820226       13.0999328456
H         19.9323764715       30.5833968918        8.2950770772
H         17.4391500111       27.0876505443        8.7656377936
H         20.0448755982       31.4748722807       16.6710804505
H         20.7625991088       29.9574188184       16.1313823249
H         20.8381041022       29.6477024376        6.1771180481
H         18.3444257513       26.1593008584        6.6487297022
H         22.0691670645       31.1942988930       14.4173951188
H         20.0416865355       27.4362726442        5.3482526177
H         20.4143765987       33.0017114911       13.8430517645
H         20.6223639491       33.7163742579       15.4543185009
H         21.9732690836       33.7037030247       14.3012873467
H         22.9995594060       31.0045138814       16.7165106981
H         23.5059842547       32.5151883197       15.9409353815
H         22.2268719030       32.5382749970       17.1718660444
H         18.3689557208       28.9462500094       18.1303368472
H         17.1160522014       32.8247147090       16.6114160740
H         18.3459367101       29.8553632989       20.4681109874
H         16.2730740993       34.1114665582       21.1312153340
H         18.0011510805       34.5956819939       20.9521167971
    83
VM2 Rank=15     G=227.189           E=131.047           -TS=96.142              
C         22.9746131331       24.5321246383        4.8283889497
C         22.0099575346       23.6958458100        5.4305376677
C         23.3179514880       25.7361227459        5.4767176680
C         23.6390857630       24.1695440695        3.5211459548
C         21.4050905744       24.0588127113        6.6455649430
C         22.7140605525       26.0974190210        6.6920542345
O         24.4724120211       24.8997714541        3.0083718942
C         23.2632117853       22.8667114456        2.8242250619
C         21.7472722297       25.2645756905        7.2842515555
N         21.1338534010       25.6316441430        8.5149461368
C         21.9114015687       26.1788908239        9.6208931987
C         19.7942294073       25.5096445500        8.8343412082
C         20.8753350299       26.3518823799       10.7447975513
O         18.8971867967       25.0957182380        8.1201916303
O         19.6327365642       25.9426240558       10.1168591317
C         20.8303476333       27.7927214396       11.2890671689
N         19.6401182487       28.4625049424       11.1061164999
O         21.8012786898       28.3345915377       11.7890418865
C         19.5418720456       29.9284684322       11.0269887528
C         18.9325831906       30.5383967036       12.3198760521
C         18.7482736214       30.3108686443        9.7534624554
C         19.7636070997       30.1638792913       13.5766090671
O         18.8700288020       31.9620780855       12.2078585449
C         19.3190148234       29.6727902001        8.4918543279
N         19.3540222909       30.8375763152       14.8430453449
C         18.6104561964       28.6572157034        7.8232469064
C         20.5700661865       30.0826813940        7.9954613816
C         20.3048006818       30.6263341232       15.9708394691
S         17.6819340600       30.7484977751       15.2197347081
C         19.1440661123       28.0629738767        6.6676331200
C         21.1060470824       29.4866392463        6.8417443051
C         21.7746245226       31.0437358045       15.6953130172
O         17.0690231113       31.8104622322       14.4112818831
C         17.5341969656       31.2549438835       16.9520397483
O         17.3046226057       29.3360473534       15.0917410905
C         20.3914170807       28.4781031690        6.1759545895
C         21.8724639617       32.5140294961       15.2270652142
C         22.6254500401       30.8433696000       16.9676137034
C         17.5514613212       32.6325706978       17.2913873371
C         17.4228565056       30.2771245573       17.9681283133
C         17.4580865664       33.0453284464       18.6368334694
C         17.3315931905       30.7154566896       19.2932732648
C         17.3487365561       32.0536769070       19.6175919878
O         17.2229519198       29.9630926009       20.4225865943
O         17.2506859001       32.2081518779       20.9667476603
C         17.1649151385       30.8783571968       21.5535753499
H         21.7181421328       22.7584088554        4.9665842037
H         24.0577241854       26.3996221809        5.0354124980
H         20.6677223344       23.3950909382        7.0899171880
H         22.9933687609       27.0358241721        7.1626954978
H         23.8339391018       22.7606561239        1.8942783283
H         23.4880658549       22.0149942241        3.4760238017
H         22.1938648381       22.8651473330        2.5847797089
H         22.3493192720       27.1458997250        9.3411323822
H         22.7045192651       25.4817946610        9.9194064420
H         21.1095101700       25.6842895376       11.5830503539
H         18.9026577463       27.9158035564       10.6783832498
H         20.5550893913       30.3409903373       10.9183524735
H         17.9179468893       30.1320371659       12.4310102118
H         17.6966440261       30.0255549045        9.8826504575
H         18.7515614668       31.4021325787        9.6369508668
H         19.7120149535       29.0761260384       13.7166087720
H         20.8039323623       30.4052321748       13.3345068662
H         18.3145178149       32.2660756676       12.9640269428
H         17.6467428447       28.3243091273        8.1991899352
H         21.1279782513       30.8629215158        8.5063371433
H         19.9903626582       31.2108201870       16.8428638561
H         20.2858314108       29.5690958478       16.2696831042
H         18.5937360844       27.2757676493        6.1580112430
H         22.0733684823       29.8073024087        6.4634280308
H         22.2015233466       30.3946610776       14.9187582577
H         20.8052400012       28.0153262343        5.2834245617
H         21.4534080214       33.1963163188       15.9775607905
H         22.9174385701       32.8004202113       15.0532532397
H         21.3270013886       32.6698716165       14.2874095396
H         23.6763378007       31.0980947919       16.7790889368
H         22.2667377543       31.4756315428       17.7902119393
H         22.5911391306       29.7984137496       17.3018464131
H         17.6424670756       33.3818464808       16.5079721851
H         17.4118441613       29.2156342516       17.7360830262
H         17.4722718906       34.0974240337       18.9074903164
H         18.0129558384       30.7044933708       22.2276758658
H         16.2154810484       30.7599422324       22.0905744440
    83
VM2 Rank=16     G=227.194           E=130.492           -TS=96.702              
C         21.0365378871       25.6978955336        4.6482925873
C         20.0023984774       26.1516086794        5.4923882335
C         22.3731773247       25.9231345784        5.0421503571
C         20.6942728258       24.9909139090        3.3579806313
C         20.2934140059       26.8104666289        6.6979952249
C         22.6634724414       26.5809252888        6.2491853296
O         19.5347767837       24.8011689323        3.0260705565
C         21.8167737856       24.5017449305        2.4496553135
C         21.6271943501       27.0253960146        7.0903531019
N         21.9221683835       27.6919856706        8.3128726111
C         21.1897917599       28.8831168717        8.7274963750
C         22.9032360439       27.3446267998        9.2231197083
C         21.8870655281       29.3040035410       10.0325184794
O         23.6673301614       26.3967025011        9.1628322012
O         22.8750624716       28.2603011326       10.2326200558
C         20.9050026384       29.4383844155       11.2121021822
N         21.1384757979       28.6004495780       12.2808737282
O         19.9449841409       30.1892780857       11.1837961517
C         20.0863996920       28.1740434161       13.2175083208
C         20.2495619768       28.8422641201       14.6118692405
C         20.0780587155       26.6264494204       13.2857119160
C         20.1598799132       30.3905031842       14.5169504648
O         19.2379035619       28.3582008409       15.4968347584
C         19.9778960733       25.9766636983       11.9099768465
N         20.5345830460       31.1216105666       15.7605476661
C         21.0701489696       25.2690968762       11.3744591022
C         18.7958733824       26.0946755793       11.1559681635
C         21.9224627218       30.9234224318       16.2522021342
S         19.3626639602       31.3294179303       16.9882276763
C         20.9788234523       24.6802656567       10.1023622350
C         18.7048848053       25.5093181671        9.8821319002
C         23.0354155694       31.1625809856       15.1971371749
O         19.2939282946       30.0574495633       17.7195921888
C         17.8252583210       31.6575003450       16.0921543045
O         19.7320021142       32.5909332166       17.6415779672
C         19.7959002082       24.7991377853        9.3563529011
C         22.9851035266       32.6003626186       14.6317293754
C         24.4213016628       30.8934233969       15.8201144656
C         17.6298368094       32.9134171528       15.4620630356
C         16.8308333805       30.6560788913       15.9979368340
C         16.4502201495       33.1809256387       14.7366455329
C         15.6721292428       30.9483773070       15.2712404119
C         15.4872597899       32.1688837162       14.6609224124
O         14.5964026069       30.1455567893       15.0439097661
O         14.2860364938       32.1932508234       14.0204214665
C         13.6540967522       30.8980867902       14.2281489100
H         18.9635786932       25.9916222644        5.2139820746
H         23.2000825600       25.5927906821        4.4206201708
H         19.4745085081       27.1407343156        7.3308016924
H         23.7014966158       26.7450692202        6.5271005871
H         21.3958469400       24.0130881697        1.5631950179
H         22.4334202450       25.3483001344        2.1272982397
H         22.4450275518       23.7813542771        2.9855410198
H         20.1346516524       28.6405769150        8.9093361970
H         21.2668429577       29.6704513295        7.9670631965
H         22.3865663162       30.2716606348        9.9008086453
H         21.9590140156       28.0134247909       12.1927424522
H         19.1118606944       28.4892108310       12.8182628910
H         21.2402096863       28.5638099461       14.9943932896
H         20.9814019794       26.2825079111       13.8049372296
H         19.2325353382       26.2930085394       13.9007158347
H         20.8199808931       30.7261535330       13.7101977204
H         19.1512350462       30.6606733617       14.1831685186
H         19.4294915047       28.7178366433       16.3948339823
H         21.9925761501       25.1764669741       11.9414072809
H         17.9477601720       26.6426593098       11.5577439719
H         22.1067533675       31.6114286669       17.0890701305
H         22.0252522536       29.9079397099       16.6577358997
H         21.8275999358       24.1381699337        9.6925190078
H         17.7890195930       25.6042883546        9.3043651278
H         22.9096849375       30.4532816497       14.3676966151
H         19.7269995854       24.3453747609        8.3707862759
H         23.7807074733       32.7581795230       13.8925581633
H         22.0274418758       32.8007801304       14.1354731453
H         23.1116129168       33.3423426245       15.4305122648
H         24.4884997799       29.8652154690       16.1983322502
H         25.2172628071       31.0271906230       15.0762613896
H         24.6205416032       31.5768317259       16.6557549102
H         18.3996299350       33.6788457598       15.5326251101
H         16.9570767255       29.6834683166       16.4654989875
H         16.2918279182       34.1384137100       14.2483448838
H         12.7023049165       31.0197079745       14.7602138914
H         13.4962617517       30.3935296777       13.2667350336
    83
VM2 Rank=17     G=227.195           E=128.435           -TS=98.760              
C         20.3015870187       24.9895197023        5.5501845830
C         18.9757620354       25.3051845421        5.9114054880
C         21.3285757147       25.2278030306        6.4885571087
C         20.5886083687       24.4104280274        4.1848746116
C         18.6824014781       25.8478486988        7.1732532691
C         21.0341011005       25.7688815854        7.7509900704
O         19.6929089852       24.2047308153        3.3811361934
C         22.0248300010       24.0745064505        3.7991295143
C         19.7101299968       26.0904814705        8.1025314149
N         19.4152968614       26.6396473274        9.3823678658
C         20.0529816298       26.1349936374       10.5932942407
C         18.5188096857       27.6565155735        9.6553854698
C         19.3702087720       26.9272538740       11.7196106468
O         17.8578305798       28.2972720101        8.8568305812
O         18.5131370352       27.8524745865       11.0038390868
C         20.3801038083       27.6382992864       12.6379106042
N         20.5258956087       28.9903751953       12.4266491953
O         21.0633152882       27.0472405093       13.4555354044
C         21.7629921826       29.7339126261       12.7168832326
C         21.7522191097       30.3628408271       14.1404813398
C         22.0069174401       30.7737318797       11.5964858039
C         20.5809133527       31.3630414039       14.3474833071
O         21.7050805242       29.3170222060       15.1083052482
C         22.0346769205       30.1329287160       10.2140428986
N         20.3774443969       31.8313889642       15.7462834184
C         23.1622015445       29.4052175858        9.7924124595
C         20.9233765316       30.2432565542        9.3569855834
C         21.5187302370       32.5380301448       16.3789388260
S         19.3885371251       30.9394368828       16.8295574486
C         23.1820644465       28.7999138490        8.5247118944
C         20.9419947316       29.6376279022        8.0899082248
C         22.0563141351       33.7575200813       15.5847137628
O         20.2723974539       30.2536744855       17.7807533903
C         18.5146380683       29.6905566940       15.8447492374
O         18.3868753838       31.9147522254       17.2773418720
C         22.0729512502       28.9190497507        7.6719704014
C         20.9568124149       34.8209452585       15.3622388409
C         23.2523839293       34.3879574221       16.3286076758
C         18.8616538053       28.3186902561       15.9525854979
C         17.4730621617       30.0864468894       14.9725566152
C         18.1964920569       27.3414583966       15.1840893284
C         16.8423880039       29.0983919036       14.2097411410
C         17.1907755497       27.7706376495       14.3123865658
O         15.8568778730       29.2512068750       13.2836118122
O         16.4430706197       27.0233324169       13.4546480291
C         15.5796747832       27.9375738308       12.7210407960
H         18.1643436531       25.1291783415        5.2093407353
H         22.3634553435       24.9995761317        6.2517817172
H         17.6501457202       26.0772066147        7.4249222799
H         21.8463724522       25.9503478239        8.4492530467
H         22.4332776264       23.3281769981        4.4897720292
H         22.0545094534       23.6681214417        2.7814128304
H         22.6438227077       24.9779697882        3.8371250336
H         21.1315066313       26.3390166894       10.5719577025
H         19.8773914476       25.0575585147       10.7052986122
H         18.7655001360       26.2531953606       12.3382945581
H         19.8952914955       29.3829737055       11.7389957817
H         22.6027295946       29.0243547050       12.6839853063
H         22.6927558977       30.9136682621       14.2742943547
H         21.2315399895       31.5485360006       11.6235925960
H         22.9581741839       31.2890560725       11.7812055503
H         20.7734128621       32.2360980625       13.7146027325
H         19.6617768132       30.9274501371       13.9474088928
H         21.4205694245       28.5059052999       14.6224089165
H         24.0230225376       29.3075763357       10.4484796312
H         20.0422185737       30.7961144113        9.6714978919
H         21.2101136591       32.8968386489       17.3706891107
H         22.3371046463       31.8240719732       16.5460644162
H         24.0564192510       28.2395022082        8.2035849376
H         20.0787704515       29.7224058294        7.4341350704
H         22.4228347337       33.4204749991       14.6059094047
H         22.0867051024       28.4498613757        6.6913774094
H         21.3504390229       35.6806552838       14.8052270240
H         20.1162762210       34.4107781410       14.7886820687
H         20.5636080383       35.1873111863       16.3191938647
H         24.0574107445       33.6550000957       16.4684494922
H         23.6650991559       35.2323425492       15.7616658802
H         22.9541114221       34.7578920141       17.3181534114
H         19.6589514119       28.0127225140       16.6262837708
H         17.1837033264       31.1293269648       14.8756920558
H         18.4658066112       26.2912342930       15.2522740135
H         15.8361007755       27.9237547543       11.6541374927
H         14.5255438348       27.6715196389       12.8682933852
    83
VM2 Rank=18     G=227.220           E=130.948           -TS=96.272              
C         23.1889748936       25.0525650081        4.6089705246
C         22.6868449152       26.3482577624        4.8473844780
C         23.3325664792       24.1751427882        5.7053062846
C         23.5577703784       24.6390658440        3.2036610818
C         22.3353350508       26.7573102513        6.1440761993
C         22.9792248971       24.5846149524        7.0019853827
O         23.4302275825       25.4056543766        2.2620249126
C         24.0993842562       23.2363617624        2.9518207605
C         22.4724335708       25.8765437517        7.2324708048
N         22.1154919578       26.2907680735        8.5466374048
C         22.4762400218       27.6094688731        9.0544601511
C         21.4360114587       25.5413652608        9.4891780259
C         21.9766254447       27.5893859923       10.5093714161
O         20.9940033527       24.4127135637        9.3594340384
O         21.3350623650       26.2927832318       10.6220647742
C         21.0263100098       28.7598715938       10.8274378227
N         19.7690470273       28.4036023816       11.2647597909
O         21.3385464273       29.9249062647       10.6504194054
C         18.5862085581       29.2692849797       11.1278029677
C         18.0904893830       29.7775949875       12.5111924202
C         17.4977989726       28.5004448689       10.3370749635
C         19.1545361802       30.6700209710       13.2095635416
O         16.8805981058       30.5218393057       12.3532927864
C         18.0145057805       27.9299340522        9.0205954501
N         18.9556350518       30.8552833956       14.6727421803
C         18.3868235098       28.7918452049        7.9726571004
C         18.1402764935       26.5389875911        8.8473838311
C         18.9845789436       29.6242619338       15.5089213464
S         17.8683978004       32.0825996964       15.1520357289
C         18.8761026953       28.2697020689        6.7636856531
C         18.6257243391       26.0157538687        7.6374915771
C         20.2261727145       28.7188911511       15.2949424472
O         18.3448194757       33.2913872882       14.4693996217
C         18.2424157858       32.3264540752       16.9040801077
O         16.5134277135       31.5546881729       14.9455282716
C         18.9923519060       26.8807962738        6.5947988877
C         21.5385313990       29.4722183021       15.6105731756
C         20.1204654242       27.4588774824       16.1793229444
C         19.4691411326       32.9259391311       17.2883536987
C         17.3242523361       31.8957263841       17.8895543748
C         19.7892890268       33.1034202194       18.6504383785
C         17.6677715267       32.0848203620       19.2322903477
C         18.8593783204       32.6686046773       19.6010862178
O         16.9501610064       31.7495771647       20.3395025477
O         18.9485879876       32.7297693684       20.9583130998
C         17.7314583423       32.1448952907       21.5029130739
H         22.5659078552       27.0450689478        4.0214973278
H         23.7181563292       23.1694703564        5.5669324034
H         21.9437213360       27.7594455594        6.2941083051
H         23.1035064045       23.8905360069        7.8293192999
H         24.3131165525       23.1028371660        1.8849250510
H         25.0244650794       23.0846821603        3.5193065923
H         23.3602201885       22.4885711479        3.2605037435
H         21.9689639487       28.3941300485        8.4781067100
H         23.5626729609       27.7576499837        9.0122182294
H         22.8243074801       27.6486148582       11.2030103004
H         19.6172680488       27.4070705445       11.3625761889
H         18.8606336677       30.1528941122       10.5343815644
H         17.8995378806       28.8905584602       13.1283726773
H         17.0936349367       27.6979778515       10.9668616637
H         16.6554320368       29.1723996648       10.1292900003
H         20.1462898449       30.2359286528       13.0457870139
H         19.1784893319       31.6441763790       12.7032047204
H         16.5556189256       30.7523163851       13.2561941919
H         18.2986990188       29.8678219784        8.0970251116
H         17.8649811241       25.8609163325        9.6507017011
H         18.9662023446       29.8934105539       16.5722473629
H         18.0760800346       29.0352417856       15.3250732108
H         19.1623251120       28.9409341311        5.9579690297
H         18.7239364614       24.9402511578        7.5113264326
H         20.2558562750       28.3804257426       14.2504291413
H         19.3699323450       26.4751038244        5.6594823517
H         21.6647669956       30.3446479045       14.9574138563
H         21.5510260520       29.8247971802       16.6498889149
H         22.4086848057       28.8200159742       15.4631872035
H         19.2095008350       26.8920996955       15.9476289829
H         20.9773592919       26.7929174512       16.0150169184
H         20.0957753371       27.7219132063       17.2448080013
H         20.1745989892       33.2487970059       16.5257490465
H         16.3808517720       31.4282174717       17.6208302824
H         20.7266586277       33.5598565523       18.9559189995
H         17.9722201470       31.2671961261       22.1156836546
H         17.1833935530       32.8889389785       22.0943817626
    83
VM2 Rank=19     G=227.222           E=131.592           -TS=95.631              
C         22.7513034810       24.2927255856        4.7917177232
C         23.2747053671       25.3626866660        5.5490284905
C         21.5782885637       23.6574872382        5.2484742961
C         23.4127634611       23.8191357742        3.5189053038
C         22.6388495896       25.7838403396        6.7287015457
C         20.9421604433       24.0803412644        6.4271889661
O         22.9540692649       22.8906945268        2.8722145996
C         24.6793275749       24.5119404530        3.0287874755
C         21.4641241503       25.1510793870        7.1750432563
N         20.8211882540       25.5811639841        8.3696923882
C         21.5812285024       25.8915229119        9.5751564915
C         19.4607694236       25.7364941462        8.5609404760
C         20.4971770497       26.2296676305       10.6130003944
O         18.5732515123       25.5629880624        7.7434816723
O         19.2658700391       26.1299637579        9.8515107062
C         20.7018723526       27.6179755909       11.2495903271
N         19.6964008907       28.5322137868       11.0224797329
O         21.7148927132       27.9164863390       11.8586683408
C         19.9080664154       29.9881525407       11.0407877356
C         19.3020653770       30.6429187007       12.3127849300
C         19.3481240230       30.5937681091        9.7301418221
C         19.9102471677       30.0469176846       13.6105300466
O         19.5261816177       32.0551058956       12.2955449925
C         19.9059988076       29.9157987979        8.4836351597
N         19.5067955062       30.7363874268       14.8632596434
C         21.2599024910       30.0768810814        8.1364134124
C         19.0786278523       29.1100189995        7.6794877876
C         20.3737280361       30.3913207624       16.0153623095
S         17.8292315384       30.9988256709       15.1113239546
C         21.7808419666       29.4425143195        6.9963102183
C         19.5977975614       28.4780258895        6.5374073065
C         20.9747143442       31.6436922134       16.7000739978
O         17.5353860883       32.2314876477       14.3692640224
C         17.6017033808       31.3319965996       16.8789498053
O         17.1869361504       29.7153556888       14.8053977171
C         20.9485981459       28.6450008137        6.1947718492
C         21.6711501990       31.2516283158       18.0194985884
C         21.9685179886       32.3680125222       15.7650517689
C         17.5653518266       32.6689379615       17.3548504915
C         17.4373903650       30.2572536135       17.7844294577
C         17.3954960497       32.9428955208       18.7279257212
C         17.2723206824       30.5582631169       19.1401138989
C         17.2548896720       31.8565891904       19.5977988459
O         17.1127137022       29.6945889910       20.1800696991
O         17.0828091616       31.8731492463       20.9482184400
C         16.9861712495       30.4901052355       21.3930141913
H         24.1758097171       25.8800007813        5.2335171234
H         21.1544531839       22.8288637053        4.6863158242
H         23.0591536363       26.6157143064        7.2868833457
H         20.0410867422       23.5695673279        6.7570020303
H         25.0243486172       24.0476494017        2.0975681522
H         24.4773265227       25.5725291468        2.8412081775
H         25.4701585255       24.4231744902        3.7821346500
H         22.2395533633       26.7529925271        9.4030940253
H         22.1748483503       25.0250570511        9.8928652385
H         20.4997453188       25.4872459033       11.4204525027
H         18.9036557645       28.1762756524       10.5023361572
H         20.9895806025       30.1845195619       11.0571967928
H         18.2217570011       30.4430729383       12.3056385186
H         18.2527615398       30.5299420036        9.7408148601
H         19.5864664371       31.6644096331        9.6934525030
H         19.6311638728       28.9869728144       13.6754516284
H         21.0029152695       30.0858693844       13.5069982825
H         18.9818528375       32.4251634148       13.0298244835
H         21.9090193568       30.6932628776        8.7526534016
H         18.0328479860       28.9694980101        7.9392992357
H         19.8204686541       29.7879872163       16.7451151322
H         21.2134489221       29.7635539401       15.6866472218
H         22.8278280584       29.5706328513        6.7335409845
H         18.9544140020       27.8533430993        5.9224994780
H         20.1722097998       32.3485717906       16.9442907865
H         21.3502211685       28.1530888753        5.3123656893
H         22.4951973862       30.5490743526       17.8396876274
H         22.0832676222       32.1361917129       18.5218983291
H         20.9625251411       30.7765994030       18.7103959592
H         21.4742885479       32.6940285278       14.8404892011
H         22.3849182076       33.2593752615       16.2511836775
H         22.8028854418       31.7109927261       15.4882937184
H         17.6792433538       33.4962195525       16.6578043644
H         17.4459956644       29.2247435777       17.4457990679
H         17.3745798399       33.9625493790       19.1023518002
H         17.8023977968       30.2562790587       22.0879325961
H         16.0132109007       30.3096537452       21.8669223639
    83
VM2 Rank=20     G=227.243           E=128.476           -TS=98.766              
C         20.3517519039       24.9773483314        5.5623432337
C         19.0192528635       25.2578297433        5.9339537099
C         21.3781529469       25.2458543410        6.4907492833
C         20.6976297652       24.4025608575        4.2089052499
C         18.7258534692       25.7958525440        7.1982047904
C         21.0838751101       25.7820967731        7.7548732854
O         21.8535792207       24.1636165942        3.8970416293
C         19.5834855082       24.1149474384        3.2087548580
C         19.7551501347       26.0688952625        8.1176333693
N         19.4573179087       26.6138931312        9.3986374035
C         20.1214439856       26.1322867498       10.6047505517
C         18.5349475383       27.6057850844        9.6773736770
C         19.4284622763       26.9096247195       11.7352410007
O         17.8475132481       28.2241164954        8.8834768152
O         18.5370827398       27.8063604577       11.0251582578
C         20.4274319871       27.6539189774       12.6390702808
N         20.5311205177       29.0087839832       12.4208458533
O         21.1368868354       27.0866449942       13.4511754275
C         21.7491460433       29.7893974613       12.6939392650
C         21.7361621167       30.4238880184       14.1150352160
C         21.9498961501       30.8310410392       11.5666874426
C         20.5384190765       31.3901858384       14.3315413546
O         21.7308184514       29.3813258573       15.0874884434
C         21.9806162456       30.1852795350       10.1866301562
N         20.3375410816       31.8587469143       15.7306437481
C         23.1232249918       29.4870100464        9.7559291987
C         20.8575966936       30.2610812152        9.3411782122
C         21.4648443211       32.6014766671       16.3468281560
S         19.3879857156       30.9430600730       16.8292254766
C         23.1461553681       28.8765958558        8.4907439622
C         20.8793452880       29.6503789857        8.0765822435
C         21.9572635076       33.8324054606       15.5410332284
O         20.3026590476       30.2879066157       17.7728350928
C         18.5398686057       29.6645640813       15.8599974042
O         18.3633076224       31.8905331978       17.2846471557
C         22.0250995547       28.9611649436        7.6495778027
C         20.8246162762       34.8622095485       15.3268420218
C         23.1429369630       34.5010060616       16.2680504914
C         18.9284413329       28.3040099078       15.9694106591
C         17.4770424999       30.0257031380       14.9984255426
C         18.2836266297       27.3042002817       15.2127054299
C         16.8670724255       29.0161165336       14.2470547877
C         17.2557009014       27.6996822723       14.3510291785
O         15.8668967880       29.1357154429       13.3318263417
O         16.5205944754       26.9268819830       13.5050737917
C         15.6221838670       27.8120165467       12.7778495199
H         18.1979277745       25.0632915451        5.2507474845
H         22.4137507538       25.0398588557        6.2312703168
H         17.6904869352       25.9983318081        7.4601112671
H         21.8983638649       25.9868123156        8.4439795944
H         19.0450567639       25.0395227839        2.9719143714
H         20.0062411629       23.7051813122        2.2840127649
H         18.8813607266       23.3864371919        3.6296038797
H         21.1935498083       26.3663177341       10.5713479441
H         19.9773249895       25.0508169009       10.7226275909
H         18.8504907767       26.2212316571       12.3636148149
H         19.8815604554       29.3798326214       11.7388924718
H         22.6088422287       29.1045169526       12.6542740736
H         22.6615871927       31.0026244278       14.2357778033
H         21.1526223087       31.5830595575       11.5996143186
H         22.8877836742       31.3745996692       11.7383815471
H         20.6977715712       32.2656185618       13.6927602885
H         19.6279166329       30.9259591342       13.9441292938
H         21.4645974478       28.5601492707       14.6081631697
H         23.9933710838       29.4160521218       10.4030617939
H         19.9649111948       30.7908267166        9.6628764895
H         21.1573137686       32.9557757890       17.3405351999
H         22.3056704709       31.9125654114       16.5075061618
H         24.0320360651       28.3387882791        8.1626000860
H         20.0071186823       29.7082595086        7.4298669837
H         22.3221075229       33.5016185091       14.5594722138
H         22.0412572129       28.4876142287        6.6710579133
H         21.1864115518       35.7303690192       14.7614137035
H         19.9897974381       34.4249498858       14.7650725009
H         20.4320684617       35.2215127743       16.2867394641
H         23.9706449924       33.7925463045       16.4015943345
H         23.5241351992       35.3544144395       15.6926145777
H         22.8454948746       34.8667137761       17.2594150587
H         19.7421612606       28.0246699943       16.6349915482
H         17.1559387802       31.0591648293       14.9006545646
H         18.5846304846       26.2626899724       15.2820149487
H         15.8666290561       27.8010739414       11.7081042098
H         14.5781372344       27.5156310126       12.9384264326
    83
VM2 Rank=21     G=227.243           E=130.981           -TS=96.262              
C         22.9008506229       25.3942272246        4.3200056179
C         21.7506137850       26.1580046065        4.6130072869
C         23.8521880797       25.1944058382        5.3413287394
C         23.1320679335       24.7946258389        2.9529251220
C         21.5598307088       26.7034953992        5.8933884430
C         23.6598561512       25.7387773690        6.6217627500
O         24.1316870935       24.1376977998        2.7083403539
C         22.0985425316       25.0123517618        1.8534673215
C         22.5088891718       26.4938322171        6.9107649426
N         22.3125361292       27.0472912036        8.2073038918
C         21.8328210971       28.4125772129        8.3884628761
C         22.5558184395       26.4196394337        9.4149939272
C         21.8530447858       28.6069355904        9.9144303108
O         22.9483670466       25.2790312743        9.5909469347
O         22.2745804219       27.3094355431       10.4087092901
C         20.4874640785       29.0490736436       10.4747911671
N         19.9330304724       28.2134100463       11.4198736560
O         19.9025149919       30.0395015390       10.0710195632
C         18.4879162440       28.1406614524       11.6912536063
C         18.1431596503       28.7112763698       13.0960793925
C         18.0202727631       26.6759776932       11.4989581461
C         18.4924195980       30.2221841462       13.2034090697
O         16.7524028734       28.5276563888       13.3695390840
C         18.4348691952       26.0942261474       10.1516584391
N         18.5832258379       30.7484696930       14.5925004762
C         19.3951693237       25.0676929231       10.0839115959
C         17.8721319630       26.5917575062        8.9619221451
C         19.6092340454       30.1267231539       15.4734303643
S         17.1184015808       31.2185729063       15.3349958080
C         19.7826160035       24.5395695006        8.8412383605
C         18.2617758422       26.0669107447        7.7183922207
C         21.0399452288       30.0782184105       14.8753415174
O         16.5050818510       32.1589779831       14.3896817930
C         17.6535357309       32.2161535847       16.7447431675
O         16.4407359626       29.9856267934       15.7567413784
C         19.2149968970       25.0379021957        7.6582845300
C         21.5672342884       31.4946038894       14.5509605959
C         21.9999381510       29.3747033247       15.8573968000
C         18.2375996691       33.4904251678       16.5279554919
C         17.5135234720       31.7146276542       18.0594903435
C         18.6824413304       34.2736289322       17.6133000306
C         17.9628533591       32.5130816945       19.1165051621
C         18.5281611090       33.7504330752       18.9017083525
O         17.9341300861       32.2383694693       20.4495392185
O         18.8815556746       34.3144584138       20.0894596210
C         18.5199687289       33.3767972442       21.1430810951
H         20.9928400203       26.3365075726        3.8559856479
H         24.7489808755       24.6124672165        5.1428584680
H         20.6611594151       27.2804959108        6.0926590318
H         24.4122379740       25.5715071885        7.3882673255
H         22.4196649032       24.5119157319        0.9324778838
H         21.1314762766       24.5991358808        2.1614855369
H         21.9854758918       26.0836626045        1.6526261787
H         20.8131848842       28.5161518247        7.9950171561
H         22.5000867711       29.1274616805        7.8906925700
H         22.5910171828       29.3700692841       10.1905305350
H         20.5022355514       27.4138927567       11.6697857611
H         17.9570444603       28.7547994268       10.9501455374
H         18.7396271207       28.1486396868       13.8253902170
H         18.4156931437       26.0607286453       12.3169104496
H         16.9275568303       26.6277223640       11.5879633620
H         19.4479019127       30.4031672631       12.7002842959
H         17.7506872595       30.7927059627       12.6287117533
H         16.5912679470       28.8262679621       14.2962459124
H         19.8451318190       24.6790764017       10.9935276042
H         17.1333587310       27.3877341518        9.0018753140
H         19.6773203592       30.6808538251       16.4177657201
H         19.2965581911       29.1074344716       15.7368897572
H         20.5276909858       23.7489687501        8.7955059067
H         17.8232869711       26.4556858371        6.8028488793
H         21.0295695863       29.4851040916       13.9508884080
H         19.5167898861       24.6298079718        6.6969006714
H         22.5821360492       31.4482794453       14.1361249022
H         20.9307723976       31.9978164246       13.8124612090
H         21.5973345450       32.1204872523       15.4520778868
H         21.6594760539       28.3543455319       16.0758729921
H         23.0101892209       29.3047523058       15.4339984356
H         22.0681269313       29.9212649849       16.8069635769
H         18.3490772705       33.8678179641       15.5137448467
H         17.0750121816       30.7390615516       18.2512176349
H         19.1326657333       35.2501913670       17.4585755575
H         19.4135112622       33.0653524292       21.6984118878
H         17.7844940741       33.8297912356       21.8196059582
    83
VM2 Rank=22     G=227.273           E=130.578           -TS=96.695              
C         21.0269064942       25.7049644019        4.6566881619
C         19.9919171925       26.1322928317        5.5160184638
C         22.3609126018       25.9688788228        5.0293368643
C         20.7397794818       24.9808648183        3.3624250443
C         20.2869280529       26.8029385248        6.7145681467
C         22.6550906781       26.6379888322        6.2287486005
O         21.6418733400       24.6175514031        2.6242933856
C         19.2953101172       24.6964397547        2.9661982825
C         21.6204880751       27.0562807956        7.0848598491
N         21.9162490271       27.7350650398        8.3003936479
C         21.1595523273       28.9085446927        8.7215674446
C         22.9195541080       27.4168630677        9.1969359353
C         21.8640906295       29.3516336620       10.0152748316
O         23.7072785259       26.4890686228        9.1283428221
O         22.8821428320       28.3350159057       10.2039081163
C         20.8954689532       29.4634475344       11.2082366119
N         21.1636648423       28.6325471473       12.2743604975
O         19.9170687414       30.1906150129       11.1923983466
C         20.1344710646       28.1808774786       13.2244595264
C         20.2933874040       28.8590165646       14.6145592505
C         20.1701765649       26.6339926713       13.2989796663
C         20.1653021721       30.4042020485       14.5140243365
O         19.3012729605       28.3537567959       15.5097549753
C         20.0706437184       25.9757140365       11.9272600007
N         20.5209790538       31.1493306561       15.7549077643
C         21.1757930228       25.2979595323       11.3797916130
C         18.8755672979       26.0557136991       11.1889991867
C         21.9125368271       30.9863770421       16.2489300375
S         19.3431124090       31.3361077586       16.9803237167
C         21.0845058142       24.7009328626       10.1115201142
C         18.7844659937       25.4620995633        9.9189917838
C         23.0206045698       31.2500348749       15.1946059528
O         19.3076835693       30.0684534701       17.7214562595
C         17.7979091749       31.6157266621       16.0811684736
O         19.6787140025       32.6120634793       17.6237416542
C         19.8885909802       24.7817143292        9.3813047289
C         22.9355760131       32.6846246977       14.6252663992
C         24.4118740941       31.0167940619       15.8200660629
C         17.5682066074       32.8617279024       15.4429943501
C         16.8320125279       30.5862944321       15.9921331495
C         16.3825340761       33.0915347232       14.7145320949
C         15.6665923464       30.8414323911       15.2621967231
C         15.4484419374       32.0524258074       14.6439748855
O         14.6142110378       30.0072813990       15.0384359329
O         14.2479839616       32.0390277648       14.0017176546
C         13.6525747781       30.7277824248       14.2163486541
H         18.9507097011       25.9495959958        5.2676948956
H         23.1780555124       25.6534055899        4.3851074626
H         19.4704307382       27.1130403782        7.3606332628
H         23.6928487717       26.8310223471        6.4883302130
H         18.8137586278       24.0733407655        3.7282318581
H         18.7420202898       25.6371195830        2.8671105489
H         19.2669604388       24.1668153105        2.0067861283
H         20.1135734085       28.6399532694        8.9189997675
H         21.2059035447       29.6949204724        7.9576580453
H         22.3357579992       30.3318164589        9.8739273335
H         21.9971585934       28.0657850487       12.1758028873
H         19.1472069414       28.4669068017       12.8346263383
H         21.2937570636       28.6067594923       14.9899410594
H         21.0892541752       26.3175564702       13.8079852701
H         19.3421418619       26.2798024957       13.9260606680
H         20.8176713198       30.7528119615       13.7064444948
H         19.1506242065       30.6480507427       14.1783215940
H         19.4878038475       28.7255225661       16.4038292876
H         22.1081109980       25.2348215834       11.9344816502
H         18.0172692576       26.5804093827       11.6001308073
H         22.0787948276       31.6809067660       17.0841926127
H         22.0395599283       29.9747552460       16.6572509175
H         21.9431633264       24.1820035888        9.6923671216
H         17.8584088937       25.5275392528        9.3535192680
H         22.9134167801       30.5356721815       14.3669065441
H         19.8197013464       24.3214924255        8.3987834620
H         23.7281168259       32.8601142355       13.8867871907
H         21.9739701850       32.8599266999       14.1271247735
H         23.0425029832       33.4316341736       15.4222240288
H         24.5038843496       29.9915815793       16.2011812876
H         25.2052901655       31.1681329620       15.0768638310
H         24.5931001655       31.7071547483       16.6540914547
H         18.3162157889       33.6488112192       15.5094970775
H         16.9848776062       29.6204925655       16.4658278953
H         16.1980786360       34.0411064229       14.2199638612
H         12.6966438627       30.8256157388       14.7458906293
H         13.5110640755       30.2130589358       13.2577861698
    83
VM2 Rank=23     G=227.301           E=132.071           -TS=95.230              
C         21.3566032541       24.7720273789        4.3672285610
C         20.3501734113       25.2942362520        5.2052260570
C         22.6847640849       25.2104454146        4.5579834906
C         20.9946079378       23.7679767676        3.2982904598
C         20.6602451419       26.2272638542        6.2079808153
C         22.9943852720       26.1425565362        5.5625632932
O         19.8428822189       23.3942685534        3.1419238486
C         22.0871014588       23.2065079483        2.3952076614
C         21.9865392132       26.6551015223        6.3992561634
N         22.3017267381       27.5962316288        7.4189135790
C         21.4847419831       28.7843475436        7.6398916291
C         23.3780428337       27.5387702138        8.2844780794
C         22.1953089091       29.5057553683        8.7979911137
O         24.2354744855       26.6745013972        8.3445039374
O         23.3241700326       28.6403180476        9.0860560670
C         21.2690059703       29.7059488670       10.0128448651
N         21.5064073336       28.8755107718       11.0854909179
O         20.3328561719       30.4865928815       10.0046165993
C         20.4680029535       28.5047194429       12.0574513316
C         20.4605238888       29.4944432007       13.2559177055
C         20.6611608593       27.0226687712       12.4693316978
C         19.3412816928       29.1761720747       14.2825372826
O         21.7395634725       29.4800872692       13.8921207643
C         20.7139005483       26.0914503621       11.2640412846
N         18.9678882870       30.3116388921       15.1692353957
C         21.9376733376       25.5380387990       10.8437321149
C         19.5401788605       25.7967617935       10.5465317516
C         19.9824239819       30.7441926639       16.1656184704
S         18.0322457338       31.5548988910       14.4642778679
C         21.9862203758       24.6960167791        9.7204374564
C         19.5880230458       24.9549911340        9.4228424892
C         20.4238763106       29.6356982005       17.1550394275
O         18.9407451644       32.4557781768       13.7460487414
C         17.2654417737       32.3494652745       15.8953338842
O         16.9449384810       30.8524325562       13.7715534221
C         20.8114479399       24.4034134384        9.0102581100
C         21.4725454734       30.1934321028       18.1402577695
C         19.2205699895       29.0610141364       17.9375476385
C         17.6230446766       33.6743412492       16.2544818569
C         16.3283184880       31.6318986012       16.6737404596
C         17.0499906138       34.2930680207       17.3852239379
C         15.7773089502       32.2696841514       17.7897283808
C         16.1256160709       33.5566980812       18.1343620454
O         14.8711371668       31.7774321103       18.6783962218
O         15.4541109944       33.9371208736       19.2560227256
C         14.6167844184       32.8180820060       19.6644826281
H         19.3187089176       24.9733328096        5.0815207571
H         23.4901229988       24.8355754452        3.9334486915
H         19.8645929058       26.6027580778        6.8451571409
H         24.0247703994       26.4656990042        5.6874651212
H         21.6549437496       22.4956733232        1.6812541924
H         22.5669784524       24.0191835330        1.8383407652
H         22.8412176567       22.6878703976        2.9978361066
H         20.4612464642       28.5048002746        7.9211747556
H         21.4659920365       29.4108964392        6.7392272316
H         22.5459569912       30.4939107349        8.4757278827
H         22.3004574484       28.2552926670       10.9842395357
H         19.4916718606       28.5855144591       11.5579164280
H         20.2751389678       30.4923770212       12.8369155743
H         21.5779774172       26.9221166760       13.0643926417
H         19.8405951850       26.7090553980       13.1256198448
H         18.4500358314       28.8541404366       13.7283592745
H         19.6495441932       28.3116498351       14.8813327266
H         22.3889025913       29.5914042984       13.1670237421
H         22.8536421689       25.7623592536       11.3838666848
H         18.5905026569       26.2228572401       10.8586550154
H         20.8658262901       31.1367898814       15.6444136835
H         19.5866747342       31.5722750493       16.7666426805
H         22.9356508635       24.2765961484        9.3965306851
H         18.6782287764       24.7316229884        8.8714366216
H         20.9034381521       28.8223846170       16.5932946649
H         20.8504775152       23.7557743114        8.1378622987
H         22.3479161849       30.5781094678       17.6010049123
H         21.0569825464       31.0111691594       18.7431255488
H         21.8212016304       29.4099671916       18.8252223336
H         18.4908522027       28.5994722846       17.2605928957
H         19.5477867803       28.2897012821       18.6462185258
H         18.7059609702       29.8473105593       18.5046413305
H         18.3490111405       34.2212277801       15.6568230404
H         16.0464090464       30.6132081021       16.4215048107
H         17.3169323171       35.3067522305       17.6708153001
H         14.9052205332       32.4725347922       20.6650858027
H         13.5588045816       33.1082263452       19.6473170326
    83
VM2 Rank=24     G=227.312           E=129.013           -TS=98.299              
C         20.1897736917       24.9995575855        5.4366347743
C         20.9648510015       24.8626961943        6.6063288300
C         19.0577024215       25.8418192347        5.4751644562
C         20.5840384701       24.2510179306        4.1852258677
C         20.6215713350       25.5492403605        7.7823295125
C         18.7158799980       26.5295815100        6.6516090050
O         21.5654840979       23.5252104889        4.1620433743
C         19.7426305913       24.4035482077        2.9230479658
C         19.4972573493       26.3942082758        7.8135042696
N         19.1510730960       27.0927303187        9.0042387974
C         19.1961755509       26.4433314772       10.3094301629
C         18.7271364121       28.4058143190        9.0930384995
C         18.6992106719       27.5321119450       11.2742910549
O         18.6102953900       29.2095458452        8.1843098667
O         18.4764297762       28.6723272905       10.4062389514
C         19.7112801603       27.8256308099       12.3962244316
N         20.4360814890       28.9866941720       12.2541191551
O         19.9237595367       27.0553111564       13.3156523980
C         21.7849985460       29.1810718790       12.8101167582
C         21.7516816776       29.8241801593       14.2264056513
C         22.6407168267       29.9856865938       11.8025135099
C         21.0252772072       31.1988192901       14.2482889988
O         21.1424340006       28.9109908985       15.1353276778
C         22.7024392942       29.3136370058       10.4361830595
N         20.8093791202       31.7871024962       15.5954506645
C         21.9431853582       29.8142132128        9.3618378234
C         23.5030510927       28.1731192002       10.2433950384
C         22.0697729360       32.0437399498       16.3349193477
S         19.4258862785       31.3538201085       16.5219564745
C         21.9883868052       29.1842431108        8.1072681636
C         23.5490293401       27.5425628281        8.9887842984
C         21.9792574786       33.1986946319       17.3654958653
O         19.8675278784       30.4547701315       17.5953889576
C         18.3056458147       30.4350398154       15.4275922164
O         18.7653506034       32.6311116747       16.8155375958
C         22.7936224457       28.0500396519        7.9196001584
C         23.3055290573       33.3182984895       18.1454354607
C         21.6503656133       34.5446836525       16.6807657402
C         17.6027923951       31.1159963931       14.3991281030
C         18.0901899648       29.0510201174       15.6279385108
C         16.7114926701       30.4255326495       13.5514075641
C         17.1900895661       28.3946905631       14.7827699250
C         16.5257845676       29.0575502086       13.7757232271
O         16.8234555800       27.0837550334       14.7975556804
O         15.7128998999       28.1936517534       13.1067493360
C         15.7991269427       26.9056013790       13.7800328206
H         21.8428331883       24.2213243878        6.6050625855
H         18.4316295420       25.9737371280        4.5977747053
H         21.2456272333       25.4318091815        8.6637566747
H         17.8371995744       27.1695662770        6.6553243589
H         20.1667439023       23.7973275777        2.1140968122
H         18.7166138987       24.0696278500        3.1143733284
H         19.7274822531       25.4529131349        2.6077043281
H         20.2226680841       26.1419363174       10.5555470960
H         18.5348551196       25.5678403123       10.3284727092
H         17.7579617720       27.2212993381       11.7396962674
H         20.1687492147       29.5617814225       11.4651183150
H         22.2571542700       28.1932485731       12.9149940569
H         22.7896419950       29.9859541851       14.5466345539
H         22.2420731408       31.0015360913       11.6947487866
H         23.6575124290       30.0987142968       12.1999000199
H         21.6391691570       31.9026669701       13.6732640996
H         20.0815079056       31.1230094606       13.7009105456
H         20.6457823243       28.2610572479       14.5816643687
H         21.3145577398       30.6903222296        9.4969351256
H         24.0887854435       27.7742050063       11.0672605575
H         22.3750569423       31.1234779681       16.8527150339
H         22.8709688708       32.2934927124       15.6265370489
H         21.3955389448       29.5724587573        7.2825509512
H         24.1694122386       26.6614970302        8.8454683605
H         21.1880378620       32.9739907302       18.0943095237
H         22.8263827951       27.5612935344        6.9490016194
H         24.1418636267       33.5509721740       17.4735758527
H         23.2455425491       34.1132280913       18.8998996584
H         23.5388074610       32.3809954987       18.6669442737
H         21.5923918585       35.3547466702       17.4187439352
H         22.4175759782       34.8110804616       15.9426889260
H         20.6839746838       34.5003589599       16.1627925329
H         17.7557689283       32.1837025971       14.2579534224
H         18.6035983947       28.5054489126       16.4150107564
H         16.1757880178       30.9374110175       12.7569108610
H         14.8389327392       26.6662496179       14.2540562104
H         16.0870760592       26.1162042846       13.0748069156
    83
VM2 Rank=25     G=227.313           E=129.019           -TS=98.293              
C         20.1743193943       25.0053765971        5.4310577520
C         20.9881157293       24.9022214271        6.5796475445
C         19.0111450024       25.7992092015        5.5013683433
C         20.5183640114       24.2925869010        4.1444594474
C         20.6459575876       25.5773345198        7.7630140872
C         18.6706999280       26.4753832519        6.6844522834
O         19.8061908890       24.3850172271        3.1571162815
C         21.7798331594       23.4393288249        4.0735942210
C         19.4883944338       26.3747312483        7.8243746661
N         19.1457177443       27.0600099841        9.0236943706
C         19.2508128867       26.4142165124       10.3271856044
C         18.6715200848       28.3549694868        9.1234264029
C         18.7338478540       27.4824399483       11.3044012578
O         18.4997872484       29.1526893631        8.2181326803
O         18.4444231877       28.6124702898       10.4427052740
C         19.7598584517       27.8168021166       12.4019105509
N         20.4347094998       29.0053655064       12.2423665554
O         20.0243367898       27.0564470455       13.3161332279
C         21.7877580604       29.2533594426       12.7660042311
C         21.7627012815       29.8966564371       14.1823985809
C         22.5869790620       30.0895888202       11.7379482995
C         20.9855164879       31.2428864848       14.2203227312
O         21.2095506775       28.9623413852       15.1056379396
C         22.6429784592       29.4185881948       10.3708471403
N         20.7769239356       31.8235701109       15.5719279240
C         23.4861851716       28.3127510152       10.1585825984
C         21.8369931844       29.8852633100        9.3154446692
C         22.0425040383       32.1279198838       16.2839327584
S         19.4311978947       31.3390006857       16.5281558764
C         23.5280872534       27.6832935227        8.9032627854
C         21.8779771069       29.2562859612        8.0602393176
C         21.9309055164       33.2791538517       17.3166147166
O         19.9294907813       30.4576763235       17.5914352025
C         18.3227081336       30.3783452981       15.4580514786
O         18.7296536081       32.5906960005       16.8364866201
C         22.7258894977       28.1571572546        7.8528891812
C         23.2683076597       33.4490251469       18.0676817544
C         21.5367699724       34.6114658541       16.6396280052
C         17.5723094334       31.0321149598       14.4456600047
C         18.1637562757       28.9872909799       15.6624504792
C         16.6887868346       30.3084950426       13.6176837234
C         17.2701335293       28.2974709942       14.8372976655
C         16.5592218099       28.9346557362       13.8456103807
O         16.9527895476       26.9738395438       14.8599217857
O         15.7640696266       28.0408051360       13.1949134001
C         15.9118212778       26.7577031722       13.8669301996
H         21.8932209011       24.3024036832        6.5691123432
H         18.3644954939       25.8945180906        4.6324472645
H         21.2971419681       25.4886344529        8.6280953741
H         17.7662989349       27.0778603086        6.7103413644
H         21.8787662773       22.9985057095        3.0747635264
H         22.6617902295       24.0573867901        4.2760817315
H         21.7278270167       22.6319558668        4.8126944951
H         20.2948692789       26.1559359250       10.5470499222
H         18.6270763536       25.5120727445       10.3629815697
H         17.8173522277       27.1340564967       11.7920348049
H         20.1261309244       29.5686173644       11.4599152638
H         22.3007539898       28.2850032887       12.8600794497
H         22.8008843761       30.0980674219       14.4785248962
H         22.1460696927       31.0887364761       11.6390209498
H         23.6075911335       30.2433338395       12.1111497223
H         21.5597290609       31.9690113769       13.6321472108
H         20.0335973748       31.1310931452       13.6936057664
H         20.7270142353       28.2921386999       14.5638006031
H         24.1084406063       27.9400595623       10.9678269939
H         21.1754290500       30.7342158731        9.4658071199
H         22.3934263844       31.2200743715       16.7946807116
H         22.8181437285       32.4073349114       15.5583964579
H         24.1817542786       26.8293064185        8.7448502040
H         21.2491664530       29.6181277894        7.2502870172
H         21.1647019218       33.0251647009       18.0623421770
H         22.7556553228       27.6694698054        6.8817240131
H         24.0805351247       33.7127203561       17.3779454594
H         23.1947591492       34.2414970047       18.8235304709
H         23.5479739665       32.5214335641       18.5837110937
H         20.5617414049       34.5305059419       16.1427012880
H         21.4643094338       35.4191221896       17.3789635956
H         22.2772267384       34.9062310949       15.8851926937
H         17.6820318250       32.1047498306       14.3016302479
H         18.7144667101       28.4616388227       16.4377738474
H         16.1167355664       30.7996889376       12.8355638842
H         14.9721516788       26.4853827014       14.3637476154
H         16.2107574148       25.9777523366       13.1557929049
    83
VM2 Rank=26     G=227.336           E=130.618           -TS=96.718              
C         20.9870766447       25.5962817229        4.6558339394
C         22.3111224168       25.9497748987        4.9940930209
C         19.9496092915       25.9547712212        5.5406719006
C         20.6614844087       24.8521776198        3.3821871217
C         22.5863069373       26.6394382347        6.1867989384
C         20.2253484772       26.6455693648        6.7319014060
O         19.5128053851       24.5509250704        3.0986655400
C         21.7875465389       24.4666667556        2.4294503829
C         21.5474630025       26.9885469917        7.0687883197
N         21.8270217587       27.6876892226        8.2766551625
C         21.0021986738       28.8065921605        8.7179821791
C         22.8725798302       27.4405349288        9.1469630222
C         21.7086455194       29.2999597418        9.9923063020
O         23.7203956132       26.5691826798        9.0575801886
O         22.7981708666       28.3554949045       10.1547808497
C         20.7665737209       29.3489821068       11.2104938670
N         21.1208932703       28.5438980078       12.2712862666
O         19.7395489412       30.0058195351       11.2190314219
C         20.1520494948       28.0258199805       13.2506074530
C         20.3057341749       28.7158990450       14.6354284702
C         20.2941614069       26.4849547654       13.3239191385
C         20.0650260181       30.2478854219       14.5401002518
O         19.3804160570       28.1441339667       15.5617501389
C         20.2043043777       25.8189899526       11.9551987038
N         20.4272144776       31.0204015614       15.7621220559
C         21.3375685009       25.2133600271       11.3812845648
C         18.9891574472       25.8201771041       11.2459338517
C         21.8495093988       30.9589538330       16.1870806058
S         19.3003060445       31.1241794084       17.0437726494
C         21.2547236829       24.6096414830       10.1156022845
C         18.9062647880       25.2199629507        9.9784748082
C         22.8832074295       31.2935423373       15.0786816549
O         19.3823996331       29.8543792159       17.7775158082
C         17.6998243901       31.3105428945       16.2206672047
O         19.5830339604       32.4168505126       17.6792322155
C         20.0389221875       24.6117372916        9.4143324091
C         22.6697458346       32.7153172146       14.5108379464
C         24.3164588611       31.1620331467       15.6352019537
C         16.7849421829       30.2268588609       16.1784624030
C         17.3737721105       32.5366617387       15.5960505457
C         15.5458215284       30.3549239798       15.5170933277
C         16.1382835441       32.6352914471       14.9479761904
C         15.2538842823       31.5805214238       14.9089179075
O         15.6202768752       33.7034890359       14.2816823013
O         14.1359491152       31.9342815508       14.2169303470
C         14.3122508991       33.3109046826       13.7766729792
H         23.1397733042       25.6956980269        4.3398887190
H         18.9202740083       25.6951764555        5.3054399220
H         23.6144253934       26.9031169326        6.4215742652
H         19.4051118952       26.9004400984        7.3970114179
H         21.3793287607       23.9350151909        1.5619924356
H         22.3070918831       25.3661318008        2.0803696007
H         22.5028741817       23.8124422959        2.9404632958
H         19.9831352316       28.4662072220        8.9434963450
H         20.9731683741       29.5928532413        7.9531023059
H         22.1087325225       30.3095199991        9.8376171050
H         21.9889855521       28.0362396616       12.1514801900
H         19.1369193941       28.2440972594       12.8896342856
H         21.3327665159       28.5352590218       14.9786139472
H         21.2453741521       26.2323159823       13.8089899126
H         19.5084605992       26.0766852501       13.9722274097
H         20.6510105036       30.6388661403       13.7017071070
H         19.0203868936       30.4184017115       14.2546579150
H         19.5736485752       28.5254171829       16.4504393281
H         22.2851020001       25.2117211302       11.9133168956
H         18.1087981893       26.2889011855       11.6775077234
H         22.0072228593       31.6684133967       17.0113635570
H         22.0676278939       29.9613057041       16.5912363677
H         22.1348894784       24.1468023182        9.6758901253
H         17.9646443548       25.2244710403        9.4353603002
H         22.7860784219       30.5685597406       14.2590144805
H         19.9763810534       24.1466970277        8.4336092505
H         22.7631721390       33.4726147918       15.2997402599
H         23.4106717691       32.9415037087       13.7335768597
H         21.6748468403       32.8200743365       14.0605590918
H         25.0598196388       31.3643111257       14.8533712930
H         24.4894359030       31.8682107896       16.4576558201
H         24.4989168039       30.1480132703       16.0136825972
H         17.0390286182       29.2821689209       16.6538856423
H         18.0606953316       33.3785743267       15.6099901356
H         14.8397433719       29.5302869164       15.4760171651
H         14.2958593152       33.3647610310       12.6809345053
H         13.5308904822       33.9507333950       14.2055031199
    83
VM2 Rank=27     G=227.356           E=130.650           -TS=96.706              
C         20.9817228389       25.6010755582        4.6576935147
C         19.9499880278       25.8908528985        5.5762806216
C         22.2843928021       26.0577404221        4.9451024248
C         20.7234583252       24.8227781567        3.3890598381
C         20.2178944785       26.6157661454        6.7493243443
C         22.5517486855       26.7810326958        6.1190758678
O         21.6220237502       24.5795663880        2.5991000463
C         19.3132075550       24.3295267789        3.0852619572
C         21.5214961892       27.0618370358        7.0345154271
N         21.7900029864       27.7950875237        8.2244786383
C         20.9001870050       28.8556362430        8.6832826705
C         22.8806504814       27.6370435747        9.0594533616
C         21.6102974460       29.4142286127        9.9283150701
O         23.7874415949       26.8299022096        8.9486938683
O         22.7731710876       28.5564221770       10.0602472769
C         20.7091178050       29.4043042090       11.1779934099
N         21.1584830605       28.6379598656       12.2314586202
O         19.6366749119       29.9827494363       11.2174677255
C         20.2651353032       28.0592990896       13.2479229444
C         20.4122951236       28.7744337517       14.6207227717
C         20.5261213539       26.5345126978       13.3298128887
C         20.0546627615       30.2830768334       14.5202556484
O         19.5633152456       28.1456096157       15.5825067684
C         20.4392199446       25.8478135369       11.9712019439
N         20.3949539249       31.0935096692       15.7238826082
C         21.5947638398       25.3250126971       11.3614180874
C         19.2028876676       25.7463908711       11.3072518672
C         21.8300786288       31.1427900767       16.1049776772
S         19.3027662587       31.1273691754       17.0389204938
C         21.5135663842       24.7015494263       10.1052397123
C         19.1212794222       25.1263029946       10.0493038456
C         22.8016029804       31.5422827758       14.9623688647
O         19.5028205654       29.8760732857       17.7817098699
C         17.6685498132       31.1828797558       16.2642914362
O         19.5061320033       32.4450744272       17.6529484337
C         20.2767666689       24.6008743852        9.4493937550
C         22.4648731014       32.9381856132       14.3900713994
C         24.2569282673       31.5240568493       15.4751260398
C         16.8374671327       30.0329003715       16.2607655782
C         17.2319384422       32.3734501537       15.6384050282
C         15.5728419155       30.0593594249       15.6368604844
C         15.9735800259       32.3709797680       15.0279282833
C         15.1707924714       31.2521608093       15.0263050595
O         15.3564118243       33.3890946357       14.3677287647
O         14.0089916313       31.5124017664       14.3657987909
C         14.0672982670       32.8930456118       13.9070762717
H         18.9324734507       25.5581683690        5.3942356962
H         23.0979053818       25.8511934815        4.2538625087
H         19.4058923936       26.8170697226        7.4424008291
H         23.5650615928       27.1236247789        6.3125051366
H         19.3030271034       23.7857532604        2.1334305334
H         18.9724443281       23.6567457943        3.8803013054
H         18.6262333158       25.1802712150        3.0136500433
H         19.9168485779       28.4444510119        8.9462596844
H         20.7882684930       29.6287104652        7.9126197286
H         21.9270280771       30.4495305695        9.7521290172
H         22.0576128966       28.1953688936       12.0854383599
H         19.2248522322       28.1962031470       12.9200308754
H         21.4606946312       28.6747532313       14.9307845530
H         21.5100778135       26.3599344261       13.7828887869
H         19.7967330886       26.0756366371       14.0093249147
H         20.5840063078       30.7077165698       13.6608232702
H         18.9920119631       30.3720936290       14.2659667942
H         19.7555466759       28.5508964923       16.4607171028
H         22.5581136152       25.4031041239       11.8581512360
H         18.3048508062       26.1505768513       11.7667695858
H         21.9591162397       31.8704725883       16.9182924777
H         22.1345359022       30.1684075325       16.5100764889
H         22.4106653219       24.3030304071        9.6376251621
H         18.1631462055       25.0512149169        9.5413973557
H         22.7342854516       30.8036610667       14.1519403740
H         20.2153452689       24.1204164165        8.4761074982
H         23.1627463426       33.2110958901       13.5883484745
H         21.4516799948       32.9636139003       13.9701373860
H         22.5251623705       33.7084495238       15.1695935892
H         24.5263935403       30.5304789031       15.8558703333
H         24.9589107581       31.7732709424       14.6689775172
H         24.4013294283       32.2496430896       16.2861209601
H         17.1765814249       29.1157351575       16.7370420321
H         17.8532913675       33.2648298632       15.6229950563
H         14.9303042348       29.1834167064       15.6255022764
H         14.0140248431       32.9324321397       12.8118946253
H         13.2529657588       33.4772425674       14.3535906186
    83
VM2 Rank=28     G=227.360           E=132.127           -TS=95.234              
C         21.3839922117       24.7472199378        4.3915705322
C         20.3715336036       25.2334874486        5.2464313572
C         22.6918281776       25.2515309550        4.5447429597
C         21.1001616058       23.7110304332        3.3297197962
C         20.6632457530       26.1959055069        6.2271869118
C         22.9830329919       26.2124560629        5.5269057112
O         21.9818966973       23.2989313306        2.5926226875
C         19.6849299334       23.1663635520        3.1721340919
C         21.9718387156       26.6893044293        6.3800915239
N         22.2655469454       27.6598265524        7.3782967186
C         21.3997816283       28.8127281852        7.6000957089
C         23.3620619213       27.6651747908        8.2200350757
C         22.0987353247       29.5810842379        8.7348283479
O         24.2597861474       26.8423707478        8.2730040759
O         23.2745923314       28.7750953563        9.0069763856
C         21.1897527277       29.7486609953        9.9676031665
N         21.4890110349       28.9407920901       11.0420388828
O         20.2176100947       30.4840198772        9.9728714018
C         20.4912597667       28.5331434917       12.0414357473
C         20.4629091722       29.5365064408       13.2282567700
C         20.7646797207       27.0674855952       12.4663429305
C         19.3832759243       29.1783442805       14.2837666244
O         21.7549991592       29.5911996340       13.8352433932
C         20.8339969767       26.1237819542       11.2716617828
N         18.9764480828       30.3055746546       15.1662667160
C         22.0731501658       25.6265150503       10.8269646621
C         19.6589145796       25.7603769540       10.5887222092
C         19.9913551392       30.7974621188       16.1343639559
S         17.9672096035       31.4946583867       14.4694141433
C         22.1357710876       24.7719597511        9.7138868433
C         19.7207786336       24.9058769810        9.4753543289
C         20.5072055354       29.7229343456       17.1252727137
O         18.8154248565       32.4283708351       13.7200708965
C         17.1965110328       32.2699069693       15.9089577118
O         16.8988133014       30.7333116041       13.8102883205
C         20.9596955749       24.4103989865        9.0384894620
C         21.5499781949       30.3413655357       18.0800505352
C         19.3505123176       29.1012149029       17.9413951357
C         17.4989756291       33.6145423559       16.2445696040
C         16.3126370008       31.5186409636       16.7172822414
C         16.9233490450       34.2195293190       17.3814232232
C         15.7577937493       32.1435153940       17.8386640045
C         16.0524587955       33.4497087249       18.1604237093
O         14.8967340709       31.6201001667       18.7539794971
O         15.3896812040       33.8118930644       19.2932571000
C         14.6161438343       32.6596990499       19.7340404029
H         19.3511445183       24.8714588791        5.1637614101
H         23.4908472088       24.8962430076        3.8985299098
H         19.8668334060       26.5438305686        6.8789844223
H         23.9998466923       26.5850536121        5.6211893598
H         19.6554589345       22.4273575477        2.3629509149
H         19.3633145227       22.6848030316        4.1024612097
H         18.9943619654       23.9823108503        2.9309496659
H         20.3953324529       28.4915397318        7.9045576951
H         21.3360076760       29.4255009526        6.6920472996
H         22.3931425855       30.5817273819        8.3952761840
H         22.3092570771       28.3577808406       10.9293633965
H         19.5013984956       28.5607874827       11.5632116486
H         20.2206259811       30.5191030045       12.8021047546
H         21.6987801919       27.0184870257       13.0406412276
H         19.9755363465       26.7238447048       13.1457159742
H         18.4961075852       28.8079887897       13.7537592873
H         19.7454794283       28.3366412898       14.8848615203
H         22.3819871747       29.7240567623       13.0942809956
H         22.9899647377       25.9040828059       11.3402617501
H         18.6971147407       26.1426413049       10.9199028626
H         20.8431388230       31.2252534658       15.5887960957
H         19.5702397733       31.6129378050       16.7353827513
H         23.0966949622       24.3960552013        9.3709907176
H         18.8097262148       24.6291160304        8.9509353189
H         21.0122343960       28.9266449795       16.5614572675
H         21.0094816314       23.7527800337        8.1742031980
H         21.1095783353       31.1455860056       18.6834707773
H         21.9508552981       29.5834716473       18.7652158936
H         22.3936988372       30.7606628463       17.5166931107
H         18.6285673662       28.5976555143       17.2864139837
H         19.7299263697       28.3547043884       18.6506043334
H         18.8119258991       29.8689187230       18.5116906250
H         18.1842501111       34.1876098057       15.6238440029
H         16.0736992440       30.4847191592       16.4833149956
H         17.1483883066       35.2481425485       17.6491724473
H         14.9437876136       32.3405629912       20.7313404755
H         13.5454624603       32.8993186850       19.7387297204
    83
VM2 Rank=29     G=227.365           E=128.267           -TS=99.098              
C         20.2791500811       24.8147903352        5.5346152478
C         18.9553393319       25.0304692061        5.9742597329
C         21.3383594916       25.1773103664        6.3914499733
C         20.5819066873       24.2109940137        4.1834747149
C         18.7020152762       25.5971782796        7.2346347433
C         21.0842621286       25.7421747010        7.6518179799
O         21.7306578277       24.0284232908        3.8125097528
C         19.4323096491       23.8216704607        3.2608750225
C         19.7633062022       25.9642629785        8.0822042277
N         19.5063043649       26.5380494946        9.3595839565
C         20.2716803230       26.1473997009       10.5383012198
C         18.5386303035       27.4790914983        9.6607063111
C         19.5834053146       26.9058952564       11.6841793173
O         17.7668070777       28.0228431429        8.8900961290
O         18.6080078515       27.7306421613       10.9980517239
C         20.5723557078       27.7270873738       12.5302659323
N         20.5744279968       29.0828251381       12.2940638983
O         21.3586768074       27.2192027707       13.3103320192
C         21.7609623930       29.9355361328       12.4727812748
C         21.8004851920       30.6046975932       13.8772426566
C         21.8365274905       30.9544341179       11.3101094780
C         20.5863801622       31.5417854962       14.1336384671
O         21.8838323356       29.5881012652       14.8733170623
C         21.8231793466       30.2728183310        9.9470805959
N         20.4255648347       32.0208689281       15.5314948470
C         22.9725925039       29.6158350628        9.4717489251
C         20.6541219609       30.2741482440        9.1629328534
C         21.5870000820       32.8008244197       16.0250138313
S         19.5611464562       31.0766255236       16.6816649548
C         22.9562412521       28.9725567196        8.2228675613
C         20.6368371573       29.6310737976        7.9143989054
C         21.2354222568       33.8396933204       17.1211256402
O         20.5386591157       30.4908733890       17.6074281363
C         18.7555198304       29.7288213482       15.7710453751
O         18.4910910008       31.9622803150       17.1556554558
C         21.7889835946       28.9830037710        7.4425845290
C         22.5198299975       34.5241939706       17.6342865782
C         20.2471523056       34.9055176858       16.5957091448
C         19.2106093209       28.3917748345       15.9112904318
C         17.6471266221       30.0102966085       14.9376082577
C         18.5870816762       27.3378284373       15.2122423597
C         17.0584521263       28.9484718478       14.2436345091
C         17.5111597777       27.6555035339       14.3773306610
O         16.0182360700       28.9898171156       13.3670029467
O         16.7796098260       26.8202062668       13.5896342578
C         15.8085928899       27.6361017545       12.8747084012
H         18.1098939009       24.7627500999        5.3475688873
H         22.3681524496       25.0225155943        6.0787251554
H         17.6727365534       25.7479971389        7.5498958169
H         21.9226248928       26.0191329809        8.2847435373
H         18.8263650670       24.7037219106        3.0249607183
H         19.8259821954       23.4031276178        2.3272691346
H         18.8005392400       23.0695632287        3.7466949379
H         21.3182115667       26.4631529812       10.4360150001
H         20.2205847533       25.0624333338       10.6947823705
H         19.0758896574       26.1967571630       12.3492913354
H         19.8661417488       29.4003384873       11.6441846211
H         22.6532627655       29.2970304734       12.3965405531
H         22.7116169240       31.2153659090       13.9331982999
H         21.0012377298       31.6621288161       11.3727958759
H         22.7507525033       31.5530974021       11.4117649291
H         20.7163637467       32.4234447892       13.4940182320
H         19.6717520137       31.0598452425       13.7776020652
H         21.6505476855       28.7418473655       14.4211223731
H         23.8786817658       29.6025801070       10.0715797803
H         19.7560427651       30.7711080017        9.5199893694
H         22.3439547098       32.1067629036       16.4168437191
H         22.0512658552       33.3429481089       15.1903992741
H         23.8475472094       28.4669316781        7.8600756152
H         19.7295247930       29.6317153078        7.3151075841
H         20.7733563636       33.3245757943       17.9748538741
H         21.7748546549       28.4841521150        6.4766810214
H         23.2206909564       33.7848575776       18.0430746767
H         23.0299757021       35.0669526469       16.8279709950
H         22.2889968155       35.2413158746       18.4325173179
H         20.0086960708       35.6369627435       17.3782080773
H         20.6684588463       35.4480418093       15.7398429468
H         19.3035433738       34.4469860150       16.2739518401
H         20.0574552704       28.1725683877       16.5577782864
H         17.2716621734       31.0232759253       14.8208679068
H         18.9376384036       26.3139053868       15.3062277486
H         16.0015791027       27.5938901126       11.7952914484
H         14.7880304702       27.3008766354       13.0977359704
    83
VM2 Rank=30     G=227.398           E=131.614           -TS=95.784              
C         21.5436928822       25.6732322873        4.7933099533
C         21.7507393201       26.8887597814        5.4769776809
C         21.4663007927       24.4824679165        5.5474202271
C         21.4109211567       25.6736629483        3.2886077286
C         21.8751475170       26.9163578725        6.8755200410
C         21.5891103346       24.5111788602        6.9466984823
O         21.4785772901       26.7091796457        2.6454123836
C         21.1863643613       24.3563699320        2.5546834711
C         21.7892729030       25.7280119908        7.6233080155
N         21.9088573555       25.7567160667        9.0409729287
C         22.9386939459       26.5489394375        9.7042705189
C         21.1273235604       25.0613998567        9.9447427379
C         22.7040863819       26.2742309392       11.1995583363
O         20.1945970590       24.3162934496        9.6987470025
O         21.5835968027       25.3519849051       11.1962686887
C         22.4122012297       27.5660324636       11.9867347873
N         21.0911866304       27.7783868502       12.3130658750
O         23.2718746252       28.3935035402       12.2367590854
C         20.5258293404       29.1169057587       12.5308653272
C         20.6672165623       29.5301472378       14.0221659131
C         19.0659442818       29.1467830884       12.0085590902
C         20.1682269122       30.9718460517       14.2904063273
O         19.9640497653       28.6018508865       14.8437386410
C         18.9601532419       28.6713041363       10.5647101900
N         20.5679323931       31.5331518714       15.6116940456
C         18.4479314401       27.3939160677       10.2707916768
C         19.3973329449       29.4986554338        9.5142405537
C         22.0238345535       31.6971099205       15.8556308043
S         19.6612512046       31.1376936041       17.0111703484
C         18.3709769241       26.9501823748        8.9402809753
C         19.3202096762       29.0556923200        8.1833303123
C         22.7983446637       32.4682292752       14.7542723894
O         20.2296854379       29.9204449018       17.6024187924
C         17.9695166845       30.8477803854       16.4319414686
O         19.6115460640       32.4010456175       17.7578623222
C         18.8061512605       27.7811206318        7.8961204378
C         22.2377418785       33.8952678775       14.5571512895
C         24.2972212474       32.5400461177       15.1143019831
C         17.4172630208       29.5411930383       16.4473238722
C         17.1996775544       31.9342885468       15.9547194125
C         16.1082615562       29.3046444965       15.9786441800
C         15.9048340250       31.6710071366       15.4963593156
C         15.3767768186       30.3993305192       15.5060321237
O         14.9972414065       32.5493063180       14.9883301788
O         14.1107474067       30.4159244063       15.0053787100
C         13.8015575864       31.7924232360       14.6455013751
H         21.8130926155       27.8214022970        4.9215726825
H         21.3099690630       23.5243201312        5.0609226253
H         22.0222522216       27.8700091669        7.3744252473
H         21.5279034213       23.5798849468        7.5040541057
H         20.2572923643       23.8890233463        2.9000090306
H         21.1120166057       24.5361105500        1.4758223496
H         22.0241189390       23.6754522210        2.7426713223
H         22.8151283191       27.6157126058        9.4773770960
H         23.9375836280       26.2154782114        9.3958286469
H         23.5871518782       25.8002752542       11.6454679925
H         20.4550577655       27.0346502219       12.0535295220
H         21.1086789543       29.8314790659       11.9318914328
H         21.7380619520       29.4864009185       14.2612810731
H         18.4288754586       28.5301904176       12.6557883941
H         18.6669285430       30.1657151242       12.0764008331
H         20.5582857904       31.6170449797       13.4946995669
H         19.0798137284       30.9956179800       14.1729764626
H         20.2853236617       27.7182427258       14.5696909306
H         18.1125667676       26.7413163820       11.0724919455
H         19.7997159905       30.4847474429        9.7299226886
H         22.1662567907       32.2378095614       16.8017316917
H         22.4828635825       30.7085262877       15.9923464933
H         17.9809656843       25.9594986160        8.7197076457
H         19.6606230498       29.6984844860        7.3755080670
H         22.7198075896       31.9220167041       13.8043705879
H         18.7515027861       27.4350262324        6.8669247027
H         21.1842052582       33.8718359385       14.2523236264
H         22.3057324057       34.4766718687       15.4855857080
H         22.7963455741       34.4312559292       13.7793251562
H         24.7221614404       31.5339729796       15.2248612244
H         24.8640454945       33.0560892887       14.3287046959
H         24.4541943540       33.0811840384       16.0563975488
H         18.0123697725       28.7068334354       16.8119848621
H         17.5999468888       32.9443338017       15.9344265405
H         15.6802283920       28.3062074871       15.9790445248
H         13.5991093282       31.8679227529       13.5698061310
H         12.9430592075       32.1537682981       15.2253360415
