    83
VM2 Rank=1      G=225.062           E=128.376           -TS=96.686              
C         19.7110726637       24.0488232317        6.2919986941
C         19.9498244383       23.2499656798        7.4215785696
C         19.8795339117       25.4487696083        6.3566171574
C         20.3546367486       23.8381828202        8.6291731745
C         20.2971329952       26.0236040642        7.5747706229
C         19.6163409904       26.3393064134        5.1656420868
C         20.5271942678       25.2310182927        8.7146054766
C         19.2100756448       25.7141516159        3.8360028261
O         19.7190432156       27.5530138435        5.2469282572
N         20.9300246125       25.8330946287        9.9383143059
C         21.9926230005       26.8302404039        9.9875416175
C         20.4101230967       25.5665597499       11.1900881117
C         22.0647356867       27.2126509258       11.4782442943
O         21.0927342251       26.3266352480       12.0915214912
O         19.5082554417       24.7941344809       11.4657554844
C         21.7378910842       28.6973631722       11.7414164309
N         20.9608303686       28.9412116296       12.8530686148
O         22.0993488053       29.5971790362       11.0013000385
C         20.1957099986       30.1756951973       13.0730212124
C         20.3980281291       30.6601183304       14.5381175345
C         18.7047896032       29.9403504449       12.6968524322
C         19.7875399756       32.0677797421       14.7827193457
O         19.8675164580       29.6885191972       15.4446909260
C         18.5095882481       29.3746334575       11.2955916413
N         19.8664231353       32.5623182268       16.1867464536
C         18.7893146942       30.1652433755       10.1662150850
C         18.0398677542       28.0598015673       11.1188695768
C         21.2271932717       32.7237442954       16.7579519550
S         18.6610774127       32.1016298338       17.3149838855
C         18.5972818477       29.6491958582        8.8738138086
C         17.8447301312       27.5435769931        9.8270532031
C         22.1814813377       33.6227548585       15.9288187191
O         19.1309336828       30.8444830452       17.9111045899
C         17.1815855101       31.8074450638       16.3112629298
O         18.4104755912       33.3108641323       18.1079037571
C         18.1183092684       28.3406333297        8.7041727022
C         21.6081075629       35.0468838958       15.7488685523
C         23.5637171092       33.6968422592       16.6110207743
C         16.4374493381       32.9071000230       15.8109765145
C         16.8078383038       30.4872406061       15.9669370269
C         15.3341895478       32.7027799682       14.9560491007
C         15.7165321227       30.3147216030       15.1104442158
C         15.0047143573       31.3855450546       14.6187425109
O         15.2120252607       29.1513666593       14.6158547344
O         14.0142216053       30.9473641393       13.7938947206
C         14.1149375450       29.4964639976       13.7237548374
H         19.3918837831       23.5668444016        5.3726609432
H         19.8168782421       22.1724073286        7.3617804388
H         20.5335578003       23.2087070127        9.4972844176
H         20.4292115114       27.1000481908        7.6357669723
H         19.9846990651       25.0166562617        3.4979123354
H         18.2633565612       25.1742132027        3.9498633887
H         19.0826624643       26.4956918193        3.0778828027
H         21.7396907243       27.6977412456        9.3647476218
H         22.9408488236       26.3939519132        9.6493410769
H         23.0654025021       27.0149675797       11.8813083178
H         20.7175108729       28.1359644265       13.4175378351
H         20.5939176162       30.9562355637       12.4098123860
H         21.4813021663       30.7393994419       14.7029333305
H         18.2480724695       29.2654572504       13.4319186198
H         18.1463880245       30.8798902089       12.7673844787
H         20.3131009547       32.7707406873       14.1253754255
H         18.7525348700       32.0840989647       14.4329531025
H         20.0072607280       30.0153294139       16.3623625158
H         19.1585138952       31.1795308703       10.2905990913
H         17.8254729913       27.4361456435       11.9829019115
H         21.1422767511       33.1673587164       17.7599489435
H         21.6891041363       31.7363437133       16.8924595157
H         18.8166256829       30.2638560542        8.0043969231
H         17.4831788194       26.5263976819        9.6971641894
H         22.3318448424       33.1758925940       14.9368254262
H         17.9656504839       27.9437263634        7.7033957285
H         22.2961627641       35.6756465430       15.1695726236
H         20.6496083328       35.0261688181       15.2155001718
H         21.4421935060       35.5305298206       16.7200682985
H         24.2605636425       34.3035262487       16.0184617970
H         23.4898895144       34.1453439014       17.6102509307
H         24.0021346931       32.6963702302       16.7190888754
H         16.7312102880       33.9217029389       16.0711848802
H         17.3622652749       29.6259402538       16.3285417102
H         14.7659249137       33.5384781818       14.5572906380
H         14.3494203710       29.1829457913       12.6986622672
H         13.1823133789       29.0307353221       14.0658440411
    83
VM2 Rank=2      G=225.295           E=128.312           -TS=96.983              
C         19.9946879022       24.0439507079        6.1305677351
C         20.1082172258       23.2172375847        7.2596799582
C         20.2068602774       25.4353654148        6.2376116693
C         20.4302860673       23.7689017062        8.5087217247
C         20.5401282941       25.9730447370        7.4979955216
C         20.0773145712       26.3555465903        5.0471339656
C         20.6450326795       25.1525111320        8.6363510150
C         19.7636525397       25.7689783804        3.6755094561
O         20.2155178941       27.5630410466        5.1615280019
N         20.9639436318       25.7177384943        9.9013760167
C         22.0620086777       26.6631380211       10.0627473105
C         20.3211166710       25.4597745578       11.0964152020
C         22.0062854631       27.0336103191       11.5572328743
O         20.9510242618       26.1781278938       12.0677497374
O         19.3652601802       24.7250756251       11.2767215715
C         21.7054212803       28.5271457185       11.8014313665
N         20.8363125040       28.7917420768       12.8377347913
O         22.1660155926       29.4181225611       11.1071110208
C         20.1114080247       30.0582159324       13.0080294798
C         20.2159482129       30.5272846967       14.4870425495
C         18.6491142113       29.8999724095       12.5079651106
C         19.6006975629       31.9364757442       14.7003865940
O         19.5976756985       29.5651103356       15.3466880125
C         18.5526109801       29.3647282085       11.0842942535
N         19.8240487337       32.5241815625       16.0520421011
C         18.9336365571       30.1716285132        9.9967815124
C         18.0819767975       28.0602280362       10.8444631562
C         21.2358436553       32.7501924478       16.4540539502
S         18.7786120048       32.0862639576       17.3348124239
C         18.8398963848       29.6824891944        8.6831880052
C         17.9850947583       27.5709145265        9.5311794420
C         22.0781269220       33.5835411626       15.4525320493
O         19.2651823135       30.7966639212       17.8421646143
C         17.1550251138       31.9070122264       16.5541073564
O         18.7037722035       33.2861961312       18.1768067840
C         18.3593730233       28.3843468443        8.4498141281
C         21.4644868561       34.9830836268       15.2199177636
C         23.5252816618       33.7257638825       15.9692237973
C         16.4283826595       33.0611704681       16.1634072802
C         16.6294779168       30.6194618684       16.2952171647
C         15.1829689166       32.9435351833       15.5118324693
C         15.3949813572       30.5327063143       15.6441333517
C         14.6949245756       31.6559355352       15.2644498105
O         14.7120818323       29.4123747059       15.2814423260
O         13.5365489752       31.2967337352       14.6457626645
C         13.4907363773       29.8417362619       14.6156429107
H         19.7374005956       23.5902174868        5.1780455722
H         19.9422025273       22.1466180931        7.1669659755
H         20.5122315520       23.1186081930        9.3760764260
H         20.7046042263       27.0426415526        7.5922973627
H         20.5389457230       25.0491405281        3.3898480324
H         18.7920878220       25.2626924496        3.6980588105
H         19.7290630991       26.5676985754        2.9254192279
H         21.9130519374       27.5445616516        9.4261628697
H         23.0169097062       26.1831059134        9.8145621072
H         22.9572613627       26.8000386864       12.0511562894
H         20.5127528899       27.9930909376       13.3703455078
H         20.5977313534       30.8235543096       12.3871961590
H         21.2870657041       30.5841860297       14.7227077670
H         18.1018697240       29.2380011378       13.1913990903
H         18.1347672498       30.8665828082       12.5510955077
H         20.0297612829       32.6054898623       13.9449390930
H         18.5309721462       31.8969630906       14.4719147671
H         19.7756091765       29.8351167529       16.2775274078
H         19.3060108886       31.1774958841       10.1704544412
H         17.7917729563       27.4234779607       11.6761584822
H         21.2519762700       33.2781461455       17.4178258930
H         21.7289969380       31.7833210753       16.6222989294
H         19.1373845401       30.3096642696        7.8465480181
H         17.6220526712       26.5616402063        9.3526606120
H         22.1271560040       33.0557056473       14.4905160155
H         18.2836647669       28.0080628925        7.4324123115
H         22.0731806802       35.5653783285       14.5165110267
H         20.4529361441       34.9106818147       14.8015262456
H         21.4000258283       35.5461384550       16.1598564749
H         24.1424438789       34.2861196605       15.2551458924
H         23.5536493731       34.2559999464       16.9300140271
H         23.9901423489       32.7414800362       16.1103452199
H         16.8386234687       34.0496842697       16.3583224789
H         17.1667045859       29.7182509783       16.5771613172
H         14.6210077912       33.8209327744       15.2040998556
H         13.4778262735       29.4835792781       13.5786258550
H         12.6111375748       29.4766451462       15.1604249427
    83
VM2 Rank=3      G=225.344           E=128.283           -TS=97.061              
C         19.7277848853       24.1397116954        6.2214019881
C         19.8670889355       23.3186028974        7.3509709490
C         19.9752518819       25.5253687394        6.3038370751
C         20.2537501417       23.8733416470        8.5797475748
C         20.3652980989       26.0697404403        7.5470547278
C         19.8170101399       26.3878176322        5.0736576973
C         20.5014719779       25.2535866292        8.6868480632
C         20.1097334916       27.8819105671        5.1598650779
O         19.4604237147       25.9127863064        4.0072536491
N         20.8937253347       25.8188820147        9.9322048156
C         22.0036274482       26.7599303012       10.0283241130
C         20.3334578015       25.5520634597       11.1671228321
C         22.0293543022       27.1421954527       11.5204205209
O         21.0226271350       26.2709802280       12.0973087056
O         19.3992343576       24.8073894143       11.4096147917
C         21.7104253243       28.6314300892       11.7690035237
N         20.9181806670       28.8896430225       12.8664309161
O         22.0901738842       29.5236504737       11.0286685682
C         20.1647861047       30.1347810841       13.0671539441
C         20.3870333604       30.6529294163       14.5177030622
C         18.6682593211       29.9057238270       12.7104943357
C         19.7792765968       32.0657956557       14.7373151115
O         19.8674458882       29.7034745789       15.4535835008
C         18.4517024302       29.2772043836       11.3390688109
N         19.8829057097       32.5959821335       16.1266493612
C         18.7687963123       29.9926280090       10.1699646756
C         17.9205742493       27.9786555927       11.2304063659
C         21.2535951166       32.7727943892       16.6688498878
S         18.6989316099       32.1626943262       17.2878439159
C         18.5526281693       29.4186098420        8.9059507046
C         17.7014307771       27.4046289965        9.9673664299
C         22.1920789951       33.6502097397       15.7995006896
O         19.1792891140       30.9194371956       17.9043961257
C         17.2005668458       31.8470440881       16.3192828495
O         18.4638478762       33.3903547847       18.0568457081
C         18.0125792953       28.1264758867        8.8046706379
C         21.6144904890       35.0690221731       15.5929972309
C         23.5863646167       33.7423984456       16.4544220763
C         16.4484846514       32.9356409974       15.8068562031
C         16.8187814380       30.5195960039       16.0138206065
C         15.3289409661       32.7127408592       14.9781392036
C         15.7112492507       30.3284259351       15.1824771978
C         14.9914959310       31.3883507642       14.6788540119
O         15.1959639594       29.1543846276       14.7256638479
O         13.9848557936       30.9321804331       13.8838392146
C         14.0820256099       29.4798048212       13.8471487015
H         19.4262251030       23.6949160852        5.2760870985
H         19.6750905751       22.2511599471        7.2735159244
H         20.3609105035       23.2270341119        9.4472747592
H         20.5516717998       27.1343239962        7.6394725750
H         19.9685760857       28.3482943001        4.1778350312
H         19.4310969912       28.3569846726        5.8765326622
H         21.1448562230       28.0434796267        5.4812568249
H         21.8292422764       27.6373214492        9.3932357210
H         22.9412165094       26.2710051274        9.7354351585
H         23.0122726753       26.9335764289       11.9599787946
H         20.6583383487       28.0910886776       13.4328702392
H         20.5616863774       30.8968360271       12.3821193961
H         21.4724481652       30.7349768876       14.6661810815
H         18.2065344916       29.2736609791       13.4796449466
H         18.1260583602       30.8569871628       12.7408989823
H         20.2916074527       32.7523821341       14.0527791178
H         18.7378967366       32.0713410320       14.4063184200
H         20.0230214053       30.0497799697       16.3615324361
H         19.1840178917       30.9941673856       10.2415804473
H         17.6765598258       27.4118790109       12.1251843699
H         21.1863588790       33.2423514679       17.6603111047
H         21.7186513213       31.7893968541       16.8207323610
H         18.7977388382       29.9783054147        8.0070575323
H         17.2918756060       26.4002749681        9.8910568719
H         22.3248394535       33.1777521119       14.8168963973
H         17.8360878525       27.6833556889        7.8281845888
H         21.4658738517       35.5777384842       16.5541379112
H         22.2914680222       35.6826690609       14.9851441912
H         20.6464872821       35.0341911525       15.0778424280
H         24.0274196288       32.7451987838       16.5804966472
H         24.2719202752       34.3336722259       15.8337807287
H         23.5302802527       34.2167067422       17.4428305286
H         16.7483489898       33.9556902639       16.0370816539
H         17.3788631545       29.6662839189       16.3855098706
H         14.7542036907       33.5395967553       14.5703279786
H         14.2957067078       29.1408881671       12.8256003624
H         13.1556435520       29.0244276633       14.2188585380
    83
VM2 Rank=4      G=225.433           E=128.810           -TS=96.622              
C         22.3608335246       24.6279859085        5.7381581642
C         23.1761625837       24.3241877014        6.8403168660
C         21.3459700544       25.6033670471        5.8451701493
C         22.9863277210       24.9864465961        8.0625254883
C         21.1758640833       26.2686204217        7.0767102315
C         20.4372937626       25.9401714215        4.6869277060
C         21.9818828635       25.9617101196        8.1882316481
C         20.6491085766       25.2533396322        3.3426406899
O         19.5319255492       26.7503428757        4.8063174739
N         21.7777371375       26.6302979793        9.4252698130
C         21.6694810463       28.0821523874        9.4987412436
C         21.6616511222       26.0349251124       10.6662313823
C         21.4249115145       28.3516579132       10.9938380937
O         21.4747496204       27.0259244495       11.5835720971
O         21.7146835207       24.8444303111       10.9224810137
C         20.0833751541       29.0669864416       11.2477294154
N         19.1966176279       28.4013210551       12.0663981968
O         19.7975312093       30.1284620035       10.7207788245
C         17.7462767826       28.6546035995       12.0781566002
C         17.3059811646       29.3828266974       13.3804984316
C         17.0059984112       27.3110858265       11.8594682524
C         17.9578994630       30.7884274626       13.5053180773
O         15.8835178334       29.5200340775       13.4063340715
C         17.4767035276       26.5672825002       10.6144200395
N         17.9225031278       31.3775989181       14.8713821899
C         17.1803812269       27.0703930964        9.3341841913
C         18.2160900703       25.3757378659       10.7333295876
C         18.6179212978       30.6143046668       15.9432807690
S         16.4956042572       32.2029106619       15.3190383627
C         17.6107873379       26.3858313255        8.1851340517
C         18.6445429626       24.6891082635        9.5852009226
C         20.0850974417       30.2269880215       15.6202997839
O         16.2805282424       33.1837338019       14.2485924820
C         16.9947680649       33.1615629007       16.7682927735
O         15.4961330720       31.1783832268       15.6485610512
C         18.3371155818       25.1911042599        8.3110504700
C         20.9566446558       31.4764143134       15.3578091417
C         20.6833599705       29.4063113280       16.7819602445
C         16.5135382538       32.8122724293       18.0562201325
C         17.8902604730       34.2450729924       16.6155850376
C         16.9163532419       33.5383932601       19.1964976522
C         18.2730074635       34.9465355998       17.7633795352
C         17.8023036566       34.6055601138       19.0118435257
O         19.1190080493       36.0089064616       17.8576258600
O         18.3286248594       35.4378228589       19.9521006230
C         19.1999428387       36.3794640933       19.2633976423
H         22.5253466024       24.0937111425        4.8071137090
H         23.9539435003       23.5699251966        6.7480956776
H         23.6201761829       24.7396320218        8.9106004345
H         20.3937800290       27.0165576851        7.1735215964
H         19.9232635587       25.6284492553        2.6117334567
H         21.6604310928       25.4572268388        2.9731785788
H         20.5157457206       24.1710064012        3.4500613933
H         20.8303409589       28.4418439869        8.8892767369
H         22.6020010450       28.5529216234        9.1628934196
H         22.2224155229       28.9811232190       11.4072625463
H         19.5306034107       27.5209488923       12.4389738166
H         17.4942054732       29.3111738986       11.2333584055
H         17.6308924214       28.7575017325       14.2216943295
H         17.1309796818       26.6809393658       12.7489836835
H         15.9281195009       27.4986889230       11.7744943763
H         19.0019193632       30.7268755555       13.1822425626
H         17.4722228375       31.4628037691       12.7874879621
H         15.6394369791       29.9106003864       14.2791075511
H         16.6153892413       27.9928842717        9.2305146728
H         18.4602672953       24.9794675873       11.7152908060
H         18.6399977258       31.2032345930       16.8685817850
H         18.0489641901       29.7033626330       16.1725422375
H         17.3813460222       26.7795046883        7.1977189815
H         19.2179307865       23.7705710122        9.6839125546
H         20.1059768019       29.5879332386       14.7271613822
H         18.6686690007       24.6600954275        7.4222791408
H         20.5837079984       32.0500431041       14.5001521626
H         20.9651473252       32.1421958066       16.2303726889
H         21.9933883161       31.1908119210       15.1390604601
H         20.7035545264       29.9895964222       17.7117066713
H         20.0958485724       28.4971020377       16.9634722916
H         21.7117069760       29.0978046486       16.5537202285
H         15.8292569009       31.9744853863       18.1709799471
H         18.2774402609       34.5250865733       15.6395825575
H         16.5553548346       33.2794708032       20.1879731319
H         20.2309368689       36.2780088993       19.6247339396
H         18.8405277545       37.4060203316       19.4076425741
    83
VM2 Rank=5      G=225.441           E=128.915           -TS=96.526              
C         21.7207341595       23.6847600219        5.5002177139
C         21.9368846734       22.8821251564        6.6317572611
C         21.4937297601       25.0711255494        5.6383160177
C         21.9251592232       23.4518592672        7.9137184333
C         21.4953021967       25.6303581899        6.9329306268
C         21.2418249584       25.9605998074        4.4440999058
C         21.7008817454       24.8306542350        8.0723002152
C         21.2863279596       25.3648867080        3.0416232781
O         20.9991506046       27.1493196925        4.5792400380
N         21.6797821226       25.4115330999        9.3695745017
C         22.4280391762       26.6240911560        9.6780662844
C         20.9916702705       24.9325510849       10.4671252472
C         22.0652922173       26.9103712807       11.1479430694
O         21.2551513330       25.7633631027       11.5143901315
O         20.2759865498       23.9470360611       10.5169958291
C         21.3010060715       28.2376791680       11.3357884252
N         20.2601400006       28.1968886855       12.2382806207
O         21.5640021587       29.2484204848       10.7055029962
C         19.1761408573       29.1872368818       12.2967808135
C         18.9526920308       29.6433131083       13.7660924529
C         17.9012725755       28.6157372015       11.6212677757
C         17.9161281302       30.7943160373       13.8708014304
O         18.5468293818       28.5308714994       14.5703771303
C         18.1432656745       28.1367442015       10.1946916017
N         17.9359504421       31.5413896293       15.1580437011
C         18.3786182071       29.0667050254        9.1656748418
C         18.1376926062       26.7617671181        9.8943362668
C         19.2030845343       32.2391663741       15.5068705109
S         17.0546253586       30.8650073302       16.4563468424
C         18.6003663083       28.6278736103        7.8496615171
C         18.3566269562       26.3217635174        8.5782737967
C         19.7287476700       33.2103309940       14.4183703483
O         15.7112104378       30.6321212831       15.9130243749
C         16.8807794680       32.2419684005       17.6148324983
O         17.8715988948       29.7750661618       17.0054379162
C         18.5833093395       27.2555642910        7.5546645847
C         18.6981717446       34.3192278255       14.1051835899
C         21.0586725332       33.8458972276       14.8751241593
C         17.5789022181       32.2292598349       18.8496448599
C         16.0673242781       33.3462422722       17.2712735158
C         17.4701328418       33.3103790641       19.7491455644
C         15.9788304736       34.4041781740       18.1817002065
C         16.6567341280       34.3875103453       19.3803072818
O         15.2688592136       35.5596234772       18.0629954796
O         16.4050564645       35.5314395069       20.0744507666
C         15.5043120506       36.3426768561       19.2677555768
H         21.7285115698       23.2152896151        4.5209809180
H         22.1099540041       21.8149979242        6.5148217749
H         22.0904004630       22.8194703086        8.7824542914
H         21.3201114933       26.6958684901        7.0516705101
H         22.2696126196       24.9184290812        2.8554124437
H         20.5146034521       24.5939150342        2.9376274510
H         21.1066756050       26.1481445534        2.2959570418
H         22.1223107820       27.4485235191        9.0214673921
H         23.5048734981       26.4435587796        9.5698913906
H         22.9673718733       26.9541461379       11.7702093094
H         20.1211965010       27.3205597780       12.7270514985
H         19.4860091717       30.0742009139       11.7267251550
H         19.9224054009       30.0139283031       14.1223822264
H         17.5082185327       27.7915369763       12.2301298378
H         17.1155508327       29.3800031479       11.6075274604
H         18.0963139906       31.4950933104       13.0469551098
H         16.9135535082       30.3816336388       13.6978713898
H         18.5051706677       28.8405221804       15.5059385612
H         18.3932965236       30.1303678322        9.3871212426
H         17.9653567341       26.0321903279       10.6813468843
H         19.0659976871       32.8305548137       16.4206390665
H         19.9809456968       31.4986174942       15.7360929901
H         18.7837468681       29.3507508569        7.0586778565
H         18.3527454059       25.2579700106        8.3531694990
H         19.9354637321       32.6488952041       13.4970833367
H         18.7522083989       26.9171216709        6.5351696523
H         18.4646436054       34.9063500423       15.0027148405
H         19.0835681411       35.0065683492       13.3413668476
H         17.7596974510       33.8960426959       13.7258896789
H         21.4594183358       34.5129573422       14.1010148583
H         20.9239994228       34.4343425775       15.7920190930
H         21.8143781053       33.0749775219       15.0736831609
H         18.2085366660       31.3807444142       19.1082820165
H         15.5300043171       33.3804294171       16.3273486056
H         18.0009776816       33.3124157408       20.6970841636
H         15.9784084124       37.2988600158       19.0132887564
H         14.5612679562       36.5106914648       19.8027705679
    83
VM2 Rank=6      G=225.479           E=128.587           -TS=96.892              
C         19.8559067431       25.2130287142        5.4519581438
C         20.0871803964       26.5748560391        5.7005274959
C         19.9529750202       24.2679118797        6.4958186556
C         20.4154878590       27.0104374827        6.9926303542
C         20.2830194282       24.7218182965        7.7903030609
C         19.7150638006       22.7950796990        6.2591051318
C         20.5094110231       26.0871814326        8.0498916464
C         19.3464849278       22.3090554835        4.8618683679
O         19.8126824012       21.9823798123        7.1648984305
N         20.8434030958       26.5255483940        9.3624384039
C         21.9030137889       27.4999378317        9.5948809428
C         20.2667274053       26.0974903770       10.5435945668
C         21.9538976257       27.6283140227       11.1289736479
O         20.9128061284       26.7191659525       11.5696037734
O         19.3479634723       25.3068766379       10.6736760319
C         21.7204251181       29.0684645454       11.6290517993
N         20.9259955510       29.1824594611       12.7492547977
O         22.1602547124       30.0492287885       11.0520072205
C         20.1989868558       30.4040158381       13.1205659963
C         20.3885425542       30.6861478833       14.6393139807
C         18.7080311981       30.2779018000       12.6938229318
C         19.7997666233       32.0610658115       15.0596214269
O         19.8244401482       29.6155109905       15.4028555651
C         18.5172059076       29.8408756031       11.2461516272
N         19.8735674091       32.3683437973       16.5164163775
C         18.9203482608       30.6787864192       10.1904386310
C         17.9330126020       28.5944904626       10.9532805380
C         21.2313863713       32.4298633818       17.1135469512
S         18.6502195047       31.7866884889       17.5666738550
C         18.7416279753       30.2755188124        8.8566351879
C         17.7494419945       28.1922269081        9.6200890910
C         22.2090227807       33.4104139173       16.4141787433
O         19.0913517536       30.4531494485       17.9952332612
C         17.1741236532       31.6566214574       16.5240405613
O         18.4152016346       32.8858527056       18.5102811690
C         18.1514782783       29.0339441642        8.5713507907
C         21.6622634738       34.8562126259       16.4153190220
C         23.5857924385       33.3704308989       17.1101426153
C         16.4565447996       32.8273286268       16.1665846034
C         16.7770668099       30.4005019237       16.0085991814
C         15.3569289920       32.7590273274       15.2856604874
C         15.6901424222       30.3636838919       15.1302174058
C         15.0041719928       31.5040084176       14.7777728633
O         15.1670382134       29.2853347031       14.4851405762
O         14.0123990562       31.1976079783       13.8968773975
C         14.0841977993       29.7662108661       13.6397066914
H         19.6039274050       24.9052465288        4.4414764120
H         20.0112074463       27.2947960692        4.8891950447
H         20.5863547092       28.0688700047        7.1677943106
H         20.3657204223       24.0026503378        8.6012276537
H         18.4157512081       22.7850588792        4.5332288014
H         20.1471072189       22.5567485411        4.1558416363
H         19.2044937702       21.2220482220        4.8682722096
H         21.6497055512       28.4595009062        9.1261079141
H         22.8581035268       27.1323521170        9.1991678568
H         22.9273951551       27.2962204496       11.5096672937
H         20.6173311058       28.3141451509       13.1698378548
H         20.6365469148       31.2497554824       12.5720912866
H         21.4705049057       30.7195871940       14.8267536573
H         18.2010956842       29.5674730446       13.3589890918
H         18.1965240983       31.2364287327       12.8340760468
H         20.3428459971       32.8338284571       14.5025098609
H         18.7682166128       32.1395533850       14.7075335822
H         19.9615751698       29.8128847849       16.3571799189
H         19.3780628212       31.6407675343       10.4042962880
H         17.6224821820       27.9342276641       11.7588878318
H         21.1445717772       32.7422485363       18.1637259202
H         21.6747884708       31.4250135742       17.1230239936
H         19.0571781534       30.9266935873        8.0454713005
H         17.2998555859       27.2267999005        9.4008548106
H         22.3610209531       33.0923763925       15.3739377015
H         18.0078282178       28.7230404329        7.5396365551
H         21.4956773113       35.2137186225       17.4395790681
H         22.3665913445       35.5415198800       15.9268295098
H         20.7086068241       34.9220999971       15.8769649688
H         24.2986872161       34.0354244194       16.6058097694
H         23.5102927588       33.6877313135       18.1583247449
H         24.0056875890       32.3564436150       17.0913858039
H         16.7682419041       33.7931064776       16.5584286294
H         17.3109921192       29.4880861637       16.2584287166
H         14.8089805068       33.6511904878       14.9956239426
H         14.3201307011       29.5831426846       12.5838166506
H         13.1396778570       29.2799707070       13.9138852420
    83
VM2 Rank=7      G=225.528           E=128.945           -TS=96.583              
C         21.6219997529       23.7181094929        5.4249980927
C         21.5205641170       22.8425361978        6.5178716329
C         21.6253181118       25.1154906042        5.6247758816
C         21.4171864837       23.3502453863        7.8215931161
C         21.5311029188       25.6099015777        6.9421479591
C         21.7168995415       26.0855657299        4.4709370303
C         21.4185792573       24.7388505762        8.0415179409
C         21.8652449432       25.5513223966        3.0509443046
O         21.6709043186       27.2919230098        4.6520393538
N         21.3056532309       25.2585302261        9.3599054470
C         22.1991873104       26.3001962142        9.8518022096
C         20.3887565292       24.8669394627       10.3157042987
C         21.6794869712       26.5823673737       11.2746061967
O         20.6344971147       25.5896908407       11.4442484173
O         19.5122955384       24.0280113926       10.1976338490
C         21.1425569334       28.0183447989       11.4499998885
N         19.9884727930       28.1300239250       12.1951034564
O         21.6706638448       28.9904244633       10.9360184285
C         19.0992204750       29.2996311407       12.1734511466
C         18.7388658717       29.7189271759       13.6264563211
C         17.8610701787       29.0057045346       11.2852331146
C         17.9152945892       31.0343487876       13.6692794691
O         18.0280257849       28.6629270256       14.2811762943
C         18.2282608128       28.5573100989        9.8755488903
N         17.8719333295       31.7051186887       14.9974410265
C         18.7759691814       29.4748936725        8.9606013717
C         18.0270818640       27.2224088197        9.4775675149
C         19.1750316585       32.1395445516       15.5698051605
S         16.7021040483       31.1403094448       16.1077359952
C         19.1137764392       29.0645038093        7.6601804858
C         18.3619351759       26.8113915158        8.1766100477
C         20.0278894349       33.0364795830       14.6356015837
O         15.4349527297       31.1819144997       15.3682806689
C         16.6000540962       32.4663708652       17.3324521416
O         17.2270221974       29.8948645590       16.6824405499
C         18.9011165067       27.7340862590        7.2660678940
C         19.2750106358       34.3313335290       14.2532666133
C         21.3646838633       33.3913040616       15.3199923225
C         16.0307161795       33.7155872862       16.9758439569
C         17.1113453687       32.2661391047       18.6355825588
C         15.9634896117       34.7701335317       17.9100083830
C         17.0308423893       33.3290914824       19.5413191624
C         16.4761046491       34.5401045123       19.1913566865
O         17.4563270885       33.3669937554       20.8339106774
O         16.5248880527       35.3981904101       20.2473246551
C         17.1546180769       34.6929136266       21.3546178038
H         21.6937748783       23.2968522904        4.4266202767
H         21.5180681647       21.7676756639        6.3533762155
H         21.3358347292       22.6621971360        8.6593831172
H         21.5312388543       26.6834755873        7.1079644215
H         22.7707419038       24.9389614320        2.9738991068
H         20.9938548735       24.9413989231        2.7874189587
H         21.9407925525       26.3848991063        2.3429704649
H         22.1405190120       27.1947195031        9.2187985344
H         23.2325437210       25.9323957095        9.8794337151
H         22.4731755299       26.4303078166       12.0161038979
H         19.6259674407       27.2732559844       12.5959973602
H         19.6429462275       30.1400221721       11.7197937440
H         19.6930233892       29.8879040174       14.1419121431
H         17.2414843182       28.2408307839       11.7706086433
H         17.2333244891       29.9017971279       11.2173336870
H         18.3364437509       31.7275427224       12.9314461445
H         16.8935287769       30.8208613865       13.3289839969
H         17.9008783986       28.9297861971       15.2222029539
H         18.9433468639       30.5061389374        9.2591849092
H         17.6123650636       26.5012558317       10.1770784716
H         19.0073895945       32.7101814417       16.4916227104
H         19.7628688416       31.2578966464       15.8583341141
H         19.5385802103       29.7772857527        6.9578180866
H         18.2055173691       25.7782178574        7.8758947967
H         20.2688006034       32.4830760232       13.7177719768
H         19.1602258509       27.4181975697        6.2583301386
H         19.0175689560       34.9164368494       15.1455283733
H         19.8903282561       34.9627960180       13.5997957182
H         18.3444005626       34.1081747857       13.7167783973
H         21.9930674400       34.0010490630       14.6580544970
H         21.1994816082       33.9577410425       16.2457137666
H         21.9293679622       32.4844967298       15.5723165815
H         15.6453618102       33.8658065620       15.9696671493
H         17.5577204304       31.3205226846       18.9311412943
H         15.5310777988       35.7314807245       17.6470466804
H         16.4620453378       34.6202004240       22.2024785877
H         18.0784370575       35.2031857941       21.6546018042
    83
VM2 Rank=8      G=225.585           E=128.663           -TS=96.922              
C         20.1556372535       25.2494774241        5.3346865140
C         20.4619477179       26.5876849322        5.6247308590
C         20.1004893075       24.2852004703        6.3617611948
C         20.7147870741       26.9801826398        6.9470801558
C         20.3591768613       24.6944433826        7.6885465632
C         19.7686037246       22.8508580521        6.0230786432
C         20.6591423152       26.0374220987        7.9901576390
C         19.6933606336       21.8135062896        7.1379975603
O         19.5563982805       22.5030008001        4.8722332008
N         20.9140625496       26.4337496711        9.3339830281
C         22.0042324013       27.3425657616        9.6690364349
C         20.2221920487       26.0213654511       10.4576526977
C         21.9342698960       27.4507153347       11.2039870822
O         20.8164780939       26.5906556558       11.5434666916
O         19.2549328501       25.2803446279       10.4988420371
C         21.7312500795       28.8954471286       11.7043458519
N         20.8467337739       29.0391497477       12.7513306178
O         22.2721443745       29.8576426208       11.1848446908
C         20.1638274656       30.2968090283       13.0844779304
C         20.2449902572       30.5508559355       14.6167071067
C         18.7099303173       30.2702361185       12.5354561854
C         19.6702547000       31.9380907924       15.0110388669
O         19.5746604346       29.4997748623       15.3188668532
C         18.6226569346       29.8778168007       11.0649727297
N         19.8338341203       32.3052819984       16.4465362881
C         19.1357319686       30.7300887571       10.0701896438
C         18.0321483612       28.6566879132       10.6897948720
C         21.2263693131       32.4010816680       16.9535380177
S         18.6949398227       31.7351802514       17.5908074222
C         19.0579747281       30.3668784236        8.7153092124
C         17.9494450019       28.2946098999        9.3351126466
C         22.1568310564       33.3398216625       16.1412320092
O         19.1146476008       30.3727527661       17.9440198472
C         17.1219889031       31.7152676018       16.6940792468
O         18.5963628588       32.8122150457       18.5830588126
C         18.4603012290       29.1509428990        8.3472992576
C         21.6097231488       34.7848752537       16.0983114925
C         23.5748179949       33.3347037421       16.7501246007
C         16.4461175307       32.9337735888       16.4271264094
C         16.5904233175       30.4934499560       16.2189902587
C         15.2469627418       32.9461965568       15.6845772092
C         15.4033524296       30.5361195557       15.4812538559
C         14.7532283198       31.7217499663       15.2216791861
O         14.7277431768       29.4993666709       14.9141006130
O         13.6355340306       31.4882201109       14.4801705844
C         13.5663630006       30.0547400857       14.2344073794
H         19.9606718264       24.9609679210        4.3045735728
H         20.5015854578       27.3216350202        4.8234759591
H         20.9437105072       28.0214194632        7.1556412589
H         20.3304721627       23.9706134278        8.4967984937
H         18.9306378778       22.1042030633        7.8693739575
H         19.4289100438       20.8343536681        6.7219262259
H         20.6634888808       21.7333117098        7.6411961449
H         21.8466126972       28.3206791830        9.1967345230
H         22.9665132632       26.9244421155        9.3479516953
H         22.8553819382       27.0661970245       11.6585336840
H         20.4560395411       28.1844259694       13.1293742457
H         20.6941346280       31.1214661910       12.5881891937
H         21.3105616653       30.5368351513       14.8824230796
H         18.1080376729       29.5780854987       13.1382415520
H         18.2483067829       31.2562394737       12.6606897439
H         20.1682121315       32.6926622020       14.3904923669
H         18.6157366568       31.9835256821       14.7220748444
H         19.7205286686       29.6393414856       16.2831594442
H         19.6007842017       31.6719272465       10.3482580236
H         17.6391186262       27.9846363937       11.4481887106
H         21.2044026615       32.7723623823       17.9877326831
H         21.6723942172       31.3981619776       16.9935310871
H         19.4580068342       31.0290581474        7.9516936532
H         17.4936618657       27.3488007134        9.0522905533
H         22.2436636529       32.9651301519       15.1123832551
H         18.3950371836       28.8711572653        7.2988618089
H         20.6231824432       34.8238203711       15.6200114749
H         21.5094211324       35.1983684075       17.1100610630
H         22.2803834526       35.4405955522       15.5285743561
H         24.2536019442       33.9698531558       16.1664883191
H         23.5652054213       33.7085440446       17.7822217986
H         23.9940552240       32.3203210493       16.7599405369
H         16.8611641274       33.8723095008       16.7881359836
H         17.0894399268       29.5460598222       16.4024488067
H         14.7249382075       33.8744186806       15.4695858602
H         13.6236338078       29.8509929001       13.1578043533
H         12.6427540905       29.6394994428       14.6566495366
    83
VM2 Rank=9      G=225.599           E=128.664           -TS=96.934              
C         20.1880938136       25.2018716708        5.3476425459
C         20.4682524670       26.5461923820        5.6378987058
C         20.1496042691       24.2393206854        6.3793429877
C         20.7111022419       26.9467917966        6.9598670406
C         20.3949305584       24.6580844504        7.7041455436
C         19.8558125080       22.7844565338        6.0984370137
C         20.6699838071       26.0058965267        8.0047792320
C         19.5795044501       22.3369037513        4.6674609602
O         19.8356437132       21.9560601776        6.9950018586
N         20.9163917152       26.4085273873        9.3475655059
C         22.0082982280       27.3141088845        9.6848263071
C         20.2148971439       26.0044993930       10.4679089785
C         21.9245528033       27.4350036925       11.2181993796
O         20.8040009109       26.5772501692       11.5548512134
O         19.2435207047       25.2689532359       10.5061633164
C         21.7156677178       28.8836239676       11.7048980771
N         20.8285085435       29.0337500103       12.7487661223
O         22.2550739862       29.8429316237       11.1785342636
C         20.1453500947       30.2934924066       13.0734902554
C         20.2257018020       30.5577639592       14.6039228365
C         18.6921464564       30.2635927389       12.5235198796
C         19.6491219115       31.9467928901       14.9887644208
O         19.5551804620       29.5116530546       15.3132610676
C         18.6082367320       29.8699493441       11.0532110162
N         19.8329416328       32.3332637755       16.4167292798
C         19.1136233888       30.7266516575       10.0583136651
C         18.0293696682       28.6431902783       10.6782991045
C         21.2326795316       32.4449224935       16.9003410439
S         18.7171896269       31.7674961316       17.5854056143
C         19.0394627048       30.3623846446        8.7035112500
C         17.9505336295       28.2798627189        9.3237118985
C         22.1448463823       33.3767412977       16.0597645271
O         19.1443214197       30.4071636996       17.9378730497
C         17.1271665105       31.7440864751       16.7196971110
O         18.6368092067       32.8492937552       18.5741401702
C         18.4534054704       29.1407314568        8.3357349597
C         21.5886869785       34.8179071235       16.0040930433
C         23.5721454963       33.3886921901       16.6463892399
C         16.4485471184       32.9619422275       16.4568659636
C         16.5829147556       30.5195572030       16.2665115161
C         15.2334334553       32.9709552659       15.7407023514
C         15.3797486676       30.5587892959       15.5550565488
C         14.7266533136       31.7437419533       15.2997579085
O         14.6886475763       29.5187493881       15.0131143230
O         13.5916545451       31.5064997189       14.5862328346
C         13.5126418805       30.0709065174       14.3562960685
H         20.0046204154       24.9211472047        4.3147676062
H         20.4967090429       27.2797156671        4.8357257684
H         20.9214874086       27.9922529507        7.1670482778
H         20.3727434729       23.9253104003        8.5067912221
H         18.7050913689       22.8658523752        4.2719057908
H         20.4475913276       22.5509422916        4.0338709038
H         19.3813601277       21.2589686147        4.6433365105
H         21.8610820296       28.2887299727        9.2020850063
H         22.9709372678       26.8873214434        9.3764727083
H         22.8417709914       27.0551631734       11.6843987180
H         20.4388248158       28.1813682542       13.1330717366
H         20.6759679185       31.1149634391       12.5722695711
H         21.2913084382       30.5460210863       14.8694442653
H         18.0912256763       29.5705642453       13.1262709649
H         18.2284385098       31.2487798957       12.6476762400
H         20.1327986799       32.6962781960       14.3510160551
H         18.5897922639       31.9815659760       14.7157179628
H         19.7091339923       29.6533488555       16.2760857877
H         19.5698113531       31.6728601268       10.3362249140
H         17.6426648540       27.9676525792       11.4368510748
H         21.2246386173       32.8315250613       17.9291000338
H         21.6853720536       31.4453600370       16.9484415410
H         19.4334147268       31.0280765116        7.9397848255
H         17.5038622986       27.3296319032        9.0411060121
H         22.2179345954       32.9872565651       15.0353433053
H         18.3910251684       28.8600396675        7.2873649409
H         21.5020213566       35.2458999491       17.0110610172
H         22.2464168434       35.4687834654       15.4140870289
H         20.5944851262       34.8442265058       15.5410496519
H         24.2379989195       34.0189426600       16.0428847690
H         23.5764026532       33.7777509529       17.6728822639
H         23.9974614183       32.3769595515       16.6645950735
H         16.8732791527       33.9024395389       16.8011218854
H         17.0836576519       29.5725780250       16.4474614593
H         14.7087666531       33.8985518856       15.5294768739
H         13.5430432394       29.8564093529       13.2806931634
H         12.5984629365       29.6626100988       14.8050085613
    83
VM2 Rank=10     G=225.623           E=128.451           -TS=97.172              
C         20.2665832942       23.9722645605        6.0286827447
C         20.4561765895       23.1430462438        7.1456863248
C         20.3813143752       25.3739581238        6.1496700948
C         20.7580348825       23.7021181293        8.3964736833
C         20.6954905874       25.9197655173        7.4114776883
C         20.1681548216       26.2958662434        4.9726324544
C         20.8762884564       25.0959441627        8.5378558440
C         19.8742157901       25.7038941077        3.5989594884
O         20.2230144399       27.5087531200        5.0995797816
N         21.1739216569       25.6680366889        9.8049160777
C         22.2066321239       26.6849848666        9.9625803063
C         20.5671205623       25.3538219583       11.0052618327
C         22.1447413637       27.0366157283       11.4614119148
O         21.1595052733       26.1037460665       11.9763343633
O         19.6666115192       24.5531874091       11.1896640183
C         21.7418946930       28.5027000172       11.7244637046
N         20.8686149375       28.6953859281       12.7731278929
O         22.1301647857       29.4305619552       11.0342681927
C         20.0594083664       29.9065369529       12.9650668520
C         20.1531536438       30.3727149308       14.4454148434
C         18.6051481588       29.6511762306       12.4843671161
C         19.4350577713       31.7286355005       14.6793022650
O         19.6205024024       29.3644458561       15.3097369699
C         18.5270377028       29.1348925782       11.0525512456
N         19.7073372141       32.3642734716       15.9998158293
C         18.8253747080       29.9882895630        9.9747362774
C         18.1580606850       27.8012830830       10.7954460783
C         21.1190550424       32.7282014993       16.2852860803
S         18.8142685503       31.8510250984       17.3661032645
C         18.7502449455       29.5159277986        8.6538221962
C         18.0798516745       27.3284714262        9.4748898475
C         21.8044044530       33.6032804378       15.2028618692
O         19.4261464000       30.5946655729       17.8184070637
C         17.1402677581       31.5787128300       16.7342901908
O         18.7374481671       33.0401106343       18.2232962240
C         18.3713210476       28.1876645600        8.4034432264
C         21.0502578826       34.9352125680       14.9867795761
C         23.2672222230       33.8891472367       15.6027609415
C         16.6502079361       30.2604664905       16.5459414817
C         16.3307039283       32.6887900079       16.3993063444
C         15.3591675949       30.0388086496       16.0233629714
C         15.0544309999       32.4392730818       15.8844177145
C         14.5841589529       31.1580436833       15.7014199918
O         14.1148231763       33.3419348959       15.4899769361
O         13.3251797560       31.1924298602       15.1842598893
C         12.9582787065       32.5919346750       15.0208903060
H         20.0270996323       23.5121230158        5.0745943668
H         20.3649297852       22.0644510518        7.0422732502
H         20.8993952608       23.0496496439        9.2545007333
H         20.7852367856       26.9972056796        7.5166177787
H         20.6936245810       25.0440165651        3.2924013948
H         18.9413466074       25.1298395342        3.6304438171
H         19.7709501526       26.5064746084        2.8593750832
H         21.9897746448       27.5600224566        9.3367823554
H         23.1888683172       26.2737626733        9.6980617166
H         23.1163551260       26.8667101746       11.9409690914
H         20.6087153781       27.8709073000       13.3012147877
H         20.4816642610       30.7085582458       12.3436481442
H         21.2212338713       30.5071235950       14.6618812559
H         18.1191344379       28.9392715427       13.1637394036
H         18.0232247436       30.5772682120       12.5536228311
H         19.7451588806       32.4148281205       13.8822708998
H         18.3584505582       31.5883491405       14.5350997607
H         19.8249814021       29.6289410626       16.2370042581
H         19.1192428880       31.0175331860       10.1615467073
H         17.9327948532       27.1291154321       11.6193398716
H         21.1597121906       33.2841111868       17.2324286284
H         21.7101641405       31.8151242505       16.4373875115
H         18.9836785456       30.1791972547        7.8247307190
H         17.7955486042       26.2966428159        9.2830098019
H         21.8293748381       33.0535225445       14.2522391488
H         18.3102095209       27.8240210725        7.3804656209
H         21.5486803520       35.5480506324       14.2249616165
H         20.0207303189       34.7609996084       14.6503164560
H         21.0062020761       35.5180946343       15.9157477943
H         23.7754513208       34.4809943404       14.8306091142
H         23.3191133035       34.4479087781       16.5462503766
H         23.8291549372       32.9548324605       15.7296957290
H         17.2750627056       29.4068148473       16.7984116750
H         16.6863209043       33.7074771755       16.5285627501
H         14.9765212929       29.0334947764       15.8711185969
H         12.0780936946       32.8283581227       15.6317746071
H         12.7643704788       32.8134703331       13.9639469279
    83
VM2 Rank=11     G=225.637           E=128.617           -TS=97.020              
C         19.8488809775       25.2664148364        5.4303282584
C         20.1132780317       26.6210400016        5.6828371918
C         19.9149609372       24.3149233525        6.4685880656
C         20.4447854981       27.0428700596        6.9785008693
C         20.2519169823       24.7538071594        7.7680499849
C         19.6261031609       22.8623730450        6.1704937740
C         20.5102564353       26.1131835160        8.0327677094
C         19.6815048716       21.8382176324        7.2986985430
O         19.3460625288       22.4892781035        5.0422832532
N         20.8458280404       26.5394301398        9.3496323622
C         21.9093757926       27.5075421174        9.5913922526
C         20.2661281897       26.1051744463       10.5273866985
C         21.9601379905       27.6227930392       11.1264957346
O         20.9134540091       26.7162382609       11.5588456054
O         19.3449991040       25.3159599807       10.6503389556
C         21.7351355266       29.0602374153       11.6380541754
N         20.9344607775       29.1708521539       12.7541252954
O         22.1860359735       30.0424190803       11.0720894010
C         20.2112282122       30.3936841271       13.1285533387
C         20.3929423427       30.6656906892       14.6501397148
C         18.7222107494       30.2774733478       12.6921221774
C         19.8082728330       32.0409049679       15.0752727209
O         19.8192832286       29.5930799143       15.4037482850
C         18.5370648853       29.8471522163       11.2416598650
N         19.8708636402       32.3373265827       16.5348427915
C         18.9580017506       30.6832324393       10.1914313172
C         17.9398255385       28.6088863672       10.9407155552
C         21.2236641127       32.3870514003       17.1443293641
S         18.6348889914       31.7554608346       17.5701673283
C         18.7843382266       30.2860260875        8.8551469169
C         17.7611290092       28.2128373685        9.6050062340
C         22.2126705282       33.3674221119       16.4608848426
O         19.0658753129       30.4174560576       17.9951024388
C         17.1681639388       31.6378014740       16.5129038413
O         18.3959946007       32.8503037723       18.5178083908
C         18.1812553014       29.0525807217        8.5617932559
C         21.6736183765       34.8160953068       16.4678428156
C         23.5829651684       33.3149357615       17.1686962289
C         16.4591567911       32.8136693190       16.1552698476
C         16.7707568724       30.3864304889       15.9863142218
C         15.3681506516       32.7552888992       15.2629966286
C         15.6926156889       30.3594709201       15.0968243031
C         15.0151996368       31.5048173663       14.7441385588
O         15.1717892451       29.2872663184       14.4397717461
O         14.0313993734       31.2079438825       13.8511262791
C         14.1003701661       29.7779569167       13.5854828618
H         19.5917814527       24.9551251238        4.4206841709
H         20.0593067852       27.3449157153        4.8732988608
H         20.6397183757       28.0962916153        7.1584124494
H         20.3172739274       24.0403627452        8.5833342440
H         19.4324689403       20.8424321821        6.9137549565
H         20.6888612780       21.8089878476        7.7290087579
H         18.9623758529       22.1042134618        8.0818128724
H         21.6600563449       28.4724496733        9.1315502017
H         22.8632861442       27.1399707137        9.1928246992
H         22.9314108224       27.2816832818       11.5048986704
H         20.6171071040       28.3012795772       13.1655456797
H         20.6562105512       31.2405837199       12.5879023071
H         21.4738834214       30.6928448166       14.8443886946
H         18.2075470426       29.5671464180       13.3513952436
H         18.2151069352       31.2382136259       12.8332331589
H         20.3606502721       32.8144880627       14.5285393297
H         18.7803812857       32.1280153301       14.7146745614
H         19.9501178743       29.7847353997       16.3600928383
H         19.4257123100       31.6389878136       10.4114900347
H         17.6151815607       27.9501517315       11.7419979274
H         21.1292505558       32.6921387456       18.1959992455
H         21.6615911845       31.3797772920       17.1502115296
H         19.1137628926       30.9356688682        8.0482844492
H         17.3013474273       27.2536844144        9.3795472868
H         22.3722101566       33.0561938220       15.4197140434
H         18.0415544344       28.7464195648        7.5281151894
H         20.7251600773       34.8910592694       15.9215505893
H         21.4998159241       35.1669748744       17.4931946808
H         22.3859037820       35.5011635654       15.9906879479
H         24.3038467450       33.9797466853       16.6756011941
H         23.4998349658       33.6249704597       18.2184738266
H         23.9976075198       32.2988654715       17.1462031829
H         16.7711350766       33.7757980048       16.5557715836
H         17.2983011026       29.4702718237       16.2360025609
H         14.8270508090       33.6515217986       14.9726494252
H         14.3474616472       29.6008184537       12.5311297894
H         13.1509144216       29.2937442845       13.8458542572
    83
VM2 Rank=12     G=225.640           E=128.631           -TS=97.010              
C         22.4795056448       24.5804467293        5.7705030691
C         23.2600689151       24.3031919108        6.9033036619
C         21.4516161242       25.5442614562        5.8226420458
C         23.0214922653       24.9856461735        8.1050540990
C         21.2229158004       26.2241727598        7.0392117810
C         20.6259568653       25.8231117899        4.5887345451
C         21.9988753639       25.9479797415        8.1816247126
C         19.5329760356       26.8848856981        4.6396434771
O         20.8165605386       25.2161374643        3.5469687322
N         21.7561857421       26.6416578031        9.3994432928
C         21.5788418794       28.0888774361        9.4317831712
C         21.6845409802       26.0813049507       10.6606631646
C         21.3653432959       28.3962187130       10.9244091026
O         21.4712027577       27.0911734854       11.5508290405
O         21.7886651440       24.9026245708       10.9532047195
C         20.0104782307       29.0787052345       11.1975280728
N         19.1742390154       28.4139132779       12.0681158674
O         19.6729102586       30.1113859592       10.6447015598
C         17.7173812409       28.6183282384       12.1223800438
C         17.2952521582       29.3420227418       13.4328178041
C         17.0190020569       27.2483902385       11.9330185024
C         17.9036564850       30.7697017886       13.5225391121
O         15.8707011479       29.4324447031       13.5051610983
C         17.4510407986       26.5393525663       10.6545435742
N         17.9005675660       31.3684940674       14.8848383520
C         17.0039119168       27.0042732270        9.4044541096
C         18.3052881919       25.4223602969       10.7100584453
C         18.6628359574       30.6383997850       15.9341974174
S         16.4633222504       32.1465253977       15.3814892631
C         17.3998989254       26.3562720119        8.2226285101
C         18.7025381157       24.7738478210        9.5288322312
C         20.1289599761       30.2989085644       15.5572077245
O         16.1745345740       33.1124805016       14.3148780651
C         16.9819355683       33.1311330224       16.8063024490
O         15.5131264201       31.0900583997       15.7532682031
C         18.2471393360       25.2383056944        8.2849174383
C         20.9462220526       31.5752618038       15.2530228379
C         20.7993698947       29.5082447650       16.7001344914
C         16.5611980416       32.7735293273       18.1129910139
C         17.8326918249       34.2441446789       16.6148887599
C         16.9802594551       33.5204779001       19.2337938533
C         18.2328561485       34.9657950678       17.7440725854
C         17.8208823232       34.6166197401       19.0108964029
O         19.0440572150       36.0575346423       17.8013766684
O         18.3521715496       35.4726768195       19.9266783835
C         19.1638239519       36.4397210351       19.2012485444
H         22.6763081850       24.0425604821        4.8461932462
H         24.0508390250       23.5588438673        6.8492070724
H         23.6341899795       24.7647780071        8.9754805568
H         20.4309536839       26.9622636716        7.1097616628
H         19.0532996540       26.9760279174        3.6581025353
H         18.7742506755       26.6058893704        5.3784270887
H         19.9640119271       27.8545930644        4.9130095300
H         20.7036367677       28.3867806316        8.8401164390
H         22.4755071892       28.5942427099        9.0514079467
H         22.1551385876       29.0599779113       11.2970123270
H         19.5513882610       27.5597547447       12.4598530663
H         17.4167245176       29.2600787997       11.2820478339
H         17.6687702814       28.7356665413       14.2676882469
H         17.2180923254       26.6150874669       12.8066508658
H         15.9314310982       27.3926574363       11.9088842523
H         18.9357743423       30.7410312608       13.1585830048
H         17.3675710795       31.4214018964       12.8197897886
H         15.6431783121       29.8206992496       14.3834530895
H         16.3469009142       27.8682718647        9.3501146099
H         18.6641197337       25.0558513236       11.6681472408
H         18.7002963182       31.2354034231       16.8538089927
H         18.1349952372       29.7104403481       16.1917881625
H         17.0450856078       26.7182121487        7.2612328475
H         19.3645807590       23.9126425772        9.5784679700
H         20.1374722217       29.6539836465       14.6681445700
H         18.5517116783       24.7326393271        7.3721821532
H         20.5208200859       32.1292488313       14.4069563079
H         20.9656514627       32.2476138792       16.1203583326
H         21.9829146480       31.3234970888       14.9958430569
H         21.8281930843       29.2332773872       16.4342737202
H         20.8352027996       30.0991203017       17.6246023545
H         20.2509375186       28.5809411585       16.9101520730
H         15.9113550278       31.9132062262       18.2573710874
H         18.1734535190       34.5312411351       15.6237508584
H         16.6654587682       33.2554797848       20.2393092049
H         20.2103963454       36.3766789126       19.5245415878
H         18.7741204003       37.4540016899       19.3534643316
    83
VM2 Rank=13     G=225.642           E=129.206           -TS=96.436              
C         21.7953780928       24.8399072558        4.7572581152
C         21.8053120387       26.1953627695        5.1214991189
C         21.6499897368       23.8355406714        5.7383772592
C         21.6685866707       26.5652471400        6.4674368179
C         21.5123701054       24.2236065212        7.0878608011
C         21.6399580335       22.3684718234        5.3786086798
C         21.5150389696       25.5812746982        7.4608145705
C         21.7771397724       21.9524931027        3.9183084583
O         21.5249991047       21.5055185333        6.2345181383
N         21.3756592979       25.9524980749        8.8275632296
C         22.2248167655       26.9717190557        9.4326217070
C         20.4836488875       25.4158469613        9.7366085417
C         21.7437249200       27.0289730567       10.8950138560
O         20.7093189948       26.0126624584       10.9405399585
O         19.6394178650       24.5617442650        9.5273048001
C         21.2121730157       28.4173703988       11.3065805494
N         20.0782325696       28.4078131978       12.0899267430
O         21.7233854796       29.4594840825       10.9312302998
C         19.1653540522       29.5510516526       12.2294663181
C         18.8419567342       29.7960460794       13.7301555778
C         17.9063408181       29.3333860238       11.3481178455
C         17.9927738362       31.0781083173       13.9430123223
O         18.1734701960       28.6570062419       14.2823241925
C         18.2391926436       29.0100920069        9.8959219508
N         17.9702993454       31.5913041815       15.3400162391
C         18.8115861071       29.9894117303        9.0637129535
C         17.9862465789       27.7264374016        9.3773520245
C         19.2782012753       31.9900436009       15.9269654693
S         16.8408617793       30.8788952007       16.4061284331
C         19.1253480133       29.6900410791        7.7274238793
C         18.2958275577       27.4270249069        8.0402895575
C         20.0784680803       33.0187570205       15.0869626033
O         15.5552576868       30.9738471929       15.7044052561
C         16.7408838335       32.0608815851       17.7703933548
O         17.4045016031       29.5894770184       16.8263954204
C         18.8633208399       28.4097490441        7.2142502630
C         19.2796345362       34.3267419646       14.8847933028
C         21.4248565600       33.3288507639       15.7742399141
C         17.2698529973       31.7284464798       19.0439603465
C         16.1580464891       33.3307627996       17.5539125114
C         17.2197685403       32.6532785672       20.1078817628
C         16.1228728467       34.2277813906       18.6263185288
C         16.6359034808       33.9008419515       19.8617944583
O         15.6215070025       35.4932144008       18.6490657775
O         16.4810164350       34.9446001847       20.7222177337
C         15.8244998112       36.0193871467       19.9914503587
H         21.9036386671       24.5836923441        3.7075278684
H         21.9187277970       26.9613168518        4.3580878380
H         21.6730255818       27.6191121245        6.7311907902
H         21.4038753764       23.4595080694        7.8534452100
H         20.9557252391       22.3761188929        3.3295235563
H         22.7314587544       22.3096994985        3.5151924698
H         21.7449381972       20.8598756718        3.8350249978
H         22.0844943222       27.9373236142        8.9302429176
H         23.2794071150       26.6737742467        9.3781231727
H         22.5595580698       26.7674649581       11.5798057986
H         19.7308331468       27.4971201570       12.3656127869
H         19.6781298961       30.4497774803       11.8594065943
H         19.8079229192       29.9294456267       14.2339214914
H         17.2994883550       28.5267926749       11.7788978668
H         17.2768179942       30.2304964231       11.3753929765
H         18.3802289372       31.8608333017       13.2800665273
H         16.9672050181       30.8808022009       13.6043344539
H         18.0681870942       28.8147449828       15.2502478397
H         19.0187775029       30.9817169116        9.4549583178
H         17.5529197135       26.9572951598       10.0113432865
H         19.1238686279       32.4389621587       16.9159916456
H         19.8969101030       31.0974554626       16.0898032043
H         19.5689636729       30.4507827333        7.0901340044
H         18.0998030958       26.4325203961        7.6466972551
H         20.3067619014       32.5877928453       14.1026524332
H         19.1018368261       28.1782985941        6.1791904554
H         19.0318233702       34.7911294594       15.8479893537
H         19.8583593654       35.0514575153       14.2980667965
H         18.3405614996       34.1417855309       14.3484916957
H         22.0166942398       34.0328094986       15.1750897932
H         21.2718935816       33.7741465628       16.7659132768
H         22.0210079891       32.4157786915       15.8996990102
H         17.7228500713       30.7527362912       19.2054984817
H         15.7539122619       33.6092925948       16.5843912591
H         17.6226905054       32.4104208621       21.0871989149
H         16.4693532782       36.9064627717       19.9587843472
H         14.8600333051       36.2612015502       20.4552742094
    83
VM2 Rank=14     G=225.649           E=128.976           -TS=96.672              
C         22.4629276270       24.5070521805        5.7977054659
C         23.0385308807       23.9899337738        6.9694968638
C         21.6500889192       25.6601301575        5.8474715629
C         22.8070505289       24.6141550064        8.2044840328
C         21.4370233866       26.2828425254        7.0944731616
C         20.9981539197       26.2311317989        4.6107023252
C         22.0016569080       25.7640778400        8.2740446286
C         21.2634171512       25.5844377837        3.2560336709
O         20.2581806914       27.2000204562        4.6740657230
N         21.7552065787       26.3965406102        9.5222971495
C         21.9202738136       27.8346358865        9.6943897143
C         21.3488615788       25.7748706385       10.6869066365
C         21.5172002348       28.0722953294       11.1602754920
O         21.2264675094       26.7355201862       11.6464485533
O         21.1338229546       24.5867729257       10.8540284362
C         20.3145620861       29.0278580236       11.2886824300
N         19.2076975717       28.5131017425       11.9286698206
O         20.3163590224       30.1499726002       10.8122690144
C         17.8465785237       29.0512926430       11.7689250087
C         17.3706860533       29.7875147429       13.0541879731
C         16.9019098590       27.8960758178       11.3518197403
C         18.2549316488       31.0258739050       13.3721282893
O         16.0124193265       30.2058082854       12.9025965617
C         17.3954592879       27.1360219552       10.1255866483
N         18.1385122772       31.5400700031       14.7638275800
C         17.3878244643       27.7513459183        8.8601828697
C         17.8681703813       25.8161224668       10.2481082994
C         18.5131862929       30.5987487929       15.8541998334
S         16.8456192026       32.6094440861       15.0845020788
C         17.8395649272       27.0524716390        7.7280634018
C         18.3175022577       25.1155765567        9.1164877667
C         19.9053903173       29.9333137143       15.6924757485
O         16.9763855518       33.6674049896       14.0756735249
C         17.3009749391       33.3717586770       16.6594418563
O         15.6332801359       31.7882315115       15.1987913463
C         18.2979650520       25.7317155518        7.8555520280
C         21.0351524463       30.9870577157       15.6406207365
C         20.1597096940       28.9503216009       16.8543578476
C         18.3887901395       34.2802012415       16.7167787614
C         16.5896833295       33.0419622547       17.8362982976
C         18.7739597002       34.8673729505       17.9399469949
C         16.9932677581       33.6396750095       19.0348663909
C         18.0492434023       34.5223172696       19.0859200972
O         16.4652611767       33.4715379043       20.2783337044
O         18.2360051181       34.9529387473       20.3639857546
C         17.2320853741       34.3034745845       21.1948961782
H         22.6528341088       23.9983803597        4.8572017583
H         23.6616219421       23.1001370441        6.9207363654
H         23.2536653176       24.2021727270        9.1059935395
H         20.8077711123       27.1670098545        7.1467619273
H         22.3372429438       25.5988918794        3.0380136846
H         20.9102791000       24.5471145289        3.2607801695
H         20.7352074473       26.1344066177        2.4684343211
H         21.2647236983       28.3872472090        9.0089371383
H         22.9651044859       28.1229386100        9.5234490857
H         22.3514756964       28.5080283304       11.7235510997
H         19.3094754015       27.5661939309       12.2727837763
H         17.8496203639       29.7861401398       10.9514297608
H         17.4445478709       29.0687315426       13.8800922482
H         16.7744839976       27.2101144233       12.1986746717
H         15.9036059806       28.2999493022       11.1408449669
H         19.3030797740       30.7729685640       13.1836520474
H         18.0149720348       31.8195340734       12.6520775044
H         15.7238730010       30.5924045734       13.7634966772
H         17.0307287223       28.7722941668        8.7548290648
H         17.8884294508       25.3306170831       11.2201035512
H         18.5214167688       31.1250599080       16.8167008785
H         17.7492471715       29.8143238115       15.9391731021
H         17.8339073098       27.5327535245        6.7524034627
H         18.6842161996       24.0970619000        9.2183481358
H         19.9250869176       29.3486015876       14.7628603067
H         18.6457987421       25.1899474768        6.9795922577
H         21.0528791175       31.5919612891       16.5562797669
H         22.0149988549       30.5045999627       15.5338831305
H         20.9072331081       31.6677750991       14.7897737462
H         21.1284110369       28.4478461881       16.7364332382
H         20.1636532068       29.4701109633       17.8212413596
H         19.3843831919       28.1741276833       16.8885771651
H         18.9366275003       34.5245528922       15.8092307423
H         15.7567804367       32.3442714638       17.8194777011
H         19.6065407196       35.5630976165       17.9955418306
H         16.5819950501       35.0535409614       21.6624386595
H         17.7149721291       33.6820756663       21.9594165791
    83
VM2 Rank=15     G=225.681           E=128.326           -TS=97.354              
C         19.9866201644       24.1624962223        6.0798940139
C         20.0139576842       23.3116447262        7.1956803271
C         20.2777873793       25.5355756125        6.2142798287
C         20.3310421900       23.8236720844        8.4623424307
C         20.5961617886       26.0369463580        7.4954093832
C         20.2409033510       26.4305071131        4.9977601260
C         20.6206551545       25.1906366186        8.6209100988
C         20.5915468039       27.9077767495        5.1398230918
O         19.9380902871       25.9947801287        3.8984621028
N         20.9413004023       25.7127815797        9.9046944459
C         22.0817930032       26.5988300740       10.1067578264
C         20.2741544904       25.4512072919       11.0863627802
C         21.9877833272       26.9770732949       11.5971575867
O         20.9163157915       26.1264914418       12.0807461834
O         19.2940769577       24.7428975566       11.2406551522
C         21.6772172982       28.4721553412       11.8215534036
N         20.8006093441       28.7453608778       12.8491008400
O         22.1372398149       29.3575434082       11.1195613466
C         20.0785133816       30.0153980957       13.0056241250
C         20.2181897986       30.5232403875       14.4688554912
C         18.6053016007       29.8464824519       12.5426410183
C         19.6075632981       31.9378272351       14.6587635482
O         19.6211813608       29.5837425943       15.3676863958
C         18.4721934493       29.2505437416       11.1460239958
N         19.8440923735       32.5532988234       15.9957327028
C         18.8606471711       29.9934669513       10.0162337436
C         17.9543394429       27.9535107626       10.9738082060
C         21.2599179035       32.7829661723       16.3808938305
S         18.8074352645       32.1483496224       17.2965394983
C         18.7264769793       29.4489016783        8.7280041558
C         17.8174051827       27.4087602725        9.6863730495
C         22.0953373209       33.5944961592       15.3559993563
O         19.3013411358       30.8745198379       17.8356018642
C         17.1798176971       31.9411955413       16.5309880438
O         18.7341572600       33.3708701413       18.1054972693
C         18.1986521547       28.1583143544        8.5627156759
C         21.4831322752       34.9908894007       15.1017303832
C         23.5473880389       33.7428193728       15.8570075373
C         16.4446057095       33.0814180168       16.1161019555
C         16.6604137355       30.6448220527       16.3058358479
C         15.1970856440       32.9409569371       15.4731122161
C         15.4238746902       30.5352862469       15.6621685940
C         14.7157050523       31.6449835472       15.2585608434
O         14.7466541196       29.4025885588       15.3284356525
O         13.5573875468       31.2642744060       14.6527665887
C         13.5209351803       29.8087001586       14.6561474430
H         19.7382580147       23.7506725587        5.1046400563
H         19.7891573303       22.2543173232        7.0781090205
H         20.3514004300       23.1549781138        9.3192364676
H         20.8125593878       27.0916320527        7.6279704555
H         19.8844256442       28.3985481333        5.8172282460
H         21.6067717430       28.0157098627        5.5380122286
H         20.5423745550       28.3999589246        4.1614779801
H         22.0122884521       27.4837536148        9.4621884027
H         23.0168320923       26.0631855571        9.9001368844
H         22.9246909010       26.7488020869       12.1196055819
H         20.4759540025       27.9525047684       13.3894545988
H         20.5490481589       30.7651834255       12.3544919137
H         21.2944632511       30.5865467043       14.6780755527
H         18.0685871676       29.2189114641       13.2657097894
H         18.0986363733       30.8180565663       12.5552884263
H         20.0312776571       32.5898788531       13.8856558406
H         18.5359075905       31.8964165419       14.4403947395
H         19.8133795146       29.8818464653       16.2869441482
H         19.2676724787       30.9936222483       10.1373128268
H         17.6576773393       27.3649940401       11.8380862685
H         21.2859152856       33.3293540232       17.3341270620
H         21.7519621976       31.8180866350       16.5632799260
H         19.0260069419       30.0299369850        7.8596319497
H         17.4171804384       26.4055327001        9.5610099801
H         22.1344136046       33.0480329124       14.4039830116
H         18.0858212908       27.7378208534        7.5669707479
H         22.0870545448       35.5578879140       14.3819064593
H         20.4677774503       34.9130322282       14.6936503689
H         21.4282888625       35.5721644706       16.0311305716
H         24.1595761596       34.2875906831       15.1267714723
H         23.5856321175       34.2914814518       16.8070501820
H         24.0110157710       32.7602107959       16.0130697612
H         16.8500838123       34.0766801071       16.2848798610
H         17.2041452424       29.7537036636       16.6067087733
H         14.6287887149       33.8074356429       15.1466465907
H         13.5079920734       29.4268457005       13.6276155865
H         12.6450005101       29.4504687559       15.2112857243
    83
VM2 Rank=16     G=225.698           E=126.371           -TS=99.328              
C         18.8862525981       24.7878174869        6.4961270151
C         17.5864319849       24.9606656217        6.9981621994
C         20.0031209017       25.2481144288        7.2263833801
C         17.3850976065       25.5983012200        8.2315057322
C         19.7847530799       25.8763128080        8.4698052131
C         21.4132270755       25.0971231155        6.7069840329
C         18.4844459795       26.0640531023        8.9737957453
C         21.6518142161       24.3860172657        5.3799139020
O         22.3682060597       25.5372034208        7.3270606868
N         18.2878177796       26.7173127287       10.2208720462
C         19.0727529279       26.3642089425       11.3975793154
C         17.3726577170       27.7180175579       10.4859214899
C         18.5070892952       27.2783931484       12.4963006774
O         17.4984163850       28.0550797379       11.8004454903
O         16.5876490432       28.2287667494        9.7062555186
C         19.5938294675       28.1565601615       13.1424380937
N         19.6214030186       29.4711169729       12.7341469162
O         20.4254571761       27.7155994915       13.9160953682
C         20.8308592991       30.3110242262       12.7562685901
C         20.9715018522       31.1107677227       14.0847593292
C         20.8440248653       31.2215556921       11.5044809073
C         19.7673434162       32.0570224746       14.3489384939
O         21.1436836009       30.1953807699       15.1639238867
C         20.7403418752       30.4284664253       10.2073231506
N         19.7371972064       32.6954189873       15.6940275612
C         19.5248655700       30.3816857386        9.4987325725
C         21.8547880401       29.7258826653        9.7138488315
C         20.8993934746       33.5479782288       16.0469680609
S         18.9958361442       31.8986246702       17.0214700077
C         19.4279512823       29.6494934048        8.3041440613
C         21.7588494167       28.9933624387        8.5187007479
C         21.2142966070       34.6795387952       15.0333662320
O         20.0634004130       31.3918722995       17.8930580369
C         18.0768511149       30.4876624385       16.3453621662
O         18.0039264323       32.8669691013       17.5046976373
C         20.5471455390       28.9613092384        7.8102561476
C         20.0126612968       35.6356652874       14.8568486801
C         22.4532572011       35.4747202832       15.4960315625
C         18.5362564591       29.1620698808       16.5591073711
C         16.8895756870       30.7109448141       15.6086135378
C         17.8364739709       28.0593627624       16.0277988092
C         16.2254846140       29.6001207128       15.0786741909
C         16.6819504263       28.3175266271       15.2821599359
O         15.1037358653       29.5786852736       14.3082815269
O         15.8709092306       27.4265699435       14.6484472884
C         14.8440167877       28.1906551372       13.9549178538
H         19.0111722704       24.2977897696        5.5350861406
H         16.7326297544       24.6033594557        6.4274567086
H         16.3736209357       25.7294349685        8.6077358902
H         20.6364661397       26.2415282542        9.0368781129
H         21.2633434928       23.3625049153        5.4283292021
H         21.1475676963       24.9253354750        4.5701974399
H         22.7258242878       24.3467761247        5.1637001100
H         20.1381963362       26.5672273305       11.2278922005
H         18.9300526213       25.3066385326       11.6532636745
H         18.0453899739       26.6751327758       13.2871440073
H         18.8758093374       29.7386648151       12.1040873342
H         21.7066375641       29.6498124166       12.6822144809
H         21.8756842746       31.7296826137       14.0119647775
H         20.0219459620       31.9453160081       11.5548628935
H         21.7684934928       31.8130811954       11.4975442510
H         19.7927807126       32.8479390209       13.5916648537
H         18.8372406591       31.5166782935       14.1550929748
H         20.8524870060       29.3142715175       14.8266344324
H         18.6531540143       30.9130539556        9.8712275434
H         22.7959019606       29.7479119809       10.2567312649
H         20.7133151855       34.0178234945       17.0227680272
H         21.7879137537       32.9134198132       16.1705086531
H         18.4854528476       29.6143294745        7.7630796533
H         22.6217251505       28.4491365545        8.1419303905
H         21.4574278595       34.2365061117       14.0583769632
H         20.4729281549       28.3943617447        6.8857291881
H         20.2494923907       36.4346168666       14.1427817015
H         19.1317959495       35.1025447680       14.4779589399
H         19.7377361067       36.1032596624       15.8109810203
H         22.7086625054       36.2583587664       14.7711709697
H         22.2764028920       35.9558606657       16.4667248250
H         23.3260170128       34.8167395299       15.5970326969
H         19.4465803603       28.9892542387       17.1288712648
H         16.5134310139       31.7154885030       15.4350364236
H         18.1896222534       27.0428437887       16.1765735490
H         13.8454109220       27.8882712110       14.2940580014
H         14.9413791098       28.0544424341       12.8703895955
    83
VM2 Rank=17     G=225.710           E=128.505           -TS=97.204              
C         20.5918461946       25.2649078568        5.7566450833
C         21.9334066596       25.4209125184        6.1410367195
C         19.5592386083       25.8869663290        6.4911992753
C         22.2602916097       26.1954295823        7.2642974599
C         19.9050975440       26.6721506434        7.6101258070
C         18.1047361833       25.7230670408        6.1193984336
C         21.2461374611       26.8239103103        8.0074083674
C         17.7328642912       24.9093148266        4.8852133733
O         17.2181455415       26.2267502424        6.7906371556
N         21.5682401437       27.6017233013        9.1519128825
C         21.0276931351       28.9424563528        9.3395623658
C         22.3929426602       27.2210298026       10.1925030044
C         21.6002382718       29.3760767329       10.7002597962
O         22.4296741118       28.2490537365       11.0872103974
O         22.9916282400       26.1661577256       10.3130523991
C         20.4925995225       29.6838712754       11.7268344309
N         20.4856450522       28.8941881487       12.8565836947
O         19.6388604984       30.5323503353       11.5331598940
C         19.2933981181       28.6849457607       13.6940303367
C         19.3760996774       29.4776724991       15.0299994691
C         19.0980815075       27.1638886969       13.9128521731
C         19.5045541236       31.0065618717       14.7846576631
O         18.2105174840       29.2152448575       15.8133762310
C         19.0416308224       26.3789092101       12.6071683293
N         19.7844072100       31.8211025014       16.0011343543
C         17.9319226621       26.5070749035       11.7515563260
C         20.0988231861       25.5244422084       12.2429371707
C         21.0443425238       31.5160340152       16.7266070348
S         18.4827304848       32.3063346707       16.9982979737
C         17.8754049201       25.7830764871       10.5487425289
C         20.0421503339       24.7982329280       11.0418426880
C         22.3243032275       31.5102462125       15.8487938985
O         18.1468706458       31.1479504757       17.8365816492
C         17.1454596827       32.6887550180       15.8407033765
O         18.9119528622       33.5894086123       17.5676099878
C         18.9281993357       24.9234619819       10.1972136079
C         22.5482205659       32.8753050342       15.1589316877
C         23.5538544697       31.1506301034       16.7090903658
C         17.2005586208       33.8758130506       15.0658248522
C         16.0608074999       31.7938188265       15.6881963514
C         16.1830032276       34.1793848870       14.1375411136
C         15.0671264505       32.1194005296       14.7593916718
C         15.1254436537       33.2725806821       14.0090243806
O         13.9471479225       31.4131269837       14.4428396790
O         14.0446672605       33.3479980506       13.1843998993
C         13.2360357921       32.1592821805       13.4146146600
H         20.3680077136       24.6529283269        4.8878934074
H         22.7212516836       24.9359438388        5.5696713523
H         23.3018328425       26.3049632162        7.5560238095
H         19.1189194507       27.1500771793        8.1879896404
H         16.6450981449       24.9110980968        4.7490323237
H         18.2013085782       25.3439239722        3.9949808929
H         18.0728641245       23.8742590640        5.0028029205
H         19.9303756234       28.9213872546        9.3605977711
H         21.3717694507       29.6092885514        8.5389602775
H         22.2134472344       30.2787951860       10.5896886107
H         21.2334439186       28.2137735387       12.9130207458
H         18.4128620699       29.0543552338       13.1492629595
H         20.2682109273       29.1268556867       15.5651795240
H         19.9049732087       26.7835186963       14.5517393611
H         18.1685433027       26.9920345997       14.4702604873
H         20.3159986137       31.1733844673       14.0686441142
H         18.6013154384       31.3536350819       14.2694875341
H         18.3304035789       29.6560362800       16.6871612325
H         17.1124128473       27.1683055348       12.0202282579
H         20.9661535594       25.4213095035       12.8894553226
H         21.1901575629       32.2632885500       17.5191036678
H         20.9503933843       30.5445036463       17.2301600535
H         17.0170305642       25.8873244306        9.8891718200
H         20.8637144407       24.1422573072       10.7644649193
H         22.2321278785       30.7356638613       15.0752419252
H         18.8847180727       24.3623854418        9.2671231773
H         22.6497025108       33.6789201141       15.8995447046
H         23.4593856393       32.8599527464       14.5475288602
H         21.7103641799       33.1308662495       14.4984350142
H         23.7137073020       31.8919518755       17.5027719259
H         23.4281309311       30.1680787389       17.1819161440
H         24.4628080595       31.1107595474       16.0951052605
H         18.0394284214       34.5585830556       15.1822405603
H         15.9966263950       30.8746560010       16.2640023176
H         16.2171175092       35.0842777283       13.5372850325
H         13.1638029194       31.5648564584       12.4952383854
H         12.2372298238       32.4411120825       13.7706274729
    83
VM2 Rank=18     G=225.730           E=128.777           -TS=96.953              
C         20.3725968339       24.9010198195        5.9730283527
C         20.5549765424       23.8411583506        6.8760322609
C         20.4842742171       26.2398613367        6.4069256314
C         20.8479473178       24.1040312217        8.2226075094
C         20.7896343690       26.4874560691        7.7612375631
C         20.2729945524       27.4030004883        5.4669986287
C         20.9655613402       25.4301962256        8.6722913307
C         19.9620451157       27.1343419150        3.9990607666
O         20.3419770369       28.5568120913        5.8593419187
N         21.2504249866       25.7038913575       10.0360712714
C         22.3388109291       26.5917435827       10.4266643842
C         20.5718651686       25.1992230279       11.1277823167
C         22.1719096655       26.7106929459       11.9516023730
O         21.1429915850       25.7290604285       12.2467674175
O         19.6358789252       24.4185999905       11.1203234138
C         21.7653690499       28.1389089127       12.3672110481
N         20.4894908954       28.2798692679       12.8642851172
O         22.4970230434       29.1014943753       12.2077979449
C         19.7785041868       29.5620766401       12.9380000424
C         19.9863615640       30.2211525638       14.3309264488
C         18.2892240277       29.3536614338       12.5585022985
C         19.4801292115       31.6876512313       14.3558687075
O         19.3429171554       29.4470811550       15.3471139570
C         18.1217942374       28.6991933705       11.1926681324
N         19.8574299543       32.4613458482       15.5728170472
C         18.3470361325       29.4420214373       10.0191775057
C         17.7519824774       27.3451131738       11.0924275433
C         21.3111647181       32.6330640505       15.8267191771
S         18.9033409160       32.3035264939       16.9846914353
C         18.1967800422       28.8400728125        8.7585694284
C         17.6012096795       26.7424599381        9.8326138253
C         22.1256465429       33.2033161681       14.6354589339
O         19.3311487431       31.0597348388       17.6384184943
C         17.2063517317       32.1679445991       16.3694642472
O         18.9999551995       33.6115088276       17.6437204019
C         17.8180603594       27.4913518484        8.6654290508
C         21.6016958917       34.5910716126       14.2006523300
C         23.6179886407       33.3028986857       15.0153858367
C         16.5448429004       33.3167839977       15.8642686923
C         16.5533346623       30.9132234712       16.3571857988
C         15.2374014984       33.2258057429       15.3430064679
C         15.2588767709       30.8518594135       15.8316080411
C         14.6218259062       31.9694831683       15.3406029305
O         14.4521151687       29.7624729543       15.7071603376
O         13.3826979128       31.6376323093       14.8844265488
C         13.2114121946       30.2061308069       15.0880870904
H         20.1395880095       24.6673740157        4.9384235944
H         20.4641934226       22.8136599093        6.5320347236
H         20.9814156239       23.2767946661        8.9152817456
H         20.8663731440       27.5132466128        8.1117242835
H         20.7767024566       26.5610095915        3.5425083582
H         19.0285782947       26.5670594905        3.9118232914
H         19.8514606916       28.0824538751        3.4599474877
H         22.2490972532       27.5697934142        9.9365317673
H         23.3053176478       26.1373839960       10.1748883108
H         23.1064412307       26.4633916823       12.4697921996
H         19.9601402618       27.4280339184       12.9972127061
H         20.2189594768       30.2328267258       12.1866000678
H         21.0693690544       30.2304811339       14.5129327717
H         17.7959919910       28.7464591238       13.3285201465
H         17.7663800756       30.3168776923       12.5562209876
H         19.8843587657       32.1959394979       13.4723684753
H         18.3941448027       31.6915404186       14.2159668436
H         19.6069594085       29.8206408143       16.2198277549
H         18.6401501538       30.4863124878       10.0842637058
H         17.5836735439       26.7566412430       11.9904478208
H         21.4463709242       33.3165433627       16.6766380259
H         21.7460847269       31.6714210594       16.1308624949
H         18.3768942927       29.4167571908        7.8543553097
H         17.3213251207       25.6941992482        9.7621195315
H         22.0541243418       32.5150099229       13.7821067465
H         17.7040276324       27.0244002619        7.6905136920
H         22.1892899341       34.9860135186       13.3621372752
H         20.5550065909       34.5390093697       13.8763700521
H         21.6622223912       35.3113923268       15.0265604467
H         24.2124062695       33.6759538149       14.1714207328
H         23.7677854722       33.9845441860       15.8627076264
H         24.0178302045       32.3195763410       15.2948496870
H         17.0526142030       34.2788616797       15.8698212530
H         17.0380525557       30.0158007411       16.7314128084
H         14.7236301755       34.0986705827       14.9499734874
H         13.0653182229       29.7002416473       14.1255045353
H         12.3625644119       30.0151670638       15.7564936618
    83
VM2 Rank=19     G=225.732           E=128.859           -TS=96.873              
C         22.2153821347       24.0093384424        5.9404368662
C         22.0465174613       23.1391118698        7.0283361054
C         22.0286400645       25.3985287925        6.0937823555
C         21.6865809759       23.6471585332        8.2849644595
C         21.6657656607       25.8961987720        7.3647619745
C         22.2178528335       26.3128377423        4.9063114346
C         21.4905106454       25.0286264959        8.4602185187
C         22.0579459482       27.8185430565        5.0839679139
O         22.5002890082       25.8713270898        3.8039003852
N         21.1253037803       25.5450674336        9.7340773249
C         21.7965758550       26.7049139880       10.3097725094
C         20.1550896724       25.0355264691       10.5758312143
C         21.0956015493       26.8946859066       11.6664215331
O         20.1412789874       25.8014986375       11.7031177311
O         19.4282992147       24.0782925960       10.3730002248
C         20.4238707567       28.2766226110       11.7903426312
N         19.0538255736       28.2623467942       11.9383985795
O         21.0496303950       29.3193673960       11.7050706974
C         18.1838284355       29.4004235807       11.6026161836
C         17.6761842823       30.1327074599       12.8761541598
C         17.0294257937       28.8990214976       10.7007832628
C         18.8527622553       30.6409324670       13.7524188588
O         16.8545467171       31.2434114175       12.5093415913
C         17.5326037920       28.2165409580        9.4343518532
N         18.4694174314       31.4999638918       14.9102563112
C         18.0475151445       28.9871681353        8.3762349246
C         17.4969483514       26.8148855345        9.3136938365
C         19.6294474923       32.1450471805       15.5875436545
S         17.2409929581       30.8650025243       15.9268107670
C         18.5162674181       28.3651435491        7.2072150445
C         17.9677403125       26.1914628885        8.1459807206
C         20.5373174186       33.0141256711       14.6759662446
O         15.9898759370       31.1736237260       15.2221875858
C         17.2593687510       31.8835849984       17.4238253515
O         17.6465159362       29.4945146508       16.2599953322
C         18.4748041329       26.9664569430        7.0910217541
C         19.7256530910       34.0960432946       13.9268136685
C         21.6440411041       33.6823302411       15.5194312223
C         17.9106381276       31.4199352312       18.5962313299
C         16.6396183306       33.1549819038       17.4142704735
C         17.9489039285       32.2140155098       19.7613607048
C         16.6933900679       33.9204583531       18.5835842341
C         17.3263877879       33.4662387911       19.7190034145
O         16.1772130493       35.1610941669       18.8017499756
O         17.2382847058       34.3987815094       20.7070765507
C         16.4983467302       35.5331112990       20.1723685303
H         22.4945520546       23.6002314696        4.9724021172
H         22.1954422790       22.0700522771        6.8970846076
H         21.5612174288       22.9641775931        9.1214174473
H         21.5027701809       26.9593285354        7.5071045574
H         21.0360534569       28.0514202424        5.4010218372
H         22.7625634211       28.1842615945        5.8393624131
H         22.2591189469       28.3311231522        4.1360237052
H         21.6642805015       27.5883799910        9.6719932978
H         22.8660324486       26.5005668619       10.4461457129
H         21.8157601083       26.7977645052       12.4880824847
H         18.6352734310       27.3422625448       11.9969159483
H         18.7660826689       30.1271322506       11.0181112167
H         17.0849885367       29.4126391607       13.4583578069
H         16.3877551851       28.2176585618       11.2735283451
H         16.3914144286       29.7465857139       10.4197840252
H         19.4125185659       29.7717590479       14.1219790542
H         19.5199853598       31.1860892168       13.0765549875
H         16.4210290663       31.5421742901       13.3433308695
H         18.0820896430       30.0701923542        8.4603873554
H         17.1065444045       26.2062132371       10.1249480190
H         19.2787683191       32.8154969135       16.3801345612
H         20.2446576010       31.3731452981       16.0703453539
H         18.9061169554       28.9684085720        6.3916132921
H         17.9405359309       25.1077771102        8.0602269051
H         21.0391687776       32.3730623290       13.9386080370
H         18.8350292655       26.4830119648        6.1864814326
H         19.2050744162       34.7576299427       14.6308694120
H         20.3819927045       34.7143040221       13.3013750883
H         18.9725671037       33.6440936200       13.2684729965
H         22.3183843601       34.2705597784       14.8837922538
H         21.2176206964       34.3559605813       16.2740734758
H         22.2497016538       32.9288924205       16.0393585224
H         18.3903977821       30.4437027911       18.6008661845
H         16.1396694184       33.5346175798       16.5272381325
H         18.4461215425       31.8695659252       20.6638723656
H         17.1229234747       36.4350776383       20.1853875750
H         15.5785299859       35.6932112838       20.7486624802
    83
VM2 Rank=20     G=225.745           E=126.118           -TS=99.627              
C         18.8512287699       24.5200767552        6.5739945186
C         17.6088919739       24.5370142175        7.2280148992
C         19.9697472120       25.1648587360        7.1446536103
C         17.4664493984       25.2008709253        8.4557319123
C         19.8131535804       25.8172828673        8.3848711366
C         21.3153762820       25.1839358816        6.4592033018
C         18.5683575871       25.8494718249        9.0403150506
C         21.4944208646       24.4465876218        5.1370947124
O         22.2641495899       25.7822951213        6.9408675668
N         18.4301577802       26.5304814022       10.2805305203
C         19.3970123871       26.3549296113       11.3575174160
C         17.4159692153       27.4022830616       10.6281350985
C         18.8293145310       27.2176760789       12.4959424012
O         17.6499315060       27.8202121975       11.9039713847
O         16.4748403776       27.7557599814        9.9393953681
C         19.8421838602       28.2600096464       13.0026325520
N         19.6301448924       29.5538694894       12.5828143181
O         20.8144371702       27.9637995018       13.6747163523
C         20.7070996692       30.5458748208       12.4273068633
C         20.9043010220       31.4114929477       13.7062523269
C         20.4420024082       31.3949888639       11.1605881207
C         19.6396052699       32.2356844398       14.0793899425
O         21.3027455103       30.5683196293       14.7844127132
C         20.2932533795       30.5401317208        9.9077707661
N         19.6738658209       32.9028734385       15.4073188289
C         21.4257292963       29.9669598967        9.3009884211
C         19.0202872903       30.3071292494        9.3538554542
C         20.7869726717       33.8730266875       15.5512336201
S         19.1759083335       32.0564369831       16.8204983108
C         21.2888033765       29.1782634206        8.1462731867
C         18.8824528311       29.5189451778        8.1995776985
C         20.5032154876       35.0224428049       16.5525333930
O         20.3792731225       31.7257601674       17.5939227530
C         18.4027983617       30.5087067182       16.2718191184
O         18.1035021731       32.8832590716       17.3865217730
C         20.0175539599       28.9603157579        7.5916837219
C         21.7529826473       35.9152544690       16.7027044078
C         19.2973030155       35.8792329245       16.1048656533
C         19.0509040679       29.2642766401       16.4856230114
C         17.1314475479       30.5418663119       15.6514075894
C         18.4550526680       28.0566896464       16.0674186538
C         16.5715788287       29.3310225669       15.2319991768
C         17.2100073258       28.1285821054       15.4347167204
O         15.3910267982       29.1288379948       14.5857445922
O         16.4635145488       27.1110792424       14.9241027342
C         15.2780455895       27.7021313813       14.3200683287
H         18.9298297519       24.0052740069        5.6210333484
H         16.7531120448       24.0380399140        6.7796641732
H         16.4983911501       25.2098533595        8.9502990490
H         20.6655809307       26.3228925034        8.8298510857
H         21.2642879742       23.3831327821        5.2672348229
H         20.8263286162       24.8700752136        4.3787541407
H         22.5299056408       24.5445335898        4.7907372725
H         20.3875119200       26.7146625133       11.0497238943
H         19.4578953315       25.3003350525       11.6547071560
H         18.5462988167       26.5816178808       13.3432292136
H         18.7834141450       29.6943817521       12.0462379527
H         21.6483837536       30.0027319576       12.2580528710
H         21.7186327235       32.1213023969       13.5082042541
H         19.5395913086       32.0030454124       11.2960419255
H         21.2677341416       32.1045543438       11.0218441178
H         19.5257933720       33.0181227544       13.3190892524
H         18.7513858657       31.6057616294       13.9801356531
H         21.1083904919       29.6440206507       14.4964701862
H         22.4126619179       30.1334385391        9.7242562358
H         18.1353427605       30.7369425673        9.8155012289
H         21.6918145886       33.3353418845       15.8680738330
H         21.0099361426       34.3287527220       14.5772571477
H         22.1663488182       28.7346461768        7.6816862615
H         17.8962063019       29.3399204992        7.7781938186
H         20.2822535889       34.5965446475       17.5412111162
H         19.9115627071       28.3499651146        6.6983931224
H         22.0257013551       36.3808757473       15.7467744647
H         21.5763272631       36.7164165313       17.4318473910
H         22.6125887891       35.3294316940       17.0531618311
H         19.1082702641       36.6911265145       16.8184977024
H         19.4745292355       36.3272993679       15.1188830305
H         18.3832193046       35.2753202795       16.0423187424
H         20.0248160975       29.2365062197       16.9692371170
H         16.6089292645       31.4799727120       15.4850661561
H         18.9508317144       27.1018172986       16.2176507590
H         14.3693769985       27.2966793873       14.7822347053
H         15.2752018503       27.5199066639       13.2379593665
    83
VM2 Rank=21     G=225.749           E=127.913           -TS=97.837              
C         16.9598822332       23.1513224639        9.3086803397
C         16.5882026933       23.8962337624        8.1777893288
C         17.8579172613       23.6809425182       10.2590393580
C         17.1060470199       25.1854140810        7.9849798892
C         18.3757286984       24.9776137708       10.0493697933
C         18.2353947190       22.8621444442       11.4707310083
C         17.9977137072       25.7294610618        8.9232984455
C         19.2195362675       23.4321349167       12.4861296898
O         17.7695725736       21.7487969803       11.6541718514
N         18.4973156436       27.0428956015        8.7525389692
C         18.1593788368       28.1078954933        9.6849849261
C         19.3348870819       27.4714317692        7.7436619522
C         19.0389879653       29.2760419713        9.2080380339
O         19.5911108290       28.7928178828        7.9594877769
O         19.7671381903       26.8088247460        6.8160922542
C         20.1587739346       29.5994895702       10.2135015507
N         20.2485736531       30.9187237140       10.6028429288
O         20.9046716653       28.7492856574       10.6709267808
C         21.2342338641       31.4386524858       11.5678096007
C         20.8097516976       31.1773173637       13.0460062230
C         21.4728977592       32.9410993517       11.2697319327
C         19.3969624246       31.7143200852       13.3822123220
O         20.8497376513       29.7765898594       13.3250761204
C         22.4116184643       33.6146646523       12.2626041068
N         19.1196977490       31.6676437107       14.8373622236
C         21.9358593592       34.6320792486       13.1107061864
C         23.7547439934       33.2069823342       12.3593552286
C         19.7560811695       32.7756471992       15.5932176624
S         17.5458471062       31.1815524631       15.2914611944
C         22.7894393382       35.2257179082       14.0551213688
C         24.6099246003       33.8014624555       13.3021487821
C         20.4072285315       32.3400764138       16.9305400065
O         17.6122729002       30.8419359831       16.7168354716
C         17.3299109459       29.5977495037       14.4432463825
O         16.6145012182       32.1992449782       14.7897231990
C         24.1266263140       34.8090894539       14.1523562228
C         21.0504618353       33.5594568865       17.6244831939
C         21.4710527290       31.2395896271       16.7153349401
C         18.1238828835       28.4851969260       14.8211419574
C         16.3727007241       29.4663648230       13.4101474421
C         17.9644644215       27.2355704466       14.1877879021
C         16.2326077557       28.2138126542       12.8024724354
C         16.9980334533       27.1336662551       13.1818519033
O         15.3774748273       27.8510215300       11.8067839218
O         16.6553007955       26.0393978263       12.4488872384
C         15.5528525147       26.4236271700       11.5803299543
H         16.5465892581       22.1550282780        9.4464058064
H         15.8957839838       23.4748227631        7.4530176606
H         16.8106372911       25.7621845291        7.1120262255
H         19.0637860594       25.4195797837       10.7637977510
H         20.1751641281       23.6550174857       11.9984659767
H         18.8147220506       24.3513798457       12.9226996209
H         19.3925321214       22.7061625243       13.2890264365
H         18.3946728473       27.8157229937       10.7167307023
H         17.0947868164       28.3605787069        9.6013668063
H         18.4312122353       30.1747932436        9.0456593883
H         19.6045780407       31.5703683140       10.1747995959
H         22.1878974878       30.9164065033       11.4039265087
H         21.5356871848       31.6729093010       13.7022021091
H         21.8917727262       33.0370273738       10.2596947011
H         20.5129576794       33.4711908733       11.2412968955
H         19.2840788068       32.7439432060       13.0213996995
H         18.6743322717       31.1067364720       12.8249581494
H         20.8865262482       29.3168836990       12.4533610251
H         20.9013899292       34.9586405583       13.0460888693
H         24.1349723676       32.4241043053       11.7084424860
H         20.5487679149       33.2334190067       14.9893308679
H         19.0149112866       33.5638269372       15.7845853575
H         22.4146704000       36.0072216053       14.7114298637
H         25.6457891083       33.4795813290       13.3752403296
H         19.6338238837       31.9474648901       17.6027473032
H         24.7877753836       35.2677540957       14.8834744435
H         20.3040773637       34.3414389272       17.8142908510
H         21.4876088042       33.2741824558       18.5899467709
H         21.8478444821       33.9924372950       17.0062902962
H         22.2747836206       31.5894574985       16.0550752450
H         21.9218789304       30.9393753907       17.6695053917
H         21.0277347303       30.3434896183       16.2620783625
H         18.8673409024       28.5965708421       15.6074767313
H         15.7536468648       30.3037672690       13.1001866459
H         18.5659336415       26.3779264524       14.4742063993
H         14.6430219503       25.8832148789       11.8699163090
H         15.7988388902       26.2254263244       10.5300778172
    83
VM2 Rank=22     G=225.769           E=129.074           -TS=96.695              
C         22.2145217136       24.1703516977        5.9015141890
C         22.1288141365       23.2641876155        6.9708184803
C         21.9635703810       25.5445501436        6.1051319800
C         21.7880645852       23.7171600605        8.2542196010
C         21.6345253477       25.9857535362        7.4033068899
C         22.0251216245       26.5433107563        4.9740323489
C         21.5363301494       25.0819439429        8.4769167102
C         22.4209976652       26.0734807709        3.5789557699
O         21.7599296539       27.7213760350        5.1532480707
N         21.1804372770       25.5468203243        9.7713399514
C         21.8504144407       26.6878764174       10.3830220924
C         20.2031289840       25.0149678545       10.5896781552
C         21.1235804372       26.8550563251       11.7288115730
O         20.1745891687       25.7561445264       11.7335947249
O         19.4846013511       24.0582149675       10.3572006562
C         20.4446073622       28.2330712574       11.8548603688
N         19.0704911195       28.2168677807       11.9613321444
O         21.0715731527       29.2773223255       11.8029905307
C         18.2130121261       29.3593148618       11.6073309245
C         17.7010655472       30.1114659006       12.8681025411
C         17.0569036535       28.8602812858       10.7059377947
C         18.8721161905       30.6271806999       13.7471212297
O         16.8861297501       31.2202456834       12.4809166683
C         17.5479252942       28.1023414194        9.4777565633
N         18.4826497122       31.5015266179       14.8913932880
C         18.1935751343       28.7893372993        8.4332220906
C         17.3663986045       26.7102563231        9.3796046523
C         19.6397879789       32.1502904288       15.5701363555
S         17.2441241417       30.8832708182       15.9059405269
C         18.6459501390       28.0941215357        7.2991245806
C         17.8163302279       26.0145945882        8.2452179068
C         20.5589566378       33.0040251382       14.6553812005
O         15.9996837742       31.1868342798       15.1874369199
C         17.2537028853       31.9208767364       17.3899132655
O         17.6425191897       29.5158741845       16.2597638815
C         18.4515402606       26.7070987116        7.2026665868
C         19.7582811745       34.0800549388       13.8861846761
C         21.6616635007       33.6778839462       15.4996100308
C         17.8935078035       31.4700112275       18.5735630622
C         16.6386503920       33.1942110127       17.3589129074
C         17.9249473866       32.2788255461       19.7287191330
C         16.6854578517       33.9744249818       18.5187472711
C         17.3073422150       33.5325831387       19.6651392680
O         16.1719813716       35.2195644798       18.7166945917
O         17.2144065813       34.4780291131       20.6404257686
C         16.4830919252       35.6080187652       20.0850620775
H         22.4721090238       23.7899875833        4.9174828055
H         22.3219429260       22.2073554674        6.8030195074
H         21.7189828926       23.0061000919        9.0736937245
H         21.4314659505       27.0397557402        7.5715420053
H         23.4183667130       25.6202779996        3.6054097925
H         21.6987237795       25.3347868188        3.2136898753
H         22.4373186035       26.9241707109        2.8876945445
H         21.7412838408       27.5850581344        9.7600183280
H         22.9145731118       26.4690283858       10.5369184511
H         21.8288993707       26.7524564904       12.5625544259
H         18.6498404363       27.2962382560       11.9909269631
H         18.8066004881       30.0727741770       11.0180283914
H         17.1028120774       29.4016821071       13.4556939568
H         16.3819398186       28.2295924363       11.2981279293
H         16.4552536505       29.7177430025       10.3785485392
H         19.4264461459       29.7610214366       14.1315773542
H         19.5458166733       31.1623842532       13.0697939209
H         16.4474038817       31.5311585004       13.3077011144
H         18.3441953148       29.8634557515        8.5010670598
H         16.8767962393       26.1646477963       10.1817906722
H         19.2854323253       32.8320271449       16.3513883477
H         20.2477153580       31.3819153471       16.0675737620
H         19.1473209841       28.6287480340        6.4956579991
H         17.6764354255       24.9384888711        8.1770685712
H         21.0640177194       32.3516088080       13.9302376577
H         18.8012659577       26.1685780132        6.3254888916
H         19.2349818000       34.7526754719       14.5776547703
H         20.4224655053       34.6875481201       13.2584809138
H         19.0085445961       33.6232315228       13.2273896248
H         22.3437926736       34.2552359985       14.8623086350
H         21.2320515930       34.3626796493       16.2422960897
H         22.2597009084       32.9283501088       16.0338080113
H         18.3696801508       30.4922413329       18.5946970072
H         16.1474790381       33.5641924822       16.4629427238
H         18.4133916958       31.9442327100       20.6396901116
H         17.1108452797       36.5078461917       20.0917196426
H         15.5591205783       35.7787915338       20.6515623256
    83
VM2 Rank=23     G=225.770           E=126.911           -TS=98.859              
C         19.0281242308       25.0651856748        6.3316820914
C         17.7585573260       25.6564162246        6.4335452785
C         19.9607777684       25.1842371244        7.3847611875
C         17.4055745715       26.3759202271        7.5850039571
C         19.5870000829       25.9015402585        8.5399519983
C         21.3416375994       24.5784683722        7.2992562782
C         18.3200227342       26.5041508156        8.6445762933
C         21.7376671385       23.7859186953        6.0587965756
O         22.1510993408       24.7136013222        8.2028586515
N         17.9726285714       27.2394571917        9.8091355747
C         18.1592973285       26.6859869579       11.1447829325
C         17.4383983641       28.5127833356        9.8410771342
C         17.7281628001       27.8340895554       12.0723331516
O         17.2643843558       28.8536352835       11.1497089491
O         17.1654046381       29.2241105859        8.8900067468
C         18.8885762309       28.3216327663       12.9594056444
N         19.4615914118       29.5180025397       12.5909049913
O         19.3266519653       27.6692005225       13.8900768888
C         20.8336002347       29.9207558197       12.9423271134
C         20.8981615349       30.6729325794       14.3034477926
C         21.4376778028       30.7452599501       11.7802228486
C         19.9468713343       31.9003273685       14.3604349905
O         20.6000486024       29.7571735410       15.3536672647
C         21.4253756215       29.9816308744       10.4615387970
N         19.8878245303       32.5974774141       15.6745509604
C         20.4814796093       30.2963649938        9.4659634135
C         22.3485369852       28.9445498566       10.2343709293
C         21.1626281755       33.1637701973       16.1810107950
S         18.8061024158       32.0621090057       16.8940826296
C         20.4664309455       29.5875191170        8.2534764845
C         22.3343627745       28.2351165016        9.0217254810
C         21.8903843082       34.1223928786       15.2019284251
O         19.5807348174       31.3027240894       17.8835011890
C         17.6158277364       30.9497119847       16.0945848303
O         18.0678843887       33.2758183700       17.2642684399
C         21.3966846728       28.5607468785        8.0288214365
C         21.0022781897       35.3290528273       14.8218303221
C         23.2090136694       34.6197299381       15.8306215576
C         16.6331982296       31.4763534037       15.2158748677
C         17.6460733339       29.5614326265       16.3652527438
C         15.6976552085       30.6292872825       14.5857440928
C         16.6984865368       28.7470049549       15.7373569069
C         15.7585208664       29.2617836165       14.8733656336
O         16.5360380057       27.4002919169       15.8526323285
O         14.9632096871       28.2622117204       14.4011440604
C         15.3663533238       27.0331328396       15.0693893412
H         19.2761004970       24.5204603685        5.4255479441
H         17.0482755196       25.5604256410        5.6158532801
H         16.4218915899       26.8340426677        7.6513411831
H         20.2997654186       26.0102557313        9.3528958007
H         21.0593927106       22.9356681170        5.9252532494
H         21.6893563371       24.4286599916        5.1726085594
H         22.7611877595       23.4082959621        6.1664752281
H         19.2087188339       26.4118752879       11.3139715368
H         17.5177861279       25.8069454126       11.2856844767
H         16.9135522617       27.5115738824       12.7293813393
H         19.0179885103       29.9862635018       11.8109101592
H         21.4429060635       29.0106645532       13.0432236429
H         21.9264031114       31.0324208381       14.4420142968
H         20.8927419426       31.6895491150       11.6633627073
H         22.4702326510       31.0204239010       12.0306749539
H         20.2764075886       32.6172556746       13.6010902769
H         18.9466551369       31.5949673373       14.0410417986
H         20.0990333747       29.0138009977       14.9391160337
H         19.7569213461       31.0896282249        9.6294019088
H         23.0767641220       28.6872058160       10.9987995498
H         20.9612469282       33.7226353965       17.1055379088
H         21.8391513559       32.3423012136       16.4545002203
H         19.7313221510       29.8318221064        7.4904696960
H         23.0467889864       27.4311086460        8.8524271791
H         22.1525595879       33.5760865987       14.2860274837
H         21.3838202056       28.0105652359        7.0914267575
H         21.5297326672       36.0023378521       14.1342333672
H         20.0796740527       35.0039134652       14.3250960301
H         20.7193628149       35.9058022696       15.7117340333
H         23.7519507186       35.2733319973       15.1357988883
H         23.0206747354       35.1866000204       16.7516086613
H         23.8672432856       33.7771679753       16.0789355626
H         16.6045273430       32.5456815849       15.0182451324
H         18.3817205693       29.1312449410       17.0394662128
H         14.9474733013       31.0225370192       13.9054324700
H         15.6188249306       26.2565583470       14.3368533268
H         14.5644103755       26.6884842843       15.7342703752
    83
VM2 Rank=24     G=225.802           E=128.638           -TS=97.164              
C         17.3343041733       22.9452925979        9.7755719325
C         16.2671366735       23.8572362616        9.7910096583
C         18.6444374064       23.3729745337        9.4750725773
C         16.4966490134       25.2114098583        9.5074605636
C         18.8612352477       24.7395176021        9.1923915657
C         19.7749815202       22.3713326273        9.4670126417
C         17.7950519076       25.6572173680        9.2080531217
C         21.1876280454       22.8365065190        9.1315506816
O         19.5817263675       21.1941068707        9.7257662179
N         18.0363070056       27.0311151840        8.9522461120
C         17.6611293407       28.0583109840        9.9134720022
C         18.6929700125       27.5563018687        7.8570521572
C         18.3292921778       29.3229910408        9.3485881274
O         18.7681620921       28.9059057857        8.0335284101
O         19.1225271579       26.9444670107        6.8938557832
C         19.5314877815       29.7634617240       10.2038846831
N         19.4967728532       31.0611394375       10.6687047485
O         20.4573490306       29.0169637334       10.4763999512
C         20.5822889162       31.6944810791       11.4395411176
C         20.5099286428       31.3545694380       12.9603100143
C         20.5692695745       33.2193150000       11.1601714758
C         19.1795668562       31.7849095859       13.6262852026
O         20.6916831509       29.9511220905       13.1588298728
C         21.5876796550       33.9944251318       11.9866503185
N         19.2366762358       31.6413791316       15.1015815504
C         22.9650860525       33.7694034496       11.8086803112
C         21.1588416318       34.9221081598       12.9544333978
C         19.9594824926       32.7578975418       15.7628738398
S         17.8545515237       31.0060028443       15.8844664494
C         23.9033532041       34.4550665805       12.5980389409
C         22.0960546539       35.6066849327       13.7456329080
C         20.8051166281       32.3390312145       16.9914259633
O         18.3293778005       30.3974586427       17.1319804366
C         17.3605789451       29.6042611599       14.8505215150
O         16.8291421801       32.0563551872       15.8715109843
C         23.4688817100       35.3717726526       13.5689074946
C         21.5570079961       33.5639616923       17.5541311023
C         21.8135891566       31.2238962245       16.6321663012
C         16.1527507063       29.6522077630       14.1073551532
C         18.1909262191       28.4619677810       14.7787133282
C         15.7604900107       28.5646043302       13.2994722855
C         17.7773029061       27.3986075942       13.9701167285
C         16.5988906722       27.4455647997       13.2596608066
O         18.4079513129       26.2125176334       13.7486267637
O         16.4312031928       26.2916936182       12.5579056658
C         17.5701801664       25.4334837335       12.8493891369
H         17.1404241636       21.8987047624        9.9980565006
H         15.2623215610       23.5144641307       10.0257131811
H         15.6666431632       25.9128539512        9.5281660862
H         19.8585213689       25.1038844097        8.9647839184
H         21.2091266649       23.2749153221        8.1273650779
H         21.5182211855       23.5860094848        9.8594680976
H         21.8791170744       21.9863348066        9.1607710545
H         18.0457512542       27.8106663092       10.9110408717
H         16.5704086602       28.1720198682        9.9479370012
H         17.6105917866       30.1491178666        9.2823056116
H         18.7009347317       31.6257977405       10.4035573235
H         21.5407284193       31.3047290896       11.0672825821
H         21.3351272977       31.8758261978       13.4615856545
H         20.7731880717       33.3832472102       10.0941742106
H         19.5625164461       33.6200698448       11.3310586421
H         18.9436621544       32.8249394950       13.3711339394
H         18.3845721953       31.1706499824       13.1902466252
H         20.6736554965       29.5361522824       12.2641785540
H         23.3091430484       33.0575909293       11.0629387384
H         20.0984410075       35.1081811729       13.1019516204
H         20.6498846433       33.2271989752       15.0515674212
H         19.2419843261       33.5350307608       16.0602626152
H         24.9663050221       34.2741296774       12.4588603520
H         21.7586016790       36.3178273466       14.4955414411
H         20.1400735864       31.9690496741       17.7824948753
H         24.1948378075       35.9010007819       14.1812305826
H         20.8547991014       34.3570311346       17.8415083023
H         22.1359199595       33.2916173928       18.4459270601
H         22.2524441401       33.9777775532       16.8120323367
H         21.2961114178       30.3194697454       16.2866859832
H         22.4938891470       31.5477360808       15.8341932135
H         22.4182010802       30.9462066320       17.5045921544
H         15.5177837504       30.5337434811       14.1597852599
H         19.1276592882       28.4100859290       15.3273475844
H         14.8367665800       28.5887854610       12.7281964055
H         18.1175862390       25.1970228819       11.9292160595
H         17.2341520728       24.5136455078       13.3439749744
    83
VM2 Rank=25     G=225.812           E=128.744           -TS=97.068              
C         22.5558298263       24.3936658918        5.8714627829
C         23.0400645761       23.8736545621        7.0816221943
C         21.7830448527       25.5729250041        5.8524197760
C         22.7559600661       24.5258593896        8.2902489478
C         21.5052218725       26.2194674563        7.0769271159
C         21.2738126274       26.1109976365        4.5359253803
C         21.9835455143       25.7010416392        8.2959207988
C         20.4613777467       27.4009873296        4.5147563913
O         21.5009987207       25.5346190756        3.4841666363
N         21.6952045692       26.3642005663        9.5207809702
C         21.8502354959       27.8073739534        9.6628608151
C         21.2767648518       25.7686576938       10.6955362481
C         21.4528000518       28.0739824997       11.1253723068
O         21.1468537281       26.7491705377       11.6333240104
O         21.0556416326       24.5853545402       10.8868614922
C         20.2622735236       29.0458134964       11.2447070946
N         19.1575726810       28.5546109722       11.9061512707
O         20.2707350981       30.1580248113       10.7458122842
C         17.7992625487       29.1008819331       11.7521434069
C         17.3312730465       29.8267703965       13.0457027132
C         16.8512206960       27.9532112236       11.3226658269
C         18.2212272081       31.0602775540       13.3668668089
O         15.9734769054       30.2504866496       12.9060211938
C         17.3282416662       27.2349512029       10.0654887283
N         18.1282937187       31.5532188533       14.7679542070
C         17.2268167865       27.8646735796        8.8117091507
C         17.8812236136       25.9433638958       10.1462380436
C         18.5254934991       30.5969541839       15.8372679407
S         16.8362759216       32.6117165087       15.1264026528
C         17.6663143641       27.2086665037        7.6498403010
C         18.3217113883       25.2865278292        8.9851214761
C         19.9156487961       29.9368811151       15.6398145723
O         16.9508549737       33.6895390330       14.1368159657
C         17.3087743009       33.3447023855       16.7102332958
O         15.6280070132       31.7844486493       15.2403793580
C         18.2110759243       25.9174058391        7.7360497168
C         21.0423756328       30.9935518892       15.5821507899
C         20.1935587255       28.9375281417       16.7821600513
C         18.3924785163       34.2577987199       16.7714830414
C         16.6151746179       32.9872026074       17.8895666452
C         18.7910315552       34.8221568909       18.0010874173
C         17.0317868611       33.5626609585       19.0945478578
C         18.0837077352       34.4498980833       19.1494101772
O         16.5216043072       33.3663037765       20.3413150210
O         18.2855360334       34.8554251764       20.4333790764
C         17.2966162094       34.1833893645       21.2643280479
H         22.7840977584       23.8762262953        4.9427261012
H         23.6364076916       22.9644391232        7.0822578898
H         23.1386326496       24.1155640102        9.2213999563
H         20.9034430280       27.1220182883        7.0916538681
H         19.5409360512       27.2732056965        5.0942133504
H         21.0477532813       28.2210604038        4.9442856117
H         20.1959901252       27.6596140711        3.4830108584
H         21.1846726876       28.3400214227        8.9714063044
H         22.8912780846       28.1016481230        9.4792323513
H         22.2945149684       28.5068048538       11.6797818617
H         19.2558079256       27.6145750705       12.2694252067
H         17.8043661337       29.8442779181       10.9423744278
H         17.4079730989       29.1009155031       13.8651098100
H         16.7434346795       27.2417112876       12.1509732636
H         15.8470175740       28.3569649257       11.1416469001
H         19.2660577098       30.8113727277       13.1550520681
H         17.9679778925       31.8648373607       12.6636410368
H         15.6901580727       30.6242917783       13.7743445836
H         16.8047851549       28.8635013142        8.7386492137
H         17.9721538653       25.4470007969       11.1087229928
H         18.5511461979       31.1092357217       16.8069832714
H         17.7648589248       29.8096867918       15.9253922878
H         17.5788634163       27.6998441609        6.6842942390
H         18.7501104949       24.2894925763        9.0546444803
H         19.9189431022       29.3657850657       14.7016685837
H         18.5480593841       25.4060026815        6.8380233560
H         21.0764116490       31.5848900518       16.5061692912
H         22.0208638251       30.5147144413       15.4497488613
H         20.8971436620       31.6865259285       14.7440804325
H         21.1607811510       28.4388592814       16.6386978253
H         20.2147488797       29.4431238391       17.7563177281
H         19.4204266621       28.1592954174       16.8195452908
H         18.9267611551       34.5235191264       15.8618629079
H         15.7858271731       32.2853678392       17.8697291756
H         19.6206348753       35.5211839691       18.0596872772
H         16.6491183057       34.9200036482       21.7562185892
H         17.7933069667       33.5490034251       22.0090850809
    83
VM2 Rank=26     G=225.815           E=128.628           -TS=97.187              
C         20.6043760304       25.2449126562        5.6984251862
C         21.9341676329       25.5837980909        5.9961798871
C         19.5457073652       25.7297494690        6.4965141170
C         22.2237610894       26.4064485689        7.0951843617
C         19.8523554523       26.5654432034        7.5900079808
C         18.1060729581       25.3680983589        6.2184398950
C         21.1830321706       26.9001698035        7.9007253540
C         17.7702516500       24.4998023948        5.0113832771
O         17.2037835141       25.7544573386        6.9443245390
N         21.4688966527       27.7258359366        9.0211410317
C         20.7636168633       28.9822984938        9.2422911634
C         22.4036833624       27.4716812179       10.0057811673
C         21.3611776566       29.5054955090       10.5600680297
O         22.3586449853       28.5048473537       10.8941336225
O         23.1466568680       26.5089498187       10.0886215255
C         20.2929474210       29.6747822031       11.6580961996
N         20.4710128666       28.9094646830       12.7905711092
O         19.3197459829       30.3956465591       11.5183958425
C         19.3794945859       28.5544936656       13.7121475593
C         19.4560465638       29.3639855794       15.0383930542
C         19.4012779812       27.0229524800       13.9440169218
C         19.3515862698       30.8935180072       14.7859737280
O         18.4032910263       28.9527823074       15.9124530528
C         19.3607678572       26.2250121013       12.6455421855
N         19.6489185232       31.7501494448       15.9688104895
C         20.4939447438       25.5123337423       12.2113954627
C         18.1894194166       26.1996972438       11.8662870790
C         21.0104958416       31.6268775087       16.5503313886
S         18.4093345245       32.0585509767       17.1053244457
C         20.4528395164       24.7739143192       11.0171327509
C         18.1480613085       25.4634898064       10.6702785481
C         22.1759908648       31.7796167957       15.5367191168
O         18.3142581343       30.8642696026       17.9550936597
C         16.9208793199       32.2747757574       16.0995659949
O         18.7289323278       33.3843090350       17.6484084270
C         19.2783585641       24.7451665899       10.2491940858
C         22.1382429057       33.1525800186       14.8274728804
C         23.5292986799       31.5991602567       16.2558780697
C         15.9319212458       31.2583419284       16.0549911313
C         16.7585513793       33.4540216479       15.3361175497
C         14.7807517748       31.4072786858       15.2538322177
C         15.6073091700       33.5747615766       14.5511264769
C         14.6505618819       32.5852165099       14.5103908790
O         15.2463438292       34.6065221586       13.7396504089
O         13.6405852822       32.9468579324       13.6719792496
C         13.9696459598       34.2584826622       13.1322088970
H         20.4107961810       24.5997455446        4.8465802155
H         22.7426190206       25.2035525821        5.3763614360
H         23.2573301262       26.6580540336        7.3195467120
H         19.0468645384       26.9391522748        8.2160528895
H         16.6857640335       24.3541019725        4.9447382574
H         18.1189180378       24.9847330461        4.0926260931
H         18.2533011389       23.5210047951        5.1082771428
H         19.6834780844       28.8116215692        9.3380585932
H         20.9584444932       29.6807732506        8.4187657032
H         21.8387559985       30.4807723262       10.4054353670
H         21.3070032233       28.3381394869       12.7989645362
H         18.4211304743       28.8010845952       13.2333448616
H         20.4274548013       29.1437300381       15.4999948945
H         20.2926159610       26.7578405583       14.5263961503
H         18.5423634771       26.7358076692       14.5637621623
H         20.0508494470       31.1609086314       13.9871170061
H         18.3592567825       31.1109817042       14.3738677609
H         18.5397136032       29.4048293408       16.7781487952
H         21.4084276078       25.5291171142       12.7981876712
H         17.3103160481       26.7510453071       12.1890484987
H         21.1404969406       32.3980131211       17.3224121903
H         21.1038659195       30.6588530103       17.0606658452
H         21.3327427852       24.2280200314       10.6854971916
H         17.2414350061       25.4488651587       10.0698532601
H         22.1045963802       30.9888263635       14.7775001070
H         19.2466326390       24.1744716247        9.3244901398
H         21.2064518287       33.2852820144       14.2638215741
H         22.2119301379       33.9727854342       15.5530290315
H         22.9707168236       33.2500677079       14.1191303620
H         24.3627260472       31.6723124047       15.5453764072
H         23.6741695201       32.3661331589       17.0277620651
H         23.5889118895       30.6152780084       16.7387831541
H         16.0604582808       30.3489841366       16.6377242428
H         17.5051395123       34.2435140040       15.3494692188
H         14.0193069786       30.6336287871       15.2099562517
H         13.2019018969       34.9897697878       13.4143222097
H         14.0694786129       34.2064012025       12.0408188155
    83
VM2 Rank=27     G=225.815           E=129.436           -TS=96.379              
C         21.3139813558       23.7107781442        5.3173823234
C         20.4892255060       22.9344180169        6.1470103767
C         21.8627902585       24.9238102347        5.7862972837
C         20.1989619156       23.3607554658        7.4516736998
C         21.5700643421       25.3332867010        7.1036369209
C         22.7405231504       25.7910778587        4.9155651481
C         20.7354866362       24.5661636633        7.9373751750
C         23.0958632642       25.3256708538        3.5081103983
O         23.1695985102       26.8617160978        5.3154087471
N         20.4380158969       25.0067327420        9.2560273801
C         21.4809960433       25.4763937097       10.1599896233
C         19.1877854278       25.0432473163        9.8420684116
C         20.7075311836       25.8780546985       11.4304412418
O         19.3418082357       25.5010624828       11.1160487427
O         18.1254468808       24.7264910900        9.3350546797
C         20.8293498663       27.3792942875       11.7652831455
N         19.6661360353       27.9857532887       12.1878527789
O         21.8673183205       28.0056799000       11.6301256789
C         19.4424998125       29.4382586026       12.1903908634
C         18.8499054693       29.8723269682       13.5614665035
C         18.5704681978       29.8349603015       10.9684275386
C         18.7632176651       31.4134415946       13.7277006250
O         17.5587077880       29.2890794723       13.7639370093
C         19.1304776102       29.3328964371        9.6424553073
N         18.1508914177       31.8826795896       15.0052704010
C         20.2986895697       29.9039849751        9.1055473799
C         18.4870802313       28.2934191686        8.9450159031
C         17.8951203580       33.3502926000       15.0486449131
S         18.7585983163       31.1605963259       16.4394875451
C         20.8149218239       29.4459006642        7.8819132173
C         19.0007044021       27.8363450000        7.7199040225
C         17.0057432897       33.9083421411       13.9049387429
O         18.0554744134       29.8739177803       16.5247367943
C         18.1517603906       32.1789135222       17.8084325848
O         20.2206384973       31.2636021060       16.3630192872
C         20.1622516201       28.4164349360        7.1856854493
C         15.6541484819       33.1625664422       13.8167648862
C         16.7566808165       35.4164049144       14.1203378357
C         18.9958752462       33.1507395919       18.4056734345
C         16.8236955800       32.0169824582       18.2674627869
C         18.5267197245       33.9635413614       19.4586773395
C         16.3856595565       32.8366316288       19.3126562738
C         17.2085014187       33.7782664359       19.8892157386
O         15.1607898770       32.8611548689       19.9062134607
O         16.5414640922       34.4403115803       20.8743332048
C         15.1954315044       33.8886219807       20.9373391963
H         21.5158198306       23.3594342830        4.3098160496
H         20.0707507977       22.0017961380        5.7762217002
H         19.5564782659       22.7522598723        8.0832210632
H         21.9862500285       26.2654987864        7.4747723828
H         22.1854414058       25.2210260594        2.9073147805
H         23.7552215595       26.0573571391        3.0267943780
H         23.6119387850       24.3599701178        3.5521293246
H         22.0125724001       26.3337928373        9.7278996728
H         22.1916984697       24.6683440467       10.3740735425
H         21.0671555387       25.3126005095       12.2986717153
H         18.8548521697       27.3863315284       12.2811071323
H         20.4144541627       29.9399861741       12.0842688143
H         19.5397775224       29.4868561243       14.3246783242
H         17.5519351947       29.4521758145       11.1117130723
H         18.4771071204       30.9252388995       10.9152838782
H         19.7759925842       31.8280714353       13.6359095512
H         18.1799103239       31.7904921785       12.8839705606
H         17.3644598943       29.3996825857       14.7240411962
H         20.8086420171       30.7013684160        9.6391892271
H         17.5885671779       27.8375123016        9.3526534908
H         17.3795338929       33.6166511096       15.9780059108
H         18.8535750191       33.8876304672       15.0498519470
H         21.7188879097       29.8897703127        7.4724372093
H         18.4995866157       27.0320639498        7.1866626409
H         17.5314119481       33.8042679707       12.9464796376
H         20.5605217145       28.0651981204        6.2367559171
H         15.0970307134       33.2423066887       14.7589452730
H         15.0291515098       33.5787983884       13.0165358103
H         15.8000883653       32.0963741316       13.6006446799
H         16.1607844788       35.8354084060       13.2992688301
H         16.2165205426       35.6008116420       15.0580750199
H         17.7043021361       35.9689559502       14.1595010128
H         20.0156938776       33.2769856906       18.0489635793
H         16.1562110064       31.2838160777       17.8226707460
H         19.1638774719       34.7117422133       19.9219510691
H         14.4541437895       34.6684413690       20.7224336613
H         15.0121013698       33.4442485030       21.9236109420
    83
VM2 Rank=28     G=225.839           E=128.887           -TS=96.952              
C         21.7060085932       23.8378454501        5.4616911589
C         21.8979037904       22.9909710468        6.5643003895
C         21.5221680936       25.2241901663        5.6419972302
C         21.9064778527       23.5196305253        7.8633765760
C         21.5333564511       25.7424674261        6.9554869524
C         21.3174238454       26.1142775566        4.4386876288
C         21.7209147101       24.8985316029        8.0672519983
C         21.1658225360       27.6191326807        4.6333076672
O         21.2741251124       25.6539364532        3.3089954194
N         21.7265146261       25.4369041886        9.3836916744
C         22.4999640796       26.6263312885        9.7209103269
C         21.0569620218       24.9280470622       10.4802189444
C         22.1139780963       26.9045507886       11.1860931832
O         21.3401866132       25.7305823203       11.5446962139
O         20.3448121720       23.9394031791       10.5181669618
C         21.2949281537       28.2019046409       11.3558210449
N         20.2600979945       28.1333342170       12.2633511947
O         21.5129557960       29.2127141728       10.7085354017
C         19.1461186502       29.0900616101       12.3224780264
C         18.9584730597       29.5998889529       13.7790091767
C         17.8686242683       28.4540405968       11.7135342756
C         17.8892550248       30.7215337347       13.8730279483
O         18.6159599715       28.5099987922       14.6414819635
C         18.0803167650       27.9110044003       10.3049647224
N         17.9266496486       31.5205328659       15.1282980658
C         18.2792563931       28.7921525078        9.2263671512
C         18.0772352898       26.5235526495       10.0702153925
C         19.1813389346       32.2705765769       15.4063941135
S         17.1102700419       30.8705951015       16.4814044123
C         18.4657092062       28.2924931500        7.9264622822
C         18.2617908656       26.0226518696        8.7709350075
C         19.6397945305       33.2127437165       14.2633903238
O         15.7587258832       30.5723889825       15.9929396866
C         16.9276214398       32.2881158082       17.5884680224
O         17.9803312309       29.8310597078       17.0464481529
C         18.4510705178       26.9071915137        7.6978064806
C         18.5643734969       34.2756819897       13.9417385749
C         20.9626655312       33.9070712948       14.6496433494
C         17.6652210579       32.3492302395       18.7986377976
C         16.0665924437       33.3501934105       17.2282156004
C         17.5489498131       33.4625347014       19.6570005386
C         15.9716878329       34.4414438894       18.0977565537
C         16.6880427632       34.4964406542       19.2726183824
O         15.2194229371       35.5672205905       17.9565855267
O         16.4201644555       35.6592595669       19.9282436633
C         15.4667374088       36.4065863602       19.1203548428
H         21.7013742238       23.4128500967        4.4608118145
H         22.0401638756       21.9238879900        6.4113453338
H         22.0577975178       22.8548701877        8.7101683492
H         21.3808722763       26.8034460381        7.1227404928
H         20.2767317474       27.8327378712        5.2362587382
H         22.0501383134       28.0228045437        5.1391992890
H         21.0596411531       28.1135854970        3.6606528446
H         22.2376984741       27.4677178207        9.0677901401
H         23.5730070802       26.4134104415        9.6363148634
H         23.0055484759       26.9871992446       11.8194419540
H         20.1573900238       27.2604403779       12.7667826538
H         19.4062684876       29.9627166798       11.7073780011
H         19.9272582039       30.0147810010       14.0855651985
H         17.5158209317       27.6512104513       12.3734405027
H         17.0627002172       29.1966814974       11.6872971398
H         18.0199435104       31.3935630484       13.0165392930
H         16.8954864400       30.2712661423       13.7502805510
H         18.5959834833       28.8567958927       15.5646205635
H         18.2897366080       29.8653238986        9.3962739082
H         17.9330142321       25.8307503161       10.8951769293
H         19.0550448026       32.8938177951       16.3003429629
H         19.9896671101       31.5642216919       15.6381222184
H         18.6156182142       28.9794821741        7.0975999548
H         18.2592408560       24.9492078853        8.5973590899
H         19.8344881753       32.6211849801       13.3584701248
H         18.5871688034       26.5181806918        6.6921904726
H         18.3412778807       34.8910687117       14.8228393725
H         18.9024145467       34.9432074432       13.1389184108
H         17.6282222550       33.8087006977       13.6112368201
H         21.3163169610       34.5544088476       13.8368104855
H         20.8389527009       34.5276093043       15.5467110690
H         21.7488982889       33.1685407670       14.8527313631
H         18.3311953129       31.5330423019       19.0699802630
H         15.4982151006       33.3277682827       16.3023001242
H         18.1096723581       33.5210427399       20.5857391587
H         15.8994705639       37.3664976218       18.8119431927
H         14.5362422648       36.5655006475       19.6795773733
    83
VM2 Rank=29     G=225.846           E=127.361           -TS=98.486              
C         19.9821715221       24.5680728434        6.7650005148
C         20.6379286550       24.5701363019        8.0060042837
C         18.8759035699       25.4149591509        6.5377454250
C         20.1992747275       25.4171858014        9.0341482254
C         18.4472784091       26.2620450901        7.5814167024
C         18.1475639209       25.4334666684        5.2145521329
C         19.1031259704       26.2737173312        8.8269614735
C         18.6207468956       24.5263469360        4.0842680283
O         17.1844241662       26.1606090416        5.0299619104
N         18.6573518562       27.1359577261        9.8668275677
C         18.4983877288       26.6601879626       11.2362311754
C         18.3067176493       28.4664844784        9.7349608542
C         17.9911660944       27.8984235630       11.9937667732
O         17.9115674259       28.9135869867       10.9606770637
O         18.3383787958       29.1436286309        8.7222450805
C         18.9285795814       28.2980918328       13.1476864448
N         19.7245032762       29.3963013497       12.9142862701
O         19.0230486689       27.6544462298       14.1775551466
C         21.0138211476       29.6361386689       13.5829993685
C         20.8538813365       30.4660373206       14.8893287081
C         21.9966984746       30.2829074310       12.5776068851
C         20.1320138298       31.8223420129       14.6568830599
O         20.1541766020       29.6812848601       15.8514649361
C         22.1746918532       29.4343764270       11.3243732042
N         19.8312892141       32.6016893703       15.8890266399
C         21.5422581509       29.8002761050       10.1212862614
C         22.9532088659       28.2634577856       11.3666529068
C         20.9946261602       33.0011702743       16.7192796960
S         18.3865971417       32.3125888957       16.7685477735
C         21.6901139050       29.0059919065        8.9723239221
C         23.1021562456       27.4688070316       10.2176820776
C         22.1040445154       33.7794142896       15.9638669252
O         18.7322760536       31.5224197085       17.9568005377
C         17.3021345856       31.3249010858       15.6996066150
O         17.7740977014       33.6418672212       16.8823379244
C         22.4722128435       27.8414554772        9.0194922516
C         21.5569929128       35.0794408417       15.3314896714
C         23.2647840879       34.1122093066       16.9247654707
C         16.6883294878       31.9216182315       14.5672118780
C         17.0413373597       29.9690174574       16.0081975086
C         15.8379928105       31.1731027094       13.7266468106
C         16.1833259864       29.2548451954       15.1659840376
C         15.6042317928       29.8349349219       14.0600067015
O         15.7853027979       27.9572601672       15.2723156317
O         14.8178928961       28.9279958151       13.4166643013
C         14.8183923281       27.7098015575       14.2138632230
H         20.3442374762       23.9016565315        5.9877934953
H         21.4901077090       23.9151610442        8.1704869557
H         20.7251762290       25.4151267860        9.9848392361
H         17.5947732717       26.9171171659        7.4205653042
H         19.6570873133       24.7659479612        3.8207607089
H         18.5611118934       23.4774732005        4.3959235197
H         17.9890765008       24.6688320240        3.1996906243
H         19.4586043158       26.3168515971       11.6425744383
H         17.7636750536       25.8461291101       11.2770673187
H         16.9989999584       27.7062487654       12.4155595777
H         19.5581598605       29.8661247651       12.0332629731
H         21.4387039770       28.6621614517       13.8668484663
H         21.8577373331       30.6775539689       15.2808769536
H         21.6477691075       31.2839427317       12.2974365505
H         22.9704821639       30.4254594572       13.0634212644
H         20.7659984952       32.4329611399       14.0053087443
H         19.2204455608       31.6501974011       14.0780988856
H         19.6787095312       28.9803416400       15.3434581353
H         20.9318201433       30.6981515527       10.0745601363
H         23.4408839891       27.9676927775       12.2916744257
H         20.6424201357       33.6388357263       17.5420516661
H         21.4311503209       32.1060317520       17.1834935497
H         21.1940650506       29.2905573571        8.0475025013
H         23.7043541290       26.5646227031       10.2562610409
H         22.5137373538       33.1454560784       15.1661849708
H         22.5837969773       27.2253008213        8.1307328020
H         21.1393330018       35.7449071310       16.0978598110
H         22.3516784864       35.6236572591       14.8055493762
H         20.7640075145       34.8655744158       14.6040914001
H         23.6874874711       33.1977119164       17.3604898821
H         24.0730023392       34.6341510681       16.3964550505
H         22.9270143910       34.7557979119       17.7474038986
H         16.8806036068       32.9676238398       14.3386699336
H         17.4900526517       29.4880957077       16.8731576004
H         15.3701791178       31.6195111659       12.8536631709
H         15.1186455246       26.8464786556       13.6073243207
H         13.8237640815       27.5473886144       14.6478227021
    83
VM2 Rank=30     G=225.859           E=129.311           -TS=96.548              
C         22.1119895454       24.8893909647        4.8308329562
C         22.4306958736       26.1501038405        5.3579676920
C         21.4670190221       23.9194934302        5.6252811095
C         22.1062730019       26.4587231728        6.6869160053
C         21.1479747386       24.2435271924        6.9624297392
C         21.1345084321       22.5697795086        5.0337754419
C         21.4570795051       25.5094130394        7.4974881869
C         20.4218727373       21.5289191905        5.8902508652
O         21.4229643432       22.2936889705        3.8800631011
N         21.1244647754       25.8208644764        8.8464366186
C         22.0589800020       26.5166410566        9.7234769766
C         19.9441065816       25.5076147531        9.4941474341
C         21.3030172609       26.6147447443       11.0621598022
O         20.0496532519       25.9401195845       10.7818048787
O         18.9708796811       24.9437242668        9.0238268752
C         21.0883784574       28.0674766404       11.5343105107
N         19.8478122616       28.3377181680       12.0704804419
O         21.9332961801       28.9374847436       11.4024160041
C         19.2690805880       29.6852459877       12.1653322913
C         18.6908793069       29.9189566089       13.5893380108
C         18.2323068736       29.8969742756       11.0296538487
C         18.1901693325       31.3754619042       13.7847377284
O         17.6347917335       28.9886331188       13.8507199273
C         18.7849029919       29.5783731400        9.6449176067
N         17.9920707751       31.7868020287       15.2015566215
C         19.7796186687       30.3922620510        9.0726907356
C         18.3122746671       28.4616428583        8.9306038766
C         19.1918628415       31.7534122971       16.0811609193
S         16.5037742280       31.3625975797       15.9262875325
C         20.2946358806       30.0948118676        7.7998942707
C         18.8233266255       28.1656292918        7.6560765812
C         20.4119980703       32.5463391829       15.5453328384
O         15.4813031405       31.8653293728       15.0010738863
C         16.4176093803       32.4315565023       17.3818476013
O         16.5956035119       29.9419010144       16.2870452310
C         19.8131960847       28.9836830172        7.0894435130
C         20.0704285224       34.0402908320       15.3425953092
C         21.6004897787       32.4090326967       16.5199824930
C         16.2347123306       33.8290706326       17.2226164951
C         16.5589794685       31.8776179402       18.6752254046
C         16.1885297014       34.6825122559       18.3445580228
C         16.5085943830       32.7475344494       19.7694893768
C         16.3295892571       34.1037989106       19.6105477031
O         16.6234520375       32.4439100296       21.0915653171
O         16.3221720532       34.7189230922       20.8251776245
C         16.5096821157       33.6892693187       21.8374645939
H         22.3687755361       24.6656610579        3.7981708216
H         22.9281145984       26.8893200540        4.7347546467
H         22.3532360765       27.4417376041        7.0778081700
H         20.6575615471       23.5128187837        7.5977672706
H         20.2455659483       20.6188272190        5.3050702851
H         21.0369457054       21.2755254479        6.7610352621
H         19.4573762946       21.9215802636        6.2318971827
H         22.2906790782       27.5129308376        9.3257243315
H         22.9835598812       25.9367461165        9.8365409768
H         21.8480260967       26.0839632075       11.8521939156
H         19.2146695306       27.5515349725       12.1548246460
H         20.0748178682       30.4182648354       12.0202102815
H         19.5165710648       29.7365983307       14.2890984005
H         17.3482432093       29.2778243550       11.2284276384
H         17.8804868135       30.9352388199       11.0397854656
H         18.9116388780       32.0529249792       13.3127151767
H         17.2527568827       31.5026846161       13.2274905231
H         17.3596552902       29.1082197444       14.7903262345
H         20.1580864486       31.2526651487        9.6177952623
H         17.5505948183       27.8188343295        9.3641091858
H         18.9469617459       32.1737358016       17.0644405024
H         19.4891423644       30.7112955841       16.2592817462
H         21.0643858419       30.7267145551        7.3641830283
H         18.4551490555       27.3000846248        7.1105293954
H         20.7293577669       32.1221350062       14.5830213728
H         20.2079443964       28.7551029797        6.1026612959
H         19.2621689585       34.1692022416       14.6120108845
H         19.7500693987       34.5034191267       16.2847404673
H         20.9426050429       34.5938972833       14.9721720939
H         21.8787131866       31.3557029972       16.6538628906
H         22.4822023071       32.9400692104       16.1386716629
H         21.3559589439       32.8242701253       17.5063329937
H         16.1335379457       34.2501419629       16.2246604050
H         16.7061576722       30.8111817166       18.8230381107
H         16.0505714805       35.7544570388       18.2340280592
H         15.6423819980       33.6530076323       22.5084993589
H         17.4289489365       33.8775946712       22.4060510117
