    82
VM2 Rank=1      G=230.444           E=142.220           -TS=88.223              
C         22.4349727524       24.6019394127        5.9926408776
C         23.3423975987       24.4690055106        7.0553278328
C         21.3592690255       25.5110931609        6.0799813642
C         23.1868612081       25.2425192737        8.2155766202
C         20.3571810022       25.6722242588        4.9305375139
C         21.2219455170       26.2905153559        7.2476983573
C         22.1237580817       26.1572337632        8.3203940467
F         20.6046872080       26.7876851784        4.2093459991
F         20.3707686580       24.6373937839        4.0597248896
F         19.0837891780       25.7727536950        5.3744483196
N         21.9640411987       26.9445153317        9.4937641159
C         21.7129610198       28.3790282754        9.4208501309
C         22.0396159720       26.4955835885       10.7986475187
C         21.6133971831       28.8063627819       10.8956393032
O         22.2460336679       25.3556581866       11.1777227471
O         21.8513459523       27.5694298506       11.6169737883
C         20.2490490851       29.4400791312       11.2312239575
N         19.5235041149       28.8074883017       12.2174681999
O         19.8098639089       30.4053177608       10.6299430487
C         18.0643397896       28.9340184751       12.3664363057
C         17.6906341213       29.7683387173       13.6250492983
C         17.4424455325       27.5149381861       12.3765591462
O         16.2717373003       29.7851545812       13.7960895835
C         18.2115367210       31.2294676758       13.5246248245
C         17.8537432933       26.6767815733       11.1710567991
N         18.2569189742       31.9699463078       14.8147239537
C         17.3717931734       26.9967302092        9.8884910299
C         18.7225366521       25.5808674937       11.3279560102
C         19.1263608292       31.3985996264       15.8790506955
S         16.8086240513       32.7170277090       15.3264500384
C         17.7472935895       26.2252029979        8.7759332941
C         19.0969602190       24.8075673456       10.2166193933
C         20.5830452064       31.0964473047       15.4388815197
C         17.3544140616       33.8802953744       16.5987034302
O         16.3907625353       33.5419801696       14.1868152038
O         15.9531951409       31.6567328002       15.8751087425
C         18.6059433440       25.1268205870        8.9411577706
C         21.3032691253       32.3727121110       14.9471524956
C         21.3696934857       30.4696949513       16.6089929772
C         18.1051507988       35.0157790319       16.2399803637
C         17.0562199582       33.6474882316       17.9553271938
C         18.5490963910       35.9088290760       17.2270365015
C         17.5005703272       34.5422728034       18.9441958750
C         18.2517984505       35.6818302409       18.5867012142
F         19.2695478403       36.9888638323       16.8501843987
O         18.7084556026       36.5846607434       19.5309887684
C         18.4664711535       36.4461252422       20.9448245418
H         22.5730483606       23.9947289144        5.1010617289
H         24.1677923743       23.7650854607        6.9797036144
H         23.8966971047       25.1307873614        9.0314012923
H         20.3962989032       26.9932296368        7.3241534765
H         20.7754960192       28.5835098363        8.8877910585
H         22.5453766789       28.8892566738        8.9200224265
H         22.3914983116       29.5409975301       11.1365849448
H         19.9779227640       28.0074658575       12.6404224460
H         17.6631477910       29.4633832754       11.4905868285
H         18.1595526494       29.2755636725       14.4861519802
H         17.7210233531       27.0050141676       13.3073228464
H         16.3482881315       27.5967217225       12.3957198353
H         16.0812789090       30.2541645365       14.6431924008
H         19.2186648992       31.2196804114       13.0957889857
H         17.5925080800       31.7708566806       12.7968772289
H         16.7039375931       27.8435903439        9.7551543342
H         19.1093808564       25.3262725642       12.3110349092
H         19.1866230836       32.0929792176       16.7262127303
H         18.6715910158       30.4778003047       16.2681811260
H         17.3696469845       26.4755575996        7.7876925543
H         19.7700629576       23.9632704080       10.3445285170
H         20.5730449122       30.3604301065       14.6235922419
H         18.8935345131       24.5261142583        8.0821823725
H         20.7930536958       32.8096373544       14.0796976804
H         21.3388342705       33.1347610798       15.7362601857
H         22.3343149472       32.1480686938       14.6459320840
H         20.8909765251       29.5434883642       16.9521333818
H         22.3939728785       30.2210761419       16.3027203326
H         21.4291990145       31.1581725886       17.4619371489
H         18.3481842304       35.2035827861       15.1975273885
H         16.4812648363       32.7702806204       18.2440746194
H         17.2567735554       34.3389856634       19.9823260538
H         18.8998960325       35.5111595097       21.3229440253
H         18.9263471957       37.2814461845       21.4879229870
H         17.3893780099       36.4509832130       21.1565699360
    82
VM2 Rank=2      G=230.478           E=142.042           -TS=88.436              
C         20.3650557334       23.5048450773        7.0465531962
C         21.0536882506       23.0570357294        8.1846539518
C         20.0865572433       24.8769701222        6.8722766695
C         21.4740175312       23.9741464919        9.1597098546
C         19.3411150125       25.3797332675        5.6299294183
C         20.5243870007       25.7891836947        7.8557233888
C         21.2103165325       25.3468148267        9.0029879069
F         20.1978159399       25.8102509013        4.6779981191
F         18.5684057385       24.4299969853        5.0552841815
F         18.5169919773       26.4157460783        5.9065677653
N         21.6409372018       26.2794241125        9.9869216246
C         22.3241445928       27.5143841250        9.6206829150
C         21.5111931051       26.1459474062       11.3563220440
C         22.5587612007       28.2156401123       10.9721859198
O         21.0038387122       25.2184923534       11.9633268710
O         22.0951594367       27.2331648130       11.9341298921
C         21.7966911171       29.5513071913       11.0999749880
N         21.2272554640       29.7912449861       12.3316851342
O         21.6637525476       30.3294446568       10.1698534236
C         20.1495594684       30.7615204988       12.5682272329
C         20.5031742481       31.6580955744       13.7882290334
C         18.7925947914       30.0202839144       12.7113422209
O         20.6165726157       30.8558968777       14.9674952870
C         19.4682395708       32.7955261558       13.9975875470
C         18.4995366232       29.0660012901       11.5591219198
N         19.8681619170       33.8345325624       14.9887376667
C         18.2414767213       29.5663080456       10.2696982833
C         18.4833782292       27.6755067565       11.7752139735
C         21.0972690205       34.6097931339       14.6805951429
S         19.6157827782       33.5334429365       16.6542314499
C         17.9639948709       28.6870197819        9.2095521529
C         18.2025068484       26.7955103896       10.7169934185
C         21.1200634472       35.2773986035       13.2803081070
C         18.0351313163       32.6534103819       16.7213389195
O         20.7215439701       32.6735486572       17.0958919604
O         19.3713792421       34.8589294681       17.2353481253
C         17.9377728297       27.3016036152        9.4349495899
C         19.9359725810       36.2538117837       13.0962551784
C         22.4531523346       36.0268351300       13.0739410334
C         17.9971805204       31.2681965404       16.9725860237
C         16.8307476943       33.3467099577       16.4920569524
C         16.7704759196       30.5871620659       16.9901935843
C         15.6017174852       32.6650806681       16.5111158291
C         15.5625415658       31.2769562354       16.7595131680
F         16.7686665116       29.2566389703       17.2293345813
O         14.3732674115       30.5696341753       16.7824887060
C         13.0860551297       31.1718728984       16.5438856485
H         20.0500884255       22.7800732611        6.2993361353
H         21.2632673777       21.9974596357        8.3107079803
H         22.0089886739       23.6147310094       10.0352332020
H         20.3180848586       26.8487539672        7.7292949008
H         21.6990959797       28.1241235658        8.9562969381
H         23.2782382294       27.2883578326        9.1282030934
H         23.6248193096       28.4241699943       11.1235426207
H         21.3990303754       29.0988307545       13.0507278293
H         20.0778181704       31.4204646008       11.6917912522
H         21.4767703821       32.1152896277       13.5671623060
H         18.7802365996       29.4700434801       13.6609457327
H         17.9773583725       30.7499030052       12.7766226062
H         20.9756109139       31.4290167027       15.6844258060
H         19.2965137026       33.2756281547       13.0268731042
H         18.5053668206       32.3522363726       14.2727609347
H         18.2584104476       30.6375892464       10.0889461978
H         18.6894102409       27.2744057915       12.7641337871
H         21.2125048333       35.4074061813       15.4277938146
H         21.9766821915       33.9599929922       14.7838599516
H         17.7646011022       29.0795506242        8.2156219841
H         18.1920569251       25.7223018934       10.8913396189
H         21.0609707511       34.5008950571       12.5056582399
H         17.7143872191       26.6211870871        8.6175670829
H         19.9675761949       36.7249904185       12.1056251400
H         18.9734393536       35.7351782553       13.1859719266
H         19.9607100462       37.0496835288       13.8516676266
H         22.5763452585       36.8289869014       13.8131668748
H         23.3065151776       35.3430356524       13.1689103226
H         22.4976870946       36.4780421675       12.0743289236
H         18.9158770523       30.7149190274       17.1469506163
H         16.8498497231       34.4159741306       16.2922771048
H         14.6894287873       33.2245814087       16.3291701134
H         13.0464995919       31.6186381627       15.5419751573
H         12.2976880070       30.4115661692       16.6116864417
H         12.8772232734       31.9497955410       17.2896643956
    82
VM2 Rank=3      G=230.483           E=142.261           -TS=88.223              
C         22.4178531115       24.5212068765        6.0219671085
C         23.3147283569       24.3817877755        7.0927491721
C         21.3584869938       25.4507741772        6.0925364439
C         23.1648505247       25.1690848440        8.2444427461
C         20.3680798578       25.6193658489        4.9340756496
C         21.2268541427       26.2436894152        7.2517891886
C         22.1180423060       26.1041291267        8.3325356546
F         19.0933129156       25.7455496563        5.3673514406
F         20.6402451331       26.7242807584        4.2055673283
F         20.3703620048       24.5771561040        4.0720031590
N         21.9641203990       26.9053993633        9.4971794196
C         21.7401739273       28.3435295865        9.4088141768
C         22.0215649287       26.4676600240       10.8067813278
C         21.6370431411       28.7866579335       10.8786885600
O         22.2042045819       25.3278384896       11.1981668146
O         21.8469201459       27.5525630485       11.6134696565
C         20.2818694205       29.4481091653       11.1975116116
N         19.5374733682       28.8383712906       12.1841040810
O         19.8648317274       30.4151812005       10.5835390645
C         18.0797311830       28.9926113337       12.3203821359
C         17.7114539295       29.8459691439       13.5677967989
C         17.4322415406       27.5851151757       12.3394499794
O         16.2918098145       29.8899161184       13.7274253383
C         18.2593215002       31.2964715208       13.4571479535
C         17.8373461225       26.7279173365       11.1452926806
N         18.3087701391       32.0486893089       14.7402995227
C         17.3710441409       27.0440323442        9.8560082330
C         18.6847820515       25.6179792274       11.3194598579
C         19.1599137483       31.4722258769       15.8165861022
S         16.8703915053       32.8266315019       15.2338364385
C         17.7408417440       26.2550010201        8.7538662826
C         19.0534556071       24.8272017427       10.2185469994
C         20.6136299989       31.1378496715       15.3900624768
C         17.4256921402       33.9903755610       16.5016342084
O         16.4761981157       33.6485103765       14.0835922342
O         15.9914935627       31.7871971316       15.7852578022
C         18.5780459355       25.1428733199        8.9362996598
C         21.3616103770       32.3951480043       14.8910134172
C         21.3797948015       30.5080449917       16.5720710400
C         17.1058854235       33.7745321258       17.8555906220
C         18.2040043730       35.1080665280       16.1437696756
C         17.5574326823       34.6696907693       18.8376435697
C         18.6570537857       36.0040827437       17.1273000760
C         18.3361679783       35.7911512554       18.4845332886
F         17.2345170986       34.4343843806       20.1291006964
O         18.7644186887       36.6491588200       19.4823953023
C         19.5699350248       37.8178379849       19.2333650044
H         22.5513512773       23.9030559806        5.1372360696
H         24.1275390701       23.6621304866        7.0300504603
H         23.8664106721       25.0521370661        9.0666695673
H         20.4137372634       26.9621264184        7.3153162283
H         20.8108505468       28.5601744618        8.8663888472
H         22.5857760325       28.8335334447        8.9098866124
H         22.4264579100       29.5093813135       11.1188465444
H         19.9740783068       28.0344484511       12.6182798602
H         17.6949090427       29.5204041775       11.4362780405
H         18.1647576153       29.3534532265       14.4373708106
H         17.6945587663       27.0794150593       13.2772169975
H         16.3396269507       27.6867480963       12.3493994672
H         16.1032521868       30.3706971538       14.5683333693
H         19.2691710015       31.2644232463       13.0358733329
H         17.6554263506       31.8417445655       12.7196485759
H         16.7197576996       27.9015290208        9.7093577492
H         19.0594430723       25.3659917041       12.3079143943
H         19.2276337248       32.1744105192       16.6567023759
H         18.6850390260       30.5643625428       16.2120634972
H         17.3753240216       26.5025188495        7.7603650220
H         19.7100541764       23.9721024408       10.3597877922
H         20.5953846073       30.3939727674       14.5820902341
H         18.8611508547       24.5286992539        8.0853954477
H         21.4058980617       33.1642091162       15.6728214913
H         22.3903379735       32.1479541285       14.5996937894
H         20.8660241404       32.8329229567       14.0155476347
H         22.4012799961       30.2368597667       16.2757754776
H         21.4464108034       31.2038324763       17.4185352969
H         20.8810142956       29.5946427284       16.9209136626
H         16.5107125191       32.9139721373       18.1489806368
H         18.4610201579       35.2781907595       15.1004012100
H         19.2561862805       36.8567304728       16.8232603449
H         19.7825986543       38.3352517235       20.1774294624
H         20.5262229856       37.5389045315       18.7721530347
H         19.0447202712       38.5170630395       18.5698725299
    82
VM2 Rank=4      G=230.514           E=142.295           -TS=88.219              
C         22.3628602800       24.5939230659        6.0351550752
C         23.2789065708       24.4395356934        7.0876052179
C         21.3224416869       25.5428177414        6.1254446157
C         23.1620454980       25.2252970344        8.2442159940
C         20.3015143363       25.7107851552        4.9938474406
C         21.2157974558       26.3243466096        7.2949345777
C         22.1263807670       26.1698261156        8.3570682477
F         19.1590376584       25.0380893374        5.2542563340
F         19.9538369192       27.0036523840        4.8032187726
F         20.7519201253       25.2629061464        3.7997546608
N         21.9981195411       26.9616511791        9.5307209707
C         21.8024550682       28.4048264141        9.4591107578
C         22.0520159223       26.5081374929       10.8349253118
C         21.6644516425       28.8253687615       10.9327548362
O         22.2254461461       25.3624469128       11.2130037216
O         21.8944477314       27.5866060313       11.6537817023
C         20.2838625815       29.4411679109       11.2351935270
N         19.5410804003       28.7983429095       12.2020266925
O         19.8494513348       30.4039795180       10.6266129656
C         18.0808596907       28.9302698730       12.3364676454
C         17.6983448826       29.7685527719       13.5902067739
C         17.4538614045       27.5133852048       12.3464375362
O         16.2780878761       29.7902336662       13.7490670663
C         18.2238357631       31.2283053099       13.4933132326
C         17.8637512045       26.6709733627       11.1435108011
N         18.2660948728       31.9671730250       14.7844318117
C         17.3704862764       26.9785303930        9.8621904689
C         18.7385435844       25.5801834816       11.3023436782
C         19.1309948443       31.3931097047       15.8510885071
S         16.8171748677       32.7161225569       15.2917450731
C         17.7397745597       26.1989674771        8.7530129186
C         19.1073824871       24.7993680853       10.1944294838
C         20.5878781080       31.0858419152       15.4149738606
C         17.3593409434       33.8732952071       16.5711241202
O         16.4070988346       33.5461751588       14.1529922347
O         15.9564558266       31.6560526786       15.8325148315
C         18.6039329854       25.1052075819        8.9205479923
C         21.3139055927       32.3593682066       14.9246618633
C         21.3692300656       30.4568397296       16.5874105575
C         18.1125784212       35.0095894674       16.2202828373
C         17.0559709028       33.6346853631       17.9255968592
C         18.5539084695       35.8976615897       17.2129939957
C         17.4977525740       34.5244443503       18.9201286270
C         18.2515362867       35.6647622460       18.5705414632
F         19.2769034550       36.9785963243       16.8436698977
O         18.7058870395       36.5626944375       19.5205942386
C         18.4603565151       36.4169044184       20.9330902025
H         22.4638550871       23.9698252504        5.1502454327
H         24.0787778003       23.7071380979        7.0082973597
H         23.8765642692       25.0958853527        9.0533330816
H         20.4050411458       27.0428050775        7.3836817900
H         20.8961799652       28.6506521163        8.8909091842
H         22.6735601195       28.8848432431        8.9956312243
H         22.4268351959       29.5683971559       11.1970272418
H         19.9910305527       28.0008547265       12.6342977780
H         17.6896455230       29.4582818908       11.4552918780
H         18.1579481624       29.2756439056       14.4562273118
H         17.7276922600       27.0035952098       13.2786865809
H         16.3599695882       27.5991537718       12.3626536867
H         16.0823114761       30.2582921538       14.5955014361
H         19.2326391847       31.2165281683       13.0689099757
H         17.6093481640       31.7722623785       12.7636229773
H         16.6974008303       27.8210509998        9.7275595539
H         19.1337369909       25.3347878869       12.2844501591
H         19.1914534009       32.0874414920       16.6982613514
H         18.6721353508       30.4739158290       16.2392103681
H         17.3523122377       26.4390058723        7.7660543418
H         19.7849918453       23.9589296024       10.3239552537
H         20.5775997163       30.3494635916       14.6000647574
H         18.8863023104       24.4973564909        8.0648898087
H         21.3500634829       33.1215544343       15.7136092822
H         22.3449608809       32.1310021552       14.6262895391
H         20.8075692021       32.7978674764       14.0557338179
H         22.3934464184       30.2045281392       16.2839545638
H         21.4288776713       31.1454629259       17.4402278596
H         20.8863861101       29.5324489650       16.9296647102
H         18.3596335119       35.2018473870       15.1795892940
H         16.4790721402       32.7567831336       18.2082934931
H         17.2500124248       34.3166832147       19.9564382890
H         18.9192575990       37.2491773144       21.4816651090
H         17.3827506726       36.4211449538       21.1422206409
H         18.8924446378       35.4797795264       21.3073833061
    82
VM2 Rank=5      G=230.524           E=142.629           -TS=87.895              
C         21.4343374557       23.5105853254        5.9623321028
C         21.7634547162       22.8182886590        7.1382043829
C         21.2117495451       24.9035142772        5.9900864492
C         21.8670902823       23.5078979877        8.3556971876
C         20.8354226883       25.6664562953        4.7142790928
C         21.3148758699       25.5834377427        7.2221590172
C         21.6387775691       24.8946553287        8.4063091335
F         21.2850367776       25.0671139937        3.5882739222
F         19.4956024707       25.7817469599        4.5837844479
F         21.3352393645       26.9229401647        4.6953945602
N         21.7365013764       25.5953212063        9.6396362567
C         22.4932619245       26.8361756675        9.7556098228
C         21.1814609726       25.2124752670       10.8456355076
C         22.2522075728       27.2720322266       11.2135366945
O         20.5171938449       24.2151877090       11.0694549218
O         21.5423106945       26.1389461725       11.7775178001
C         21.4320747021       28.5747410628       11.3252694092
N         20.4908305172       28.5956891172       12.3316315506
O         21.5698710597       29.5123812330       10.5571547086
C         19.3663495021       29.5396515063       12.3934702483
C         19.2940849892       30.1898907056       13.8036573176
C         18.0550073566       28.8290830703       11.9657137720
O         19.0511096854       29.1874611129       14.7961729702
C         18.2129376372       31.3013684915       13.8806630088
C         18.1542924889       28.1540660960       10.6025428603
N         18.3426671051       32.2238971828       15.0416120624
C         18.2388812386       28.9289385221        9.4313378716
C         18.1612280762       26.7503560488       10.5027201496
C         19.6013391530       33.0125443568       15.1311601967
S         17.6626559689       31.7027293373       16.5200710807
C         18.3217617577       28.3079464296        8.1737542583
C         18.2418285872       26.1281220626        9.2458803165
C         19.9448395695       33.8328728498       13.8609130427
C         17.5472737775       33.2212807548       17.4948886395
O         16.2802083090       31.3393950630       16.1871727599
O         18.6017511838       30.7367941559       17.1047290538
C         18.3164823759       26.9071329296        8.0806068608
C         18.8270530611       34.8456483938       13.5225888548
C         21.2824105373       34.5766191833       14.0581941867
C         16.6312286770       34.2255129874       17.1289119666
C         18.3870318716       33.4219781470       18.6075627534
C         16.5548307362       35.4147890171       17.8696320394
C         18.3102615426       34.6131512859       19.3499682366
C         17.3918412046       35.6204260264       18.9857545214
F         15.6661598736       36.3605857494       17.4911371158
O         17.2879026577       36.8071785150       19.6901133448
C         18.0972816722       37.1219936228       20.8401035429
H         21.3505214405       22.9588945479        5.0287919582
H         21.9359832511       21.7450966368        7.1064583035
H         22.1229774247       22.9609769977        9.2597869116
H         21.1263486840       26.6532286655        7.2592780966
H         22.1279511050       27.5876290999        9.0445401762
H         23.5592046552       26.6459434753        9.5781491320
H         23.2022915535       27.4298911146       11.7382194120
H         20.4528311129       27.7803869209       12.9314950874
H         19.5541306783       30.3494421773       11.6747640898
H         20.2764900986       30.6458787270       13.9814182954
H         17.7799478220       28.0897985981       12.7287884102
H         17.2332341886       29.5541711732       11.9404656706
H         19.1030932358       29.6250840793       15.6785838664
H         18.2534063366       31.8848675043       12.9532080703
H         17.2223034563       30.8282170204       13.8926560540
H         18.2412906041       30.0135702526        9.4963320837
H         18.1047310634       26.1392659215       11.3997835189
H         19.5381342972       33.7255531501       15.9624898147
H         20.4396748006       32.3429947115       15.3656059956
H         18.3848253581       28.9123939331        7.2724421177
H         18.2467642040       25.0429849027        9.1764370537
H         20.0739563199       33.1508423441       13.0095176986
H         18.3713062944       26.4259912536        7.1077066834
H         19.0839784596       35.4267918156       12.6278015597
H         17.8749170547       34.3376879912       13.3248957575
H         18.6681794536       35.5494306800       14.3497679074
H         21.5546703317       35.1377172608       13.1549473884
H         21.2228911781       35.2872914206       14.8927627338
H         22.0963219685       33.8711381769       14.2695646624
H         15.9822696123       34.0863301935       16.2683877813
H         19.1022029342       32.6546110987       18.8958900500
H         18.9691687892       34.7421237001       20.2030140955
H         19.1624430558       37.1289883506       20.5748154499
H         17.8331593082       38.1153673265       21.2243589362
H         17.9343339374       36.3898542443       21.6416074653
    82
VM2 Rank=6      G=230.536           E=142.313           -TS=88.223              
C         22.3403125444       24.5368998355        6.0450349360
C         23.2514356759       24.3737112734        7.1004389920
C         21.3155573478       25.5034017926        6.1273024899
C         23.1451461811       25.1682588071        8.2520639179
C         20.2999407163       25.6811927512        4.9924280296
C         21.2193935082       26.2936262308        7.2918441955
C         22.1250595201       26.1304791047        8.3568774168
F         19.9714094910       26.9780781346        4.7952069436
F         20.7468756858       25.2216139406        3.8014833607
F         19.1472322451       25.0261809421        5.2528214267
N         22.0072713903       26.9313100732        9.5254690960
C         21.8371600515       28.3772288615        9.4448140692
C         22.0486791825       26.4845397722       10.8324447320
C         21.6987328820       28.8083083666       10.9153637193
O         22.2017347680       25.3383596564       11.2177573767
O         21.9061729281       27.5702768017       11.6444556116
C         20.3262436253       29.4468961716       11.2072955854
N         19.5683379442       28.8208810795       12.1734529007
O         19.9099612090       30.4129349655       10.5911897802
C         18.1094708461       28.9755829013       12.2981934820
C         17.7314738784       29.8305460934       13.5420546873
C         17.4613806755       27.5683083915       12.3167938428
O         16.3105343875       29.8767064109       13.6892410556
C         18.2818076242       31.2805780578       13.4372536297
C         17.8635934075       26.7102429394       11.1223816777
N         18.3191708751       32.0325118821       14.7209794136
C         17.3801683982       27.0147909296        9.8365937173
C         18.7210209901       25.6076154481       11.2936235562
C         19.1584331285       31.4547150979       15.8058619481
S         16.8772786693       32.8131048564       15.1998422809
C         17.7419697522       26.2207118258        8.7352736892
C         19.0823680206       24.8123150247       10.1935673259
C         20.6156584115       31.1171611833       15.3939800507
C         17.4219787345       33.9763053915       16.4727226086
O         16.4959779487       33.6352560549       14.0454571155
O         15.9912043542       31.7753271404       15.7428180403
C         18.5887449641       25.1153853752        8.9151886610
C         21.3712138330       32.3726519860       14.9018271670
C         21.3687059910       30.4863126295       16.5838293257
C         17.0884982314       33.7613679106       17.8235186367
C         18.2056289069       35.0926073077       16.1222477578
C         17.5318207422       34.6560582395       18.8097356148
C         18.6504457084       35.9881522257       17.1099582052
C         18.3158431975       35.7761370322       18.4640196265
F         17.1958074578       34.4216443602       20.0980088817
O         18.7356253231       36.6337324928       19.4658266076
C         19.5455186458       37.8009922507       19.2244568146
H         22.4327889548       23.9058862540        5.1641054577
H         24.0392055169       23.6276804458        7.0273163093
H         23.8556178149       25.0319066280        9.0636018925
H         20.4203940477       27.0258398183        7.3745974836
H         20.9384642366       28.6357553827        8.8702574912
H         22.7190589056       28.8392997640        8.9835152421
H         22.4710819221       29.5411532927       11.1791288046
H         20.0035332640       28.0190139700       12.6126739548
H         17.7313466522       29.5014531390       11.4100493450
H         18.1762135571       29.3375674857       14.4157779429
H         17.7235907490       27.0620294573       13.2542821803
H         16.3688271862       27.6704111619       12.3275235551
H         16.1151992373       30.3580718419       14.5282514758
H         19.2959419555       31.2478348774       13.0268662808
H         17.6861762849       31.8265961610       12.6936064110
H         16.7204311485       27.8662404817        9.6924044148
H         19.1084389460       25.3641822609       12.2793095033
H         19.2191832243       32.1570573662       16.6463845789
H         18.6777823349       30.5479484992       16.1968636194
H         17.3621161303       26.4585321169        7.7448249189
H         19.7466015451       23.9627774831       10.3326605913
H         20.6039389763       30.3729175631       14.5862377726
H         18.8653164657       24.4964116225        8.0656294632
H         21.4093294205       33.1419652396       15.6837145612
H         22.4022785535       32.1231827711       14.6208967809
H         20.8853060241       32.8111250324       14.0213024348
H         22.3925245867       30.2128627753       16.2978460311
H         21.4283442717       31.1823526522       17.4306076566
H         20.8645760309       29.5741149609       16.9281060643
H         16.4890471444       32.9018705759       18.1112577697
H         18.4731941078       35.2620100940       15.0814172273
H         19.2539546966       36.8397242044       16.8116129266
H         19.7495877061       38.3183954815       20.1704220423
H         20.5059069226       37.5203155867       18.7729239590
H         19.0281162448       38.5008448804       18.5555104937
    82
VM2 Rank=7      G=230.546           E=142.881           -TS=87.666              
C         21.6923869826       24.5274500853        5.2307564553
C         22.0804753559       25.8193474729        5.6175210735
C         21.0788906311       23.6573799179        6.1564732402
C         21.8630751822       26.2557654534        6.9328662151
C         20.6627492061       22.2389446715        5.7480222638
C         20.8737353998       24.1067071967        7.4784875651
C         21.2540413495       25.4040124001        7.8729001860
F         19.5261392208       21.8357244389        6.3599646191
F         20.4366679211       22.1152008439        4.4201440190
F         21.6140947284       21.3329697280        6.0642160004
N         21.0356710690       25.8436875785        9.2091302104
C         22.0574687593       26.5739503431        9.9501732401
C         19.8989121392       25.6338012540        9.9669918355
C         21.4067900027       26.8233716050       11.3241585495
O         18.8788657137       25.0608113026        9.6245447019
O         20.1195501113       26.1654298796       11.2018812597
C         21.2634019069       28.3209132867       11.6656953678
N         20.0734034135       28.6802747531       12.2608971366
O         22.1174640838       29.1470477803       11.3895025165
C         19.5387219697       30.0491236338       12.2702571371
C         19.0811562906       30.4340373317       13.7052445197
C         18.4215510495       30.1881102674       11.2016513283
O         18.0249516204       29.5683888027       14.1344416163
C         18.6359481825       31.9184047184       13.7978704070
C         18.8553735598       29.7253924362        9.8152792480
N         18.5581948422       32.4655812703       15.1799901811
C         18.2979754325       28.5650670339        9.2464223211
C         19.8238236320       30.4490823524        9.0957778408
C         19.8206649376       32.4734551522       15.9675441225
S         17.1190122214       32.1622596777       16.0497982868
C         18.6991025838       28.1367184727        7.9701670538
C         20.2289824007       30.0193609233        7.8210591423
C         21.0152072552       33.1753521437       15.2712545869
C         17.1722719000       33.3689349893       17.3953970252
O         16.0427978939       32.6101801282       15.1580939471
O         17.1993152453       30.7798659133       16.5389707954
C         19.6632165050       28.8652769820        7.2561607125
C         20.6961451627       34.6547423287       14.9562362326
C         22.2712690196       33.0896422926       16.1635192033
C         17.0231973691       34.7408731206       17.1176967066
C         17.3882460900       32.9504435364       18.7226985546
C         17.0866134952       35.6819801892       18.1565297316
C         17.4513090993       33.8931063874       19.7635454935
C         17.3007491832       35.2685929873       19.4876427585
F         16.9417628200       36.9921818459       17.8566670568
O         17.3586256823       36.2268388481       20.4844986428
C         17.5780313797       35.9152162429       21.8742588924
H         21.8733113027       24.2042670577        4.2081896759
H         22.5509582797       26.4836907621        4.8965752379
H         22.1638783025       27.2612213753        7.2136801398
H         20.4166003030       23.4388423734        8.2047203205
H         22.2964979488       27.5195042709        9.4469425903
H         22.9654592861       25.9662556742       10.0509859282
H         21.9961930967       26.3542588004       12.1213100623
H         19.4288694402       27.9264189357       12.4666294292
H         20.3490284471       30.7383485082       11.9947181807
H         19.9544826758       30.2902835519       14.3543248531
H         17.5407414827       29.6187703520       11.5248323820
H         18.0976324178       31.2336447350       11.1400966354
H         17.8267959599       29.7862260383       15.0757754273
H         19.3369627340       32.5244278142       13.2116990282
H         17.6622635977       32.0250493267       13.3019136597
H         17.5554791019       27.9910260886        9.7945578407
H         20.2670719239       31.3421567485        9.5277622095
H         19.6625954988       32.9883335797       16.9232699914
H         20.1045947029       31.4427535524       16.2187591618
H         18.2658362769       27.2381639831        7.5375284444
H         20.9789887174       30.5821339150        7.2711321643
H         21.2470286314       32.6555396775       14.3317028569
H         19.9728647995       28.5343354612        6.2680425323
H         19.8376228057       34.7421802117       14.2787642967
H         20.4607117993       35.2117084300       15.8722806757
H         21.5507450703       35.1443278495       14.4721415439
H         22.5327297913       32.0445417656       16.3738469758
H         23.1339317111       33.5555631381       15.6700198826
H         22.1135210679       33.6004269666       17.1223300655
H         16.8629334344       35.0778365861       16.0970142825
H         17.5100258460       31.8930770583       18.9476452858
H         17.6188654571       33.5434465761       20.7775193665
H         16.7804205153       35.2653127539       22.2569210950
H         18.5441370169       35.4123965806       22.0113970845
H         17.5839371012       36.8372575271       22.4692455499
    82
VM2 Rank=8      G=230.608           E=142.106           -TS=88.502              
C         20.2942565938       23.5131013859        7.0718312545
C         20.9714043866       23.0429780649        8.2079143464
C         20.0662234770       24.8941657041        6.8948951083
C         21.4218772350       23.9456951962        9.1829908966
C         19.3133621025       25.4185152114        5.6662445791
C         20.5209713115       25.7901087293        7.8854762832
C         21.1951286535       25.3252892270        9.0305071844
F         19.7829228869       26.6142812967        5.2437345526
F         19.3923081244       24.5873250508        4.6022046206
F         17.9989346994       25.5901910582        5.9275458107
N         21.6447039774       26.2422296693       10.0200206493
C         22.3732985426       27.4539573727        9.6639058934
C         21.4892637047       26.1141760193       11.3870441389
C         22.5843278194       28.1607260296       11.0165130455
O         20.9448373043       25.2028818182       11.9862780214
O         22.0968604858       27.1840776272       11.9726963947
C         21.8216397627       29.4981122951       11.1242461892
N         21.2385911127       29.7481095369       12.3475831693
O         21.7018401999       30.2701846548       10.1873536693
C         20.1743883213       30.7360943068       12.5711380406
C         20.5246593038       31.6191415199       13.8019493786
C         18.8029121262       30.0178146841       12.6890723552
O         20.6030016624       30.8084766120       14.9782652675
C         19.5089927976       32.7756378938       14.0010932465
C         18.5016789995       29.0943479652       11.5143495854
N         19.9157907830       33.8039413950       15.0005782764
C         18.2332403598       29.6295977926       10.2412857907
C         18.4860000224       27.6985642656       11.6929811452
C         21.1632472198       34.5566693366       14.7107420449
S         19.6365625763       33.5022640456       16.6616455713
C         17.9448305916       28.7796995865        9.1603265544
C         18.1954204161       26.8477235189       10.6136634936
C         21.2172051952       35.2270949705       13.3126551359
C         18.0364711460       32.6566508211       16.7058218462
O         20.7180103557       32.6171680678       17.1136081745
O         19.4135573448       34.8305584575       17.2449629752
C         17.9191389243       27.3886491128        9.3482230173
C         20.0543323976       36.2262062191       13.1155902757
C         22.5668460082       35.9516317066       13.1258892093
C         17.9652838698       31.2718454705       16.9520224028
C         16.8504130230       33.3767378203       16.4639380386
C         16.7238995198       30.6177084115       16.9524179283
C         15.6066826124       32.7220415253       16.4657018166
C         15.5342101500       31.3343883746       16.7091997970
F         16.6901355650       29.2868623474       17.1873503572
O         14.3296038834       30.6531445977       16.7154246916
C         13.0587324448       31.2842332272       16.4641177760
H         19.9451703754       22.7983991487        6.3300818829
H         21.1451673305       21.9769798219        8.3342765365
H         21.9455838458       23.5694654318       10.0582868886
H         20.3340033496       26.8544142397        7.7687211803
H         21.7894480106       28.0742496239        8.9724331418
H         23.3362586888       27.1949515808        9.2061576938
H         23.6474255859       28.3682577080       11.1886165113
H         21.3991031554       29.0604615880       13.0738063325
H         20.1285702587       31.4007855943       11.6972718185
H         21.5104714758       32.0583963964       13.5994847678
H         18.7726781270       29.4482802528       13.6268464958
H         18.0005974293       30.7606993679       12.7633015395
H         20.9627131007       31.3703292594       15.7037677484
H         19.3591847308       33.2616679610       13.0297009428
H         18.5343160612       32.3502150406       14.2625531887
H         18.2492900577       30.7054171635       10.0897306110
H         18.6993278536       27.2709933495       12.6692191897
H         21.2835613371       35.3501847790       15.4614917366
H         22.0288587395       33.8902093525       14.8239265861
H         17.7362805673       29.1996870913        8.1796205975
H         18.1849863780       25.7701935426       10.7591105626
H         21.1537207361       34.4537247909       12.5352251970
H         17.6867968111       26.7309000741        8.5149001613
H         19.0810550938       35.7256997566       13.1912333282
H         20.0841199942       37.0196520462       13.8733681494
H         20.1079513952       36.6990760452       12.1267145660
H         22.6331299137       36.4043480551       12.1281667964
H         22.6954033729       36.7495004425       13.8688266396
H         23.4057895677       35.2515543489       13.2302605266
H         18.8694945908       30.6981594703       17.1359014652
H         16.8952695903       34.4459326134       16.2679404316
H         14.7091139609       33.3018530416       16.2743764178
H         12.2532215909       30.5411083344       16.5198311352
H         12.8581910593       32.0638875946       17.2103648977
H         13.0406886845       31.7353077783       15.4635214709
    82
VM2 Rank=9      G=230.609           E=142.712           -TS=87.897              
C         21.4933915247       23.5148403783        5.9715150652
C         22.0415196589       22.9359593833        7.1268127655
C         21.0852371937       24.8653886980        5.9720309259
C         22.1816865764       23.6970705505        8.2971318453
C         20.4699918328       25.5026886576        4.7203520852
C         21.2278311671       25.6176226534        7.1572490760
C         21.7712367005       25.0419665359        8.3212406838
F         20.7880022420       26.8112008083        4.5955228310
F         20.8707611969       24.9083452218        3.5734462473
F         19.1208541901       25.4334736989        4.7421514700
N         21.9058213485       25.8140574141        9.5075624283
C         22.4919017191       27.1489693406        9.4880833415
C         21.5447210327       25.4254472238       10.7833594610
C         22.3555176806       27.6253588464       10.9468852265
O         21.0527636370       24.3621835018       11.1200709220
O         21.8743771462       26.4397627353       11.6315524565
C         21.3818484332       28.8124497412       11.1047379466
N         20.5635043983       28.7618802390       12.2123984735
O         21.3040936680       29.7183104582       10.2913953578
C         19.3337948949       29.5508461624       12.3695070125
C         19.3281280525       30.2576421985       13.7540925655
C         18.0933851881       28.6520270223       12.1224540369
O         19.3355363284       29.2843421549       14.8036745324
C         18.1195936136       31.2187145210       13.9154022673
C         18.1341720860       27.9265389753       10.7824038573
N         18.2486865504       32.2100773808       15.0182485922
C         18.3234446448       26.5329078011       10.7335214070
C         17.9820979667       28.6441681361        9.5819131823
C         19.3892674440       33.1617967920       14.9312519524
S         17.8144151434       31.6814880154       16.5841467223
C         18.3504846288       25.8627140542        9.4992497506
C         18.0111102693       27.9754681007        8.3465949238
C         19.4763424810       33.9507337693       13.5991436253
C         17.6037627553       33.2193387413       17.5117841307
O         16.4661819968       31.1227760671       16.4288528908
O         18.9354693633       30.8788615388       17.0898408890
C         18.1887219771       26.5834327775        8.3056410444
C         18.2003305224       34.7880686817       13.3537156585
C         20.7131005487       34.8734744232       13.6117094861
C         18.5262703735       33.5795003594       18.5124319611
C         16.5274714787       34.0793979853       17.2203572283
C         18.3697260056       34.7846867374       19.2143197607
C         16.3711657000       35.2868457695       17.9225404216
C         17.2931031055       35.6490938867       18.9271343898
F         19.2728633923       35.1028267495       20.1685895654
O         17.1747448204       36.8296662627       19.6395485365
C         16.1195673219       37.7865888497       19.4214310005
H         21.3848217419       22.9079776181        5.0755168939
H         22.3558829388       21.8950105302        7.1160124859
H         22.6079644235       23.2378699596        9.1856144816
H         20.8988572734       26.6533921609        7.1753130701
H         21.9497681230       27.8064373914        8.7970058209
H         23.5476868917       27.0932628741        9.1946048847
H         23.3269956463       27.9346472230       11.3511693703
H         20.7041588217       27.9814095551       12.8425469945
H         19.3287644217       30.3401774850       11.6049845592
H         20.2521326183       30.8481678226       13.8003476634
H         18.0077517247       27.9232698103       12.9385801391
H         17.1821466531       29.2598434759       12.1661383458
H         19.4236386316       29.7698602178       15.6577144819
H         17.9766312260       31.7528783538       12.9685618623
H         17.2108893996       30.6198637000       14.0603841812
H         18.4505383315       25.9669612575       11.6527056621
H         17.8422382038       29.7214234527        9.6067432329
H         19.3196196095       33.9040423279       15.7360289631
H         20.3321463526       32.6224651761       15.0930794395
H         18.4971807456       24.7857054313        9.4691749892
H         17.8909212130       28.5355050304        7.4226836689
H         19.6036346349       33.2469446427       12.7653673985
H         18.2020266552       26.0641591804        7.3510654273
H         18.0382889940       35.5080353073       14.1662012005
H         18.2758825607       35.3491974659       12.4136053109
H         17.3107731402       34.1493837090       13.2871642970
H         20.8055866753       35.4162470200       12.6621551175
H         20.6486217161       35.6138784778       14.4196378732
H         21.6340492326       34.2935584186       13.7544814167
H         19.3652535164       32.9294554557       18.7457428207
H         15.8140497911       33.8113337128       16.4439770937
H         15.5329412623       35.9312708174       17.6765606655
H         15.1382646709       37.3318052317       19.6090616344
H         16.2385684805       38.6383836186       20.1029628464
H         16.1459009198       38.1651972790       18.3913975831
    82
VM2 Rank=10     G=230.656           E=142.155           -TS=88.501              
C         19.8549091284       23.7285829641        6.7308094531
C         20.1334922357       23.0339778006        7.9183067935
C         20.0239761403       25.1276925770        6.6634400912
C         20.5769520525       23.7293711240        9.0533725171
C         19.7071822581       25.8994789424        5.3768464873
C         20.4664702196       25.8145993246        7.8137171353
C         20.7416646837       25.1254048983        9.0099215214
F         18.4520519108       26.3992213985        5.3960938140
F         20.5382838791       26.9490177131        5.1855251848
F         19.8042319494       25.1365106098        4.2643067045
N         21.1847188061       25.8339377822       10.1604246182
C         22.2532344106       26.8230558456       10.0839825172
C         20.7128769848       25.6797505986       11.4499413520
C         22.3399553363       27.3745880931       11.5199154019
O         19.8412217827       24.9176698243       11.8312477741
O         21.4295614611       26.5149857282       12.2534271902
C         21.9327957773       28.8597725579       11.6216681907
N         21.1828078858       29.1916133989       12.7291114955
O         22.2146766381       29.6843083296       10.7679172075
C         20.3794230825       30.4159265413       12.8484499552
C         20.6674802681       31.1050360572       14.2121351146
C         18.8790566253       30.0876541776       12.6206530308
O         20.2832119137       30.2415566270       15.2863661892
C         19.9582372345       32.4801561012       14.3343941653
C         18.6144307193       29.3436345218       11.3168859449
N         20.3866649847       33.3074596517       15.4980410915
C         18.7655945385       30.0000198447       10.0817765054
C         18.2131753083       27.9949373217       11.3366584841
C         21.8164436018       33.7084701638       15.5390010405
S         19.6868240725       33.0087673631       17.0307098485
C         18.5111233508       29.3183688173        8.8798729900
C         17.9560928793       27.3128633136       10.1358417406
C         22.3397036613       34.4098655300       14.2578754226
C         17.9525043511       32.6359443570       16.6699372444
O         20.3798782088       31.8386226446       17.5853510892
O         19.6926927266       34.3152113585       17.6996928574
C         18.0995685486       27.9764060276        8.9072629230
C         21.5399846824       35.6954074999       13.9461697595
C         23.8365646085       34.7502234255       14.4157507343
C         17.0733667201       33.6696852036       16.2946560525
C         17.4754349047       31.3118270029       16.7307033078
C         15.7360181962       33.3810753458       15.9825535682
C         16.1368388251       31.0222067342       16.4155716147
C         15.2554437883       32.0565690592       16.0373499534
F         14.9192468811       34.3959436996       15.6213946457
O         13.9320814110       31.8108687469       15.7156324536
C         13.3498503664       30.4927533517       15.7023368237
H         19.5044657239       23.1744149348        5.8630855444
H         20.0030505918       21.9551965954        7.9598920558
H         20.7899258207       23.1802282920        9.9671820628
H         20.5819859948       26.8947726065        7.7788414271
H         22.0062884470       27.6129354443        9.3636435769
H         23.1952118345       26.3399911159        9.7954759206
H         23.3586560567       27.2802132527       11.9151478170
H         21.0057155965       28.4485902482       13.3943701406
H         20.6914637978       31.1142567897       12.0594449776
H         21.7518979091       31.2726026801       14.2533988250
H         18.5057808454       29.4977315977       13.4675019306
H         18.2931588260       31.0138471930       12.6187978594
H         20.6015094780       30.6497483852       16.1251417697
H         20.1483104417       33.0389164618       13.4102948236
H         18.8751705408       32.3193571155       14.3551236169
H         19.0815610697       31.0392516388       10.0538043617
H         18.1002694507       27.4730610845       12.2833420886
H         21.9689921818       34.4004033511       16.3790701133
H         22.4388785749       32.8277985331       15.7469761953
H         18.6277718734       29.8318563025        7.9288772473
H         17.6463141157       26.2708219869       10.1587510184
H         22.2511292982       33.7235207989       13.4048716886
H         17.8933301475       27.4511390022        7.9784992518
H         21.6062400304       36.4112710330       14.7755204348
H         21.9242388553       36.1859979057       13.0428266663
H         20.4788495538       35.4741769241       13.7772158845
H         24.2295987764       35.2185650331       13.5041712805
H         24.0001309190       35.4442626462       15.2503970040
H         24.4269669563       33.8446452229       14.6059601392
H         17.4276159292       34.6955180112       16.2381200082
H         18.1445886209       30.5028127396       17.0148681605
H         15.7983082260       29.9920955009       16.4666500629
H         12.2938769518       30.5518436800       15.4097480639
H         13.8696307289       29.8465037282       14.9831228950
H         13.4045013606       30.0340948627       16.6981216845
    82
VM2 Rank=11     G=230.670           E=142.512           -TS=88.158              
C         22.2479866442       24.1791565251        6.1782224281
C         22.9700400488       23.7910928940        7.3177066349
C         21.4028365659       25.3086902914        6.2173414728
C         22.8573795760       24.5261955696        8.5074799607
C         20.6043643479       25.7526164810        4.9858180889
C         21.3069011267       26.0439188202        7.4173342187
C         22.0228814256       25.6567017486        8.5658696300
F         19.3220419388       26.0513761969        5.2932879882
F         21.1352257235       26.8605428469        4.4232447647
F         20.5495141283       24.8141285920        4.0133734314
N         21.9079129443       26.4053634507        9.7693272520
C         21.9977512013       27.8608051278        9.7733327424
C         21.7266420612       25.8920821024       11.0395952806
C         21.8327247605       28.2313640098       11.2574560802
O         21.6226030068       24.7194908087       11.3556938103
O         21.6885278935       26.9418963796       11.9083474788
C         20.6274081617       29.1617808096       11.4959146489
N         19.6177729276       28.6434534297       12.2776173375
O         20.5374076568       30.2613224386       10.9771508002
C         18.2228628691       29.1077136144       12.2166339285
C         17.8584333911       30.0054335802       13.4322411307
C         17.2904297813       27.8785869678       12.0844577673
O         16.5030366315       30.4473269653       13.3272638642
C         18.7885712761       31.2444262891       13.5315306325
C         17.6549646424       26.9858861038       10.9037267387
N         18.4134553941       32.2494594379       14.5682162307
C         17.4111331920       27.4194569115        9.5876730009
C         18.2447360842       25.7261100442       11.1171242178
C         19.1908962769       33.5178814881       14.4839547988
S         18.1353405849       31.6203405694       16.1405976974
C         17.7460834503       26.6001401464        8.4966234031
C         18.5787138943       24.9055401460       10.0269593250
C         19.1376759858       34.2464559512       13.1139785874
C         18.1160077240       33.0493071688       17.2532923405
O         16.7616721946       31.1034906323       16.0886492435
O         19.2905349164       30.7724965592       16.4571586035
C         18.3259666536       25.3406281961        8.7167152122
C         17.6825082225       34.5204906036       12.6691461222
C         19.9178562748       35.5759181993       13.1947733832
C         19.2561441231       33.3773950192       18.0121412079
C         16.9645444257       33.8547189723       17.3530019170
C         19.2419671811       34.4960750219       18.8593659406
C         16.9506816196       34.9755043175       18.2010344724
C         18.0917647156       35.3052781951       18.9621312652
F         20.3534317023       34.7850579112       19.5725142991
O         18.1181141149       36.4012430511       19.8067617340
C         17.0025505387       37.2966594145       19.9812188863
H         22.3499381089       23.5969723019        5.2653857479
H         23.6183204789       22.9189048870        7.2787412444
H         23.4225845685       24.2159330061        9.3828071559
H         20.6565102621       26.9138883316        7.4570849842
H         21.1961368665       28.3017071721        9.1667995573
H         22.9744908025       28.1864723234        9.3938382711
H         22.7294476371       28.7439515946       11.6266524693
H         19.7953909342       27.7206280750       12.6547844081
H         18.0960231134       29.7165590192       11.3100704076
H         17.9789171513       29.3978116568       14.3395519079
H         17.3135033397       27.3034262166       13.0186384751
H         16.2537880548       28.2194158638       11.9677716078
H         16.2835110856       30.8471052565       14.2017488305
H         19.8121033741       30.8969636029       13.7238995824
H         18.7887736034       31.7030604772       12.5371657011
H         16.9598327822       28.3922432763        9.4113868820
H         18.4459258161       25.3806401204       12.1276158165
H         18.8141593515       34.2398400104       15.2172112673
H         20.2407886718       33.3189289335       14.7399644213
H         17.5529088379       26.9394447984        7.4820156886
H         19.0365185311       23.9343262429       10.1985316831
H         19.6322031384       33.6304641927       12.3507205194
H         18.5827115793       24.7042759001        7.8737381417
H         17.1222145242       33.5852242992       12.5421248179
H         17.1522213073       35.1337341433       13.4087990402
H         17.6604537323       35.0512583929       11.7089399467
H         19.4706220013       36.2559046767       13.9314546470
H         20.9622638831       35.4007932271       13.4834970988
H         19.9222912515       36.0860706942       12.2229124278
H         20.1545029390       32.7697159349       17.9451541470
H         16.0798961813       33.6129569863       16.7677391934
H         16.0500205631       35.5789374102       18.2570271120
H         17.2633087418       38.0860044359       20.6975603202
H         16.7343416362       37.7725659338       19.0290739916
H         16.1286353277       36.7570715156       20.3686551456
    82
VM2 Rank=12     G=230.697           E=142.685           -TS=88.011              
C         21.1828543077       25.1702545398        5.1849950860
C         20.1026208314       26.0208428456        5.4655245346
C         22.2465305575       25.0381511723        6.1022201656
C         20.0689868470       26.7432378010        6.6675354346
C         23.4271410983       24.1045620773        5.8081412532
C         22.1959785936       25.7649785884        7.3109175884
C         21.1119205261       26.6149359778        7.6035838386
F         23.6308186158       23.9119438400        4.4848630589
F         24.5956528185       24.5746383721        6.3011192499
F         23.2411896166       22.8819856679        6.3525296736
N         21.0749405863       27.3418547295        8.8271278862
C         20.6674277752       28.7415588480        8.8706560867
C         21.4223046450       26.8653233883       10.0778490011
C         20.8561167928       29.1311610830       10.3470478170
O         21.7951338106       25.7403329165       10.3632003560
O         21.2840165213       27.8902996642       10.9656472773
C         19.5732912167       29.7061312567       10.9781123867
N         19.0961070551       29.0282549113       12.0788631110
O         18.9812286161       30.6612476015       10.5054985385
C         17.6865188790       29.0583858637       12.5023157100
C         17.5116025762       29.8238670297       13.8444458376
C         17.1544054966       27.6041914322       12.5586572113
O         16.1524881384       29.7427615312       14.2791043364
C         17.9195906271       31.3177814829       13.7105425776
C         17.4079169719       26.8301277918       11.2693761571
N         18.1705868528       32.0178424872       14.9995877621
C         16.7489645501       27.1969103965       10.0815419469
C         18.3146556376       25.7540197973       11.2510793082
C         19.2607055749       31.4702780882       15.8522063210
S         16.8072473716       32.6510071368       15.8107718466
C         16.9908591125       26.4942878644        8.8893118427
C         18.5540889075       25.0481762507       10.0603976668
C         20.6202786329       31.2796516880       15.1296611581
C         17.5195394292       33.8042779832       17.0075718142
O         16.1308001720       33.4845056096       14.8099498146
O         16.1361288290       31.5193170979       16.4634038879
C         17.8913744899       25.4172305519        8.8795094805
C         21.1563065487       32.6163093400       14.5680725418
C         21.6530041395       30.6677648621       16.0991471888
C         18.1203746153       34.9977528251       16.5645985566
C         17.5019965481       33.5072169228       18.3841596968
C         18.6937538416       35.8843462937       17.4887694103
C         18.0760187139       34.3955065348       19.3101111050
C         18.6773764423       35.5930135941       18.8684281909
F         19.2646767659       37.0211262326       17.0312525459
O         19.2544537961       36.4915991129       19.7486776484
C         19.2980255080       36.2900489176       21.1749160920
H         21.1894776421       24.6129832960        4.2510521557
H         19.2880364603       26.1177109166        4.7517169805
H         19.2205399395       27.3898735141        6.8730858266
H         23.0073426745       25.6659693475        8.0279624163
H         19.6163245032       28.8445502516        8.5710260202
H         21.3039161654       29.3514377476        8.2171974844
H         21.6442856938       29.8880258309       10.4427557528
H         19.6623042191       28.2426452463       12.3753824322
H         17.0999016102       29.5936020559       11.7423084701
H         18.1634026683       29.3347011273       14.5793513403
H         17.6126299802       27.0854597065       13.4100566640
H         16.0758675226       27.6186001268       12.7606919148
H         16.1001050453       30.1699363048       15.1671724412
H         18.8235797467       31.3860306849       13.0965245871
H         17.1417224546       31.8413418233       13.1389489562
H         16.0503525933       28.0293043222       10.0827300820
H         18.8376759795       25.4643655560       12.1585062012
H         19.4425659905       32.1388095538       16.7027687073
H         18.9441050711       30.5091772005       16.2789855803
H         16.4789397277       26.7829157043        7.9748384540
H         19.2585781362       24.2200207590       10.0522223628
H         20.4962571290       30.5720494375       14.2987220421
H         18.0790475746       24.8720438952        7.9578325385
H         20.4637775803       33.0469445867       13.8341352415
H         21.2986213248       33.3525278836       15.3695715150
H         22.1213015104       32.4703768142       14.0663297425
H         21.8354816892       31.3300120507       16.9554104304
H         21.3043747574       29.7011026182       16.4848890483
H         22.6117716990       30.4976124227       15.5926148963
H         18.1469688583       35.2358033022       15.5045670649
H         17.0449938121       32.5851408683       18.7368143045
H         18.0487733520       34.1420847763       20.3653424400
H         19.8048862528       37.1349657069       21.6580415586
H         18.2835239205       36.2172216943       21.5877971397
H         19.8495547859       35.3732946909       21.4206225758
    82
VM2 Rank=13     G=230.707           E=142.956           -TS=87.752              
C         22.8484261025       26.7626802621        5.7508977521
C         23.7188207000       27.4119364466        6.6399552802
C         21.6272911434       26.2267230349        6.2110597173
C         23.3768527827       27.5403334898        7.9948532375
C         20.6546635445       25.5232673418        5.2570537526
C         21.2957430401       26.3662710942        7.5747314688
C         22.1593766169       27.0207549097        8.4735547282
F         19.6119293887       26.3211638996        4.9377161578
F         21.2258515179       25.1468046642        4.0902334136
F         20.1296606712       24.4011549559        5.7987033598
N         21.8002246979       27.1658611183        9.8445546906
C         22.0067211768       28.4212839820       10.5594159589
C         21.1967590617       26.2118074237       10.6442333594
C         21.5501699444       28.1021069477       11.9930384174
O         20.8795958416       25.0773795552       10.3303365708
O         21.0027835968       26.7640647945       11.8753541669
C         20.5445406332       29.1251664979       12.5539825079
N         19.3713545976       28.5960690518       13.0456360678
O         20.7451152327       30.3274562250       12.5262646839
C         18.1260485877       29.3689404316       13.1801490213
C         17.7852173702       29.6552089724       14.6696733809
C         16.9949358596       28.6219589942       12.4311698622
O         16.5392181634       30.3489178618       14.7543288495
C         18.8951319524       30.4985229579       15.3557815662
C         17.3654776844       28.2927671282       10.9894583189
N         18.7821730763       30.6011461206       16.8382652900
C         17.5728309990       26.9584586086       10.5934094004
C         17.5228593932       29.3250754703       10.0465685805
C         18.8555352584       29.3260894523       17.5974546187
S         17.7382450811       31.7760814250       17.5114107046
C         17.9225592152       26.6590261100        9.2664969899
C         17.8793544775       29.0274234595        8.7208884441
C         20.0770657862       28.4288508159       17.2629143646
C         17.9589977640       33.2312502879       16.4583883976
O         16.3756031858       31.2386815571       17.4028403779
O         18.3469560117       32.1133374680       18.8038018056
C         18.0750179509       27.6936957280        8.3292780311
C         21.4121259076       29.1603177062       17.5310966612
C         20.0187627127       27.1268249291       18.0889999517
C         16.9597751436       33.6080478294       15.5404302459
C         19.1460260363       33.9853473709       16.5356699789
C         17.1480739226       34.7244057846       14.7112668918
C         19.3347010247       35.1036883346       15.7055168042
C         18.3351120828       35.4819750448       14.7847346636
F         16.1705769284       35.0594078118       13.8395353699
O         18.4839212928       36.5752183512       13.9492434202
C         19.6598168414       37.4080482931       13.9326527170
H         23.1282359953       26.6791963384        4.7033049682
H         24.6602160008       27.8183883067        6.2777987660
H         24.0661232381       28.0419110061        8.6681522739
H         20.3545278177       25.9618585535        7.9347399077
H         21.3896776773       29.2118406594       10.1115124255
H         23.0614367635       28.7209782764       10.5506618987
H         22.4163325542       28.0857723356       12.6659387306
H         19.3024419708       27.5867184032       12.9987440382
H         18.2596016763       30.3411546209       12.6849236334
H         17.7044448653       28.6857533971       15.1783848548
H         16.7416208221       27.7057497093       12.9791470490
H         16.0859765060       29.2368298156       12.4356143682
H         16.2974135909       30.4106212240       15.7084008904
H         19.8667573444       30.0542816790       15.1155147841
H         18.9178010175       31.4896500578       14.8878638933
H         17.4623543027       26.1515502991       11.3128221535
H         17.3709794051       30.3594838338       10.3431098573
H         18.8954952836       29.5519634478       18.6721661846
H         17.9338835150       28.7510314147       17.4360004410
H         18.0754004320       25.6251100866        8.9670626356
H         17.9991006367       29.8296233873        7.9970888911
H         20.0390308461       28.1420214608       16.2031543528
H         18.3419698044       27.4638004797        7.3010116517
H         21.4920096375       29.4606070133       18.5837317155
H         22.2668026604       28.5130976757       17.2968117763
H         21.5025824320       30.0642139730       16.9160218059
H         19.0914809815       26.5753080326       17.8871188887
H         20.8596546003       26.4670620848       17.8392562437
H         20.0617045243       27.3373686736       19.1655068884
H         16.0395715720       33.0354758783       15.4628323804
H         19.9256753875       33.6992289097       17.2384298743
H         20.2601067081       35.6654775350       15.7856030397
H         19.5442474018       38.2057586888       13.1880096364
H         19.8187227486       37.8748617559       14.9133692842
H         20.5483679109       36.8195052607       13.6697764953
    82
VM2 Rank=14     G=230.733           E=142.780           -TS=87.953              
C         21.1020898399       25.1076351976        5.1776043165
C         19.9847178503       25.8974223558        5.4887906840
C         22.2078364766       25.0561480568        6.0522619974
C         19.9600651749       26.6463793971        6.6746481937
C         23.4396229274       24.2066935953        5.7160715481
C         22.1728785561       25.8210167381        7.2377543044
C         21.0524755547       26.6106041182        7.5610426455
F         24.0017748022       23.6518938893        6.8138372722
F         23.1632691532       23.1810769131        4.8785584013
F         24.4022731859       24.9439548521        5.1197620926
N         21.0298562566       27.3729923793        8.7631493762
C         20.5378663844       28.7457867127        8.7866348528
C         21.4676772318       26.9592901761       10.0077964258
C         20.7755980299       29.1941429228       10.2390748039
O         21.9234043657       25.8688710517       10.3065069799
O         21.3097398480       28.0021971968       10.8710959640
C         19.4929644939       29.7112400346       10.9187265924
N         19.1151235596       29.0428656595       12.0629977102
O         18.8196910533       30.6125803865       10.4492271179
C         17.7299339977       29.0025510349       12.5597527633
C         17.5788669575       29.7966477515       13.8880726689
C         17.2905159050       27.5218194192       12.6837314405
O         16.2524639914       29.6466870051       14.3987882083
C         17.8852214404       31.3078340180       13.6914098095
C         17.5250588778       26.7250782143       11.4047068272
N         18.1693135722       32.0587241099       14.9444879088
C         18.4938486191       25.7049516170       11.3684328397
C         16.7857041768       27.0155441965       10.2433825203
C         19.3416052181       31.6039239699       15.7408514066
S         16.8197797557       32.6290105286       15.8227886202
C         18.7154515815       24.9786571521       10.1866355613
C         17.0094629139       26.2925472538        9.0598216304
C         20.6635992217       31.4729773550       14.9395182207
C         17.5277586079       33.8507892401       16.9524391694
O         16.0357400808       33.3953334874       14.8470928861
O         16.2587439260       31.4758245339       16.5386187184
C         17.9725052534       25.2713338374        9.0323942796
C         21.0810488699       32.8215949553       14.3100067509
C         21.7894013975       30.9535923114       15.8580124614
C         17.6035996735       33.5845017904       18.3328076441
C         18.0312219572       35.0675803600       16.4534155850
C         18.1734793033       34.5274687233       19.2021003820
C         18.6028028342       36.0116075950       17.3237914262
C         18.6780981669       35.7480081853       18.7077143070
F         18.2326675774       34.2418086955       20.5221009044
O         19.2347576415       36.6508363015       19.5967203961
C         19.7864237371       37.9209747241       19.1978633850
H         21.1058183267       24.5374154750        4.2515143373
H         19.1359578561       25.9290427765        4.8097779707
H         19.0835764729       27.2458171230        6.9042144732
H         23.0265778974       25.8015205255        7.9109359463
H         19.4686207428       28.7742455954        8.5394079264
H         21.1010516181       29.3719181571        8.0831710585
H         21.5193620820       29.9997445912       10.2712932314
H         19.7431818576       28.3030815407       12.3527395484
H         17.0735897157       29.4790038213       11.8178728937
H         18.2978355346       29.3705076758       14.5991837576
H         17.8218333998       27.0573408385       13.5239074865
H         16.2246919675       27.4785954913       12.9414560322
H         16.2222356351       30.0940022657       15.2779563670
H         18.7445845449       31.4125786551       13.0210593509
H         17.0435289172       31.7669869207       13.1560050900
H         19.0788812313       25.4748698373       12.2548156676
H         16.0385325809       27.8044994914       10.2583216024
H         19.5338561796       32.3081376393       16.5597069329
H         19.1118063163       30.6391286305       16.2125027931
H         19.4679331108       24.1941277385       10.1643054354
H         16.4352266668       26.5220877341        8.1658438300
H         20.5328324391       30.7342904514       14.1372065234
H         18.1461536635       24.7103412402        8.1174806367
H         20.3197372563       33.1876092660       13.6099121117
H         21.2264182460       33.5888800861       15.0812224631
H         22.0207307466       32.7184761055       13.7526780530
H         21.5251746293       29.9799672028       16.2904638352
H         22.7240158766       30.8257386498       15.2968409424
H         21.9828621043       31.6512317543       16.6831969788
H         17.2245829670       32.6480803388       18.7332225115
H         17.9824248446       35.2780055925       15.3871346941
H         18.9839433321       36.9407864578       16.9117612126
H         19.0191221511       38.5450986534       18.7217274945
H         20.1677881215       38.4569907218       20.0761849267
H         20.6175338684       37.7794706140       18.4948409389
    82
VM2 Rank=15     G=230.734           E=142.590           -TS=88.145              
C         22.2174661293       24.0122097435        6.2944702299
C         22.7466293875       23.4910725927        7.4855969341
C         21.5345966660       25.2472592004        6.2952896268
C         22.6010665644       24.1968668793        8.6894639349
C         20.9481958361       25.8373199314        5.0071746513
C         21.4043324868       25.9504970754        7.5111139250
C         21.9266232985       25.4307685392        8.7106092408
F         21.6842247358       26.8776889583        4.5580644747
F         20.8775517191       24.9471840688        3.9912592345
F         19.6915211250       26.3021675705        5.1883506516
N         21.7790791148       26.1498720629        9.9284451554
C         22.0648784090       27.5774590532       10.0103012466
C         21.3871656603       25.6273501678       11.1463396523
C         21.7845622119       27.9206451604       11.4836673136
O         21.0897242377       24.4715612281       11.3941160339
O         21.3939667152       26.6442619950       12.0541581440
C         20.6973989057       29.0026844550       11.6339400055
N         19.5446691791       28.6064819953       12.2768548817
O         20.8168576932       30.1197940637       11.1606531990
C         18.2416854501       29.2633380585       12.0875741709
C         17.8671973837       30.1648076630       13.2973479342
C         17.1719802439       28.1817641517       11.7984557731
O         16.6052791682       30.7956372676       13.0672951798
C         18.9398798326       31.2572051819       13.5543878336
C         17.5431857084       27.2842110654       10.6234971923
N         18.5905530523       32.2723614659       14.5902609295
C         17.5106075454       27.7885631190        9.3104851454
C         17.9288573929       25.9482801460       10.8401800388
C         19.5402816044       33.4190874866       14.6495610689
S         18.0536559241       31.6404061752       16.0928608448
C         17.8525101321       26.9649764332        8.2248197659
C         18.2695422530       25.1235643521        9.7552311112
C         19.7397355741       34.1926437273       13.3182817466
C         18.0908603358       33.0268569438       17.2575893265
O         16.6390335373       31.3164486331       15.8677078191
O         19.0433606608       30.6348476768       16.4964402604
C         18.2277408602       25.6304834834        8.4470993764
C         18.3943223355       34.6847685446       12.7367780655
C         20.6814604734       35.3945852230       13.5444746876
C         17.0487854905       33.9740307166       17.2618231910
C         19.1678275770       33.1804285517       18.1528058386
C         17.0843803255       35.0591883887       18.1507953926
C         19.2035452007       34.2676068210       19.0430503057
C         18.1601304903       35.2170960485       19.0486146017
F         16.0695549238       35.9519777947       18.1277702206
O         18.1602422761       36.3015191228       19.9084269062
C         19.2112941726       36.5611710171       20.8595167376
H         22.3419486707       23.4505223783        5.3716413693
H         23.2706574094       22.5382892957        7.4757980126
H         23.0162796307       23.7830343385        9.6050285855
H         20.8778022712       26.9013378586        7.5213625427
H         21.4046485720       28.1453290864        9.3421070676
H         23.1134956673       27.7746213321        9.7541321194
H         22.6948526642       28.2908064242       11.9710218023
H         19.5514555444       27.6564277356       12.6272251935
H         18.3021885682       29.9120010159       11.2020129129
H         17.8002090172       29.5181828783       14.1829707621
H         17.0108377138       27.5800674881       12.7018018043
H         16.2111588278       28.6680010103       11.5867828693
H         16.3435776696       31.1927086830       13.9313278435
H         19.8780768682       30.7634645525       13.8396271586
H         19.1153152363       31.7421310117       12.5883727138
H         17.2181416578       28.8199397827        9.1321880854
H         17.9659156819       25.5466377949       11.8492539677
H         19.1887736000       34.1627423957       15.3735212770
H         20.5178115001       33.0640337258       15.0042094298
H         17.8229665802       27.3595246671        7.2122328908
H         18.5691627725       24.0929854959        9.9296265594
H         20.2262901228       33.5382350298       12.5823673979
H         18.4894455992       24.9911545347        7.6079081881
H         18.5519093583       35.2448312185       11.8063503636
H         17.7285496567       33.8430413981       12.5064669197
H         17.8745375381       35.3421371204       13.4453508326
H         20.8636609797       35.9306157827       12.6041222696
H         20.2530943312       36.1065594189       14.2618977560
H         21.6533774193       35.0636367129       13.9326316203
H         16.2134055859       33.8726457965       16.5741636618
H         19.9807203006       32.4575449643       18.1568873007
H         20.0458914317       34.3617119212       19.7213488654
H         18.9887361577       37.4751364796       21.4246202213
H         19.3036156631       35.7313528477       21.5721665865
H         20.1723534792       36.6999884289       20.3475641335
    82
VM2 Rank=16     G=230.737           E=142.046           -TS=88.691              
C         21.8557523710       25.9249927750        5.8680191957
C         22.5560884994       25.1350831325        6.7931964181
C         21.1186392162       27.0482531222        6.2997645637
C         22.5292916782       25.4581091263        8.1583369330
C         20.3465719552       27.9254809476        5.3069479359
C         21.1096282813       27.3674486678        7.6737565421
C         21.8036035679       26.5756530487        8.6081944109
F         19.1182565795       28.2543504673        5.7668962753
F         20.9927081404       29.0871740814        5.0647441404
F         20.1524059982       27.3333950455        4.1064807295
N         21.7758006232       26.9074722295        9.9906868277
C         21.9960715075       28.2733302711       10.4513103514
C         21.5685783552       26.0319815775       11.0397881817
C         21.8912812292       28.1622537119       11.9822520168
O         21.3636056624       24.8323267411       10.9724641455
O         21.6400222382       26.7488816972       12.1970376472
C         20.7815400605       29.0624529591       12.5594397128
N         19.7644980598       28.4083416162       13.2205602425
O         20.7667033132       30.2702984442       12.3948158654
C         18.4168784883       28.9725506718       13.3985450588
C         18.1725381372       29.4336810145       14.8637892952
C         17.3750043751       27.9334792159       12.9144789007
O         16.8395947870       29.9310183715       14.9941768124
C         19.1806226169       30.5344773069       15.2949870852
C         17.6314545926       27.4581182382       11.4887980037
N         19.1658364798       30.8696972203       16.7471206837
C         17.4154940896       28.3272741562       10.4036816810
C         18.0919332170       26.1509162154       11.2447702351
C         19.4975798448       29.7658787336       17.6845319149
S         18.0073484164       31.9825979411       17.3327041336
C         17.6496142859       27.8926498564        9.0883055005
C         18.3245795561       25.7147695163        9.9298737878
C         20.8194783059       29.0136234837       17.3752127820
C         17.8980648930       33.2437942106       16.0393414929
O         16.7455064722       31.2426141769       17.4647899293
O         18.6614860699       32.6279815690       18.4772887160
C         18.0995463985       26.5840662904        8.8511799741
C         22.0356416444       29.9675483530       17.3930079088
C         21.0317648301       27.8760711486       18.3960068252
C         16.7786779248       33.2987373278       15.1866710036
C         18.9469328050       34.1670602049       15.8628336490
C         16.7120644970       34.2647429295       14.1709951308
C         18.8802592323       35.1349087062       14.8458518596
C         17.7601123273       35.1906113932       13.9901193666
F         15.6247634642       34.2903536646       13.3680217776
O         17.6580026848       36.1271603190       12.9763064600
C         18.6761722277       37.1073381024       12.6949178965
H         21.8898895885       25.6590733660        4.8140877184
H         23.1207140317       24.2707656441        6.4516528222
H         23.0764700891       24.8388403219        8.8647468873
H         20.5437593532       28.2302245114        8.0154853577
H         21.2263942974       28.9468472035       10.0527480729
H         22.9911113840       28.6246871894       10.1504187550
H         22.8377430296       28.4541484164       12.4536241229
H         19.8725800853       27.4039958618       13.2911272315
H         18.3193410117       29.8594248343       12.7563061454
H         18.3046409372       28.5556047108       15.5093669185
H         17.3661910562       27.0807114538       13.6048740629
H         16.3705409358       28.3722761451       12.9673656592
H         16.6813518554       30.1144636366       15.9500064234
H         20.1898541887       30.2014112820       15.0316002731
H         19.0096444155       31.4240450649       14.6775956968
H         17.0638635516       29.3401619650       10.5810703959
H         18.2705335821       25.4706139775       12.0731357550
H         19.5792277903       30.1735314650       18.7017850147
H         18.6706710633       29.0433864665       17.7057474351
H         17.4784103263       28.5678293365        8.2536143262
H         18.6823741139       24.7041923705        9.7482797965
H         20.7505518506       28.5491094975       16.3820666955
H         18.2772327088       26.2450414369        7.8338691539
H         22.1430041200       30.4504793018       18.3727250353
H         22.9637518991       29.4222631643       17.1796157431
H         21.9344051623       30.7573204991       16.6383085584
H         20.1928078213       27.1686152110       18.3751573500
H         21.9470844693       27.3138481794       18.1704915072
H         21.1191878188       28.2699320344       19.4169232164
H         15.9621915647       32.5914878123       15.3041227009
H         19.8180198497       34.1294287036       16.5135037549
H         19.7039265437       35.8327440909       14.7318944730
H         18.3702821979       37.7334835107       11.8472376706
H         18.8371457874       37.7599527699       13.5627600362
H         19.6242336861       36.6184305637       12.4357635372
    82
VM2 Rank=17     G=230.737           E=142.843           -TS=87.893              
C         22.4374664502       26.8739167518        5.4809293300
C         23.2774799622       27.7143788438        6.2275360645
C         21.3800849047       26.1820295459        6.1081649476
C         23.0669780596       27.8794644294        7.6050652492
C         20.4415756362       25.2661819500        5.3135797061
C         21.1790952102       26.3601126383        7.4926432534
C         22.0125090944       27.2055264400        8.2496616876
F         20.2032541352       24.1004351110        5.9556365675
F         19.2386134146       25.8474152418        5.1109820471
F         20.9210028489       24.9335206426        4.0933537834
N         21.7846994082       27.3851185013        9.6447464411
C         21.8620014789       28.7023876020       10.2684929591
C         21.4342258741       26.4049938717       10.5562577911
C         21.6362312690       28.4102871060       11.7614025936
O         21.2697648612       25.2169848130       10.3379995927
O         21.2903649813       27.0018653910       11.7733949623
C         20.5626857289       29.3092524562       12.4028622734
N         19.5432028007       28.6467675223       13.0506868321
O         20.5803226661       30.5245602757       12.3071491840
C         18.2183468960       29.2395016693       13.2948763145
C         17.9948717784       29.5451515683       14.8025108236
C         17.1382274079       28.3044925840       12.6969504579
O         16.6746182029       30.0536216937       15.0010255412
C         19.0312989538       30.5735080824       15.3338621321
C         17.4085171041       27.9554044458       11.2376130855
N         19.0683182563       30.7215326628       16.8163864677
C         17.7482102171       26.6400807557       10.8705657285
C         17.3411262716       28.9527105920       10.2474283558
C         19.4184404484       29.5051696685       17.5945487003
S         17.9376786967       31.7560227134       17.5744433593
C         18.0064441530       26.3232703708        9.5268607833
C         17.6064254087       28.6386762510        8.9042781736
C         20.7170961185       28.7848062669       17.1432294955
C         17.8309570286       33.1879080169       16.4730472268
O         16.6664772049       31.0220590275       17.6269314117
O         18.6215009463       32.2264252728       18.7850991964
C         17.9348528153       27.3226519845        8.5428681741
C         21.9472653573       29.7161503485       17.2360569546
C         20.9488893282       27.5246690172       18.0031189104
C         18.8912387589       34.1124008234       16.4152116912
C         16.7027374251       33.3781506368       15.6513229695
C         18.8226560677       35.2122153036       15.5464153676
C         16.6344012274       34.4790174179       14.7802258565
C         17.6960866916       35.4060500912       14.7208366929
F         19.8586118243       36.0801507386       15.5132853379
O         17.6668399172       36.5009845460       13.8749046726
C         16.5743067092       36.7830183171       12.9785508536
H         22.6131505009       26.7642102357        4.4133251069
H         24.0930249746       28.2406434240        5.7371108480
H         23.7315119202       28.5303418948        8.1660221246
H         20.3632690709       25.8349736702        7.9802988181
H         21.0729070833       29.3521297021        9.8665554490
H         22.8431857795       29.1663037021       10.1126472401
H         22.5702597736       28.5622073723       12.3162310173
H         19.6193741802       27.6368306940       13.0500780508
H         18.1559640768       30.1963043987       12.7574333739
H         18.1135388171       28.6000187651       15.3481660655
H         17.0749569842       27.3916700524       13.3024536991
H         16.1552022789       28.7861536198       12.7740298334
H         16.5279452840       30.1275180472       15.9734832691
H         20.0271257162       30.2699761626       14.9941272644
H         18.8493602230       31.5358980658       14.8413889139
H         17.8115924749       25.8612181785       11.6256919659
H         17.0856668780       29.9730730217       10.5204607994
H         19.5430346755       29.7803506095       18.6511236848
H         18.5825832821       28.7937774135       17.5564955299
H         18.2621308187       25.3033326131        9.2506737462
H         17.5526719996       29.4138301575        8.1440230949
H         20.6056349093       28.4508099048       16.1026415200
H         18.1308720631       27.0788321631        7.5019310459
H         21.8308270462       30.5966368142       16.5920788829
H         22.0971002337       30.0692184712       18.2643990149
H         22.8588048310       29.1929347709       16.9204695709
H         21.0785642364       27.7847009547       19.0617071793
H         20.0993510978       26.8341386288       17.9241917607
H         21.8471402301       26.9864045813       17.6742179874
H         19.7702865066       33.9763256127       17.0395247335
H         15.8789345536       32.6685462965       15.6823969712
H         15.7541029424       34.5989908224       14.1564956654
H         16.7816215238       37.6987931559       12.4106011910
H         16.4359575906       35.9605653785       12.2647894036
H         15.6413758144       36.9302672632       13.5379493690
    82
VM2 Rank=18     G=230.742           E=142.376           -TS=88.367              
C         22.5098691618       25.7935917019        5.9215103364
C         22.9872787711       25.8073467375        7.2409904910
C         21.1430372098       26.0165031083        5.6527923788
C         22.1070694811       26.0508564972        8.3057985963
C         20.6135145935       26.0113875718        4.2134984387
C         20.2702111259       26.2677229138        6.7330110477
C         20.7425054363       26.2907772668        8.0595718377
F         21.3664311811       25.2612773560        3.3767773762
F         19.3560601015       25.5210883132        4.1249977930
F         20.5808001807       27.2573645124        3.6918633344
N         19.8489154750       26.5450256328        9.1383712664
C         19.8949443152       25.7638875643       10.3689132655
C         18.8468229346       27.4968076395        9.1681232514
C         18.7556787741       26.3540054244       11.2215784866
O         18.5655037087       28.3000538922        8.2952847595
O         18.1904837544       27.3713588194       10.3554246992
C         19.2405448242       26.9376494093       12.5646282464
N         18.6569282223       28.1296437128       12.9359127031
O         20.1139036943       26.4142858228       13.2366375873
C         19.2468568416       29.0702665311       13.8983381376
C         18.1686900182       29.5264943416       14.9214744617
C         19.9237923602       30.2458155640       13.1416902662
O         17.1127730619       30.2148271364       14.2444353151
C         18.7676542178       30.4133755527       16.0454730840
C         20.8937812659       29.7881271797       12.0582867391
N         17.8495771614       30.6857989047       17.1877385075
C         20.5971681426       30.0076536241       10.7001968713
C         22.0909585060       29.1360553423       12.4058928446
C         17.3832282402       29.5070261509       17.9621143897
S         16.6989502503       31.9444635178       17.0459714004
C         21.4902407759       29.5862483087        9.7011871353
C         22.9828391582       28.7100418286       11.4075186818
C         18.5092728210       28.5790619252       18.4892899417
C         17.5622844650       33.2472120167       16.1322003470
O         15.5793432654       31.4013552595       16.2657775843
O         16.5316169480       32.4465482653       18.4150055851
C         22.6846123410       28.9393706802       10.0548990018
C         19.4897341360       29.3407764859       19.4100598395
C         17.8965961133       27.3850505741       19.2510851751
C         17.2620092246       33.4911296209       14.7780480568
C         18.5648325259       34.0077495988       16.7648600718
C         17.9588653743       34.4801844408       14.0673634755
C         19.2619432839       34.9995952943       16.0536777751
C         18.9644119449       35.2427143223       14.6962929639
F         17.6503392023       34.6861358718       12.7674101215
O         19.6310219253       36.2072089852       13.9610496910
C         20.6841034835       37.0300787802       14.4999766401
H         23.2074929714       25.6092285516        5.1077618035
H         24.0420882850       25.6319491158        7.4386798817
H         22.4949356478       26.0650335774        9.3204969470
H         19.2157793725       26.4469563866        6.5371333025
H         20.8658126530       25.8861875043       10.8658784402
H         19.7165603880       24.7023058293       10.1564917325
H         18.0032035131       25.5874408854       11.4430914562
H         17.9305592615       28.4836213794       12.3250554175
H         20.0282502584       28.5431798276       14.4632688903
H         17.7682876363       28.6128847823       15.3805971594
H         19.1487386881       30.8846340224       12.6991334921
H         20.4662497210       30.8799420696       13.8522741519
H         16.3884551542       30.3641229773       14.8959181889
H         19.6681597001       29.9141963045       16.4225442428
H         19.1225741499       31.3513372050       15.6054453194
H         19.6719284805       30.5024726559       10.4166903029
H         22.3271657059       28.9539959171       13.4507324312
H         16.8096330605       29.8560929638       18.8321239938
H         16.6879437727       28.9172052885       17.3497696052
H         21.2539163505       29.7573979549        8.6537520592
H         23.9053224857       28.2051981187       11.6827759776
H         19.0704179326       28.1681831544       17.6391032591
H         23.3762989411       28.6144405919        9.2817684512
H         20.2764194571       28.6723132539       19.7824037632
H         19.9799361152       30.1645090196       18.8765160040
H         18.9668844058       29.7654817338       20.2766193864
H         18.6802268854       26.7017480699       19.6029613784
H         17.3246429093       27.7228825128       20.1250514782
H         17.2208644810       26.8115124409       18.6035738501
H         16.4953402468       32.9116923714       14.2711059565
H         18.8075456002       33.8237026027       17.8092833813
H         20.0309672000       35.5690655279       16.5662413309
H         21.0580160866       37.7143540455       13.7278734499
H         20.3151650728       37.6310345189       15.3412242592
H         21.5223971631       36.4108738656       14.8447028389
    82
VM2 Rank=19     G=230.744           E=142.034           -TS=88.710              
C         21.6907947669       25.8940391735        5.8027411296
C         22.5226875896       25.2066913281        6.7004537700
C         20.8837413931       26.9618820828        6.2497494171
C         22.5589786458       25.5781563161        8.0529943156
C         19.9679835079       27.7269541618        5.2867527441
C         20.9387028393       27.3315236770        7.6099630818
C         21.7650857888       26.6420817256        8.5174190714
F         18.7498892769       27.9647542640        5.8235878065
F         20.4876719228       28.9302584217        4.9586403411
F         19.7451942224       27.0719775417        4.1245328110
N         21.8007482605       27.0228685691        9.8870458166
C         21.9247158004       28.4196636734       10.2868723840
C         21.7471956016       26.1731811660       10.9757112928
C         21.9329916746       28.3585993540       11.8241894233
O         21.6503440942       24.9582170783       10.9615696380
O         21.8306990858       26.9374751894       12.1013885185
C         20.7841087402       29.1745510773       12.4482027760
N         19.8822430888       28.4563797420       13.2033101884
O         20.6424146039       30.3679619753       12.2435439071
C         18.5029082239       28.9003553273       13.4611688170
C         18.3186651381       29.3896867142       14.9260688320
C         17.5329349719       27.7527605754       13.0846520803
O         16.9559758532       29.7615747436       15.1405380107
C         19.2413852942       30.5974832371       15.2485050302
C         17.7346590937       27.2506739257       11.6593236251
N         19.3103563568       30.9714862898       16.6895845894
C         17.3651272098       28.0561889152       10.5665537674
C         18.2971544578       25.9826051248       11.4227483722
C         19.8270103351       29.9336569295       17.6187795788
S         18.0955516774       31.9799164809       17.3457587502
C         17.5483535597       27.5965949814        9.2515900618
C         18.4790790247       25.5213689795       10.1084186751
C         21.1873270778       29.3051663713       17.2142694530
C         17.7709544199       33.1971448305       16.0465537972
O         16.9254458875       31.1248354005       17.5845020928
O         18.7667735269       32.7102944922       18.4276713606
C         18.1009227266       26.3264248513        9.0227053977
C         22.2997866375       30.3731964860       17.1089200690
C         21.5951971951       28.2240084300       18.2369258440
C         18.7063212496       34.2170653496       15.7875092213
C         16.5971022350       33.1230112527       15.2713819910
C         18.4694718752       35.1497793269       14.7662119499
C         16.3602805071       34.0564121861       14.2476410994
C         17.2966773392       35.0787104799       13.9865919389
F         19.3885876668       36.1153972294       14.5416543263
O         17.1002413846       36.0149026339       12.9864460572
C         15.9475581711       36.0230819381       12.1216567789
H         21.6776646529       25.5920596589        4.7580929554
H         23.1404975367       24.3844113759        6.3473739321
H         23.2080068733       25.0383983780        8.7380767642
H         20.3198582259       28.1521840047        7.9633938662
H         21.0716348217       29.0058839574        9.9215406722
H         22.8610155009       28.8467144527        9.9060040369
H         22.8769192690       28.7541479333       12.2188113034
H         20.0903634339       27.4701361423       13.3001679346
H         18.2778492095       29.7506358131       12.8017291203
H         18.5818232109       28.5523563277       15.5854560100
H         17.6519754229       26.9288318626       13.7994318293
H         16.4975601839       28.0989357471       13.1961196366
H         16.8493827619       29.9632158140       16.0999259225
H         20.2546634524       30.3596252602       14.9087412918
H         18.9308525262       31.4472614485       14.6294442615
H         16.9336791403       29.0388051365       10.7378123114
H         18.5945216134       25.3522272788       12.2564735881
H         19.9512787662       30.3772049831       18.6165004436
H         19.0809569506       29.1348035427       17.7257591479
H         17.2584602898       28.2223304676        8.4111707788
H         18.9162130390       24.5414659639        9.9324503833
H         21.0835122357       28.8072980148       16.2405120140
H         18.2395169760       25.9677792124        8.0060477978
H         22.4389269834       30.8925448691       18.0657436737
H         23.2568092579       29.9149711723       16.8289256708
H         22.0586441922       31.1271024192       16.3492976307
H         22.5402983053       27.7474153458       17.9464018984
H         21.7266790149       28.6541347108       19.2382957920
H         20.8320596481       27.4377821442       18.3020726046
H         19.6188421552       34.2842407722       16.3738491173
H         15.8687711206       32.3368683814       15.4576020032
H         15.4485683418       33.9733692164       13.6643447012
H         15.8841941305       35.0875235070       11.5509218830
H         15.0258555941       36.1481850413       12.7045657190
H         16.0184309134       36.8550726057       11.4096486048
    82
VM2 Rank=20     G=230.749           E=142.444           -TS=88.305              
C         22.0764898743       25.8586936925        5.6408847408
C         22.7768453845       26.1571603898        6.8196910233
C         20.6723529542       25.7228958636        5.6577714519
C         22.0838136660       26.3206108875        8.0283470552
C         19.8981639795       25.3836748443        4.3781160007
C         19.9888991657       25.8819318469        6.8822225832
C         20.6834141897       26.1884930584        8.0683806021
F         18.6904008491       25.9899923554        4.3269697734
F         20.5497145018       25.7523810199        3.2515174848
F         19.6686757054       24.0560727732        4.2749746973
N         19.9786337541       26.3500211360        9.2947497534
C         20.4647666949       25.7638774764       10.5383725589
C         18.7856058617       27.0249327935        9.4736566107
C         19.3954407183       26.1603221686       11.5740231258
O         18.1401989769       27.6200958374        8.6278835202
O         18.4263828556       26.8932450918       10.7812668048
C         19.9571231501       27.0070734527       12.7346354593
N         19.1621967119       28.0581834499       13.1378810530
O         21.0495193078       26.7996305385       13.2365257151
C         19.6563008969       29.2260276424       13.8802183828
C         18.7133417485       29.5297594716       15.0785355471
C         19.8409244302       30.4276403316       12.9135314405
O         17.4037339112       29.8519029680       14.6005411457
C         19.2621401904       30.6679086168       15.9797853813
C         20.6717772378       30.0890380560       11.6810192960
N         18.5483167147       30.8428337013       17.2766608641
C         20.0730634576       30.0550428103       10.4078424058
C         22.0430234293       29.8004701725       11.8060436978
C         18.5744573038       29.6886393308       18.2114871291
S         17.0999985022       31.7534823069       17.3102632408
C         20.8377906213       29.7428677611        9.2716603097
C         22.8079742433       29.4836498426       10.6710699327
C         19.9876878437       29.1361661216       18.5348991697
C         17.3962121063       33.1154171047       16.1551051281
O         16.0362164634       30.8644164381       16.8253604438
O         17.0726196769       32.3532379150       18.6496359323
C         22.2061883269       29.4593704536        9.4028498557
C         20.8925001734       30.2207553195       19.1628493843
C         19.8773130636       27.9294060524       19.4903616498
C         18.2549825866       34.1710169914       16.5164320016
C         16.7983166001       33.1174667839       14.8795322374
C         18.5129677053       35.2127289956       15.6122845998
C         17.0586238232       34.1592556209       13.9729210648
C         17.9204339514       35.2164265160       14.3327673162
F         19.3458768009       36.2087639646       15.9886980955
O         18.2046382031       36.2576161771       13.4665615247
C         17.6819416866       36.3404038574       12.1262128090
H         22.6307365861       25.7303957365        4.7139707182
H         23.8589836648       26.2616618987        6.7967204337
H         22.6411694198       26.5574312397        8.9303069386
H         18.9083795180       25.7630985712        6.9099284822
H         21.4453051901       26.1803717034       10.8021963992
H         20.5362768718       24.6728680194       10.4462509832
H         18.9291444426       25.2673346476       12.0076709660
H         18.2651432992       28.1460687651       12.6756952625
H         20.6424533884       28.9792175736       14.2975143053
H         18.6637362710       28.6102940778       15.6767564398
H         18.8548329143       30.7978738302       12.6053220894
H         20.3217733624       31.2581622381       13.4430286496
H         16.8058416428       29.9043471821       15.3823551218
H         20.3192835032       30.4568240318       16.1802448806
H         19.2591652362       31.6031159964       15.4098273545
H         19.0128279341       30.2670254443       10.2974329610
H         22.5146797844       29.8158963140       12.7847863909
H         18.1126958424       29.9891761259       19.1623876606
H         17.9538243054       28.8765460879       17.8095113999
H         20.3684017860       29.7164829892        8.2912320384
H         23.8666558466       29.2599303150       10.7747852715
H         20.4583056631       28.7759277759       17.6100877076
H         22.7982007789       29.2189641504        8.5233763151
H         21.8860110339       29.8159120885       19.3939284286
H         21.0307049221       31.0689915761       18.4810187590
H         20.4576811108       30.6055190931       20.0942799294
H         19.4205998691       28.2195842707       20.4454992638
H         19.2640984512       27.1336096049       19.0482030928
H         20.8678075606       27.5070752286       19.7033271508
H         18.7278190653       34.1810776641       17.4948727085
H         16.1362165506       32.3061758393       14.5855061891
H         16.5874668753       34.1321712294       12.9953635061
H         16.5850698487       36.3810767985       12.1390604019
H         18.0528047291       37.2484488897       11.6341814469
H         17.9996515150       35.4738511329       11.5318888256
    82
VM2 Rank=21     G=230.767           E=142.880           -TS=87.887              
C         21.1975803234       25.0629236194        5.2261190606
C         20.3009247040       26.1136090929        5.4734919425
C         22.1284518509       24.6698480830        6.2105783236
C         20.3190639831       26.7786023870        6.7085049442
C         23.1062389930       23.5169488555        5.9524477691
C         22.1304741549       25.3425170977        7.4512600852
C         21.2290898417       26.3930290665        7.7102231880
F         24.3012479419       23.7046529506        6.5575494177
F         22.6208116431       22.3420305851        6.4102228920
F         23.3767631496       23.3384428682        4.6392043069
N         21.2423024573       27.0615801481        8.9669662712
C         21.1415912592       28.5136870265        9.0596845421
C         21.3689639321       26.4713689525       10.2109571977
C         21.2723191403       28.7933320152       10.5668464035
O         21.4696792108       25.2820328717       10.4586089979
O         21.3710267924       27.4654069701       11.1436477784
C         20.0857108877       29.6051003712       11.1213050008
N         19.3152234688       28.9646862318       12.0673090459
O         19.8009017636       30.7154039118       10.7060957635
C         17.8993441206       29.2847854363       12.3074959597
C         17.7009843051       30.0759387831       13.6301901277
C         17.0739471440       27.9752874118       12.2642012013
O         16.3167528162       30.3798433477       13.8167202079
C         18.5160983610       31.3971894043       13.6352023076
C         17.3086959753       27.1740627634       10.9884250814
N         18.2629694013       32.3053226480       14.7913874746
C         16.8546614606       27.6652549911        9.7506325350
C         17.9959132509       25.9468115567       11.0335998852
C         18.8913253569       33.6488755903       14.6483261960
S         18.3570018623       31.5729877758       16.3407218761
C         17.0822465497       26.9369113673        8.5711033364
C         18.2207808997       25.2160607914        9.8551527533
C         18.5045025887       34.4363392829       13.3674142422
C         18.4261408594       32.9349767044       17.5326150282
O         17.0526049230       30.9212562591       16.5157203932
O         19.6240224992       30.8332845941       16.3725581085
C         17.7633635168       25.7103693768        8.6237472231
C         16.9716606892       34.5832997729       13.2286034491
C         19.1627832935       35.8323504587       13.3894958296
C         19.6580497811       33.3392316005       18.0825040102
C         17.2482873107       33.6127775932       17.9037569268
C         19.7084498734       34.4068432776       18.9919540965
C         17.2989643495       34.6824892795       18.8140644691
C         18.5320872218       35.0884132270       19.3660817702
F         20.9069752586       34.7716202214       19.4998109679
O         18.6236244074       36.1377657734       20.2636972627
C         17.4873964264       36.9054476062       20.7067943497
H         21.1653050135       24.5542627387        4.2653581991
H         19.5878791782       26.4106670938        4.7081448065
H         19.6111145553       27.5830011887        6.8873134830
H         22.8390960433       25.0436005737        8.2198829480
H         20.1694716365       28.8564514170        8.6819979981
H         21.9517342802       28.9951133726        8.4975586491
H         22.1895416313       29.3595909266       10.7699424840
H         19.6434195656       28.0448373332       12.3353959478
H         17.5423261960       29.9250207799       11.4882408985
H         18.0529149184       29.4385297440       14.4528666198
H         17.3134262823       27.3671592684       13.1455900744
H         16.0062626532       28.2157250393       12.3458837351
H         16.2378184825       30.7100607697       14.7427406511
H         19.5846799665       31.1470111757       13.6036081015
H         18.2789612171       31.9027098093       12.6932074279
H         16.3266778652       28.6139453761        9.7033953490
H         18.3596867966       25.5583635696       11.9810518442
H         18.6027295709       34.2909399009       15.4881338690
H         19.9846170426       33.5450798336       14.6849641906
H         16.7296641341       27.3220772392        7.6177066353
H         18.7561690527       24.2706004582        9.8961622396
H         18.8924972006       33.9129573268       12.4830610267
H         17.9410518556       25.1460800945        7.7116146484
H         16.4835973586       33.6035792664       13.1465966652
H         16.5443618218       35.1015640527       14.0964616717
H         16.7136043969       35.1567303297       12.3292801784
H         18.9301769706       36.3886084790       12.4722942765
H         18.8099859958       36.4254706903       14.2432175365
H         20.2549975225       35.7498050613       13.4607309733
H         20.5772371647       32.8304490606       17.8049371201
H         16.2919714034       33.3116614275       17.4814140251
H         16.3757705961       35.1873924640       19.0809792377
H         17.8105337168       37.6805386114       21.4132087401
H         16.9970865905       37.3984718832       19.8573677249
H         16.7579236752       36.2612766440       21.2146341202
    82
VM2 Rank=22     G=230.773           E=142.975           -TS=87.797              
C         21.6322360578       24.9720493892        5.3914076003
C         21.0627300695       26.2459688596        5.5394408158
C         22.0864250461       24.2559113359        6.5189010988
C         20.9430848472       26.8199734417        6.8137937466
C         22.7218663207       22.8684048955        6.3675803886
C         21.9672944863       24.8488779062        7.7939841544
C         21.3906352820       26.1238873066        7.9519636978
F         22.4172717569       22.0440185792        7.3954530076
F         22.3293917901       22.2257849593        5.2438818556
F         24.0701418005       22.9434308266        6.3189686848
N         21.2715009825       26.7065074906        9.2453849444
C         21.5940467878       28.1089544909        9.4831353736
C         20.8787294459       26.0624721176       10.4041895600
C         21.3976459350       28.2768983308       10.9997283043
O         20.5453628936       24.8962812775       10.5256835584
O         20.9338765816       26.9681262727       11.4214365604
C         20.4088047545       29.4071878016       11.3448604160
N         19.2583480295       29.0154209252       11.9942303686
O         20.5937255693       30.5643705839       11.0086796016
C         17.9948175130       29.7659191904       11.9227513135
C         17.6997332321       30.5298046076       13.2434334293
C         16.8556344115       28.7949558165       11.5259658238
O         16.4740863530       31.2559148843       13.1263920928
C         18.8427155668       31.5173411540       13.6017435956
C         17.1681038049       28.0087207408       10.2575648374
N         18.5774542343       32.4164235911       14.7623337210
C         17.2294942339       28.6655844045        9.0148631023
C         17.4150847474       26.6246601264       10.3193488743
C         19.5972709334       33.4892728976       14.9339395892
S         18.0332445257       31.6377223413       16.1916454928
C         17.5315612782       27.9469972798        7.8461234796
C         17.7136484139       25.9046280091        9.1507126078
C         19.8147531260       34.4089585740       13.7021449457
C         18.1726893715       32.8689472671       17.5125611906
O         16.5979677495       31.4230445019       15.9664272132
O         18.9697311310       30.5369152072       16.4460781725
C         17.7711411960       26.5652862274        7.9137139458
C         18.4896743334       35.0466916355       13.2247369241
C         20.8330546536       35.5168076743       14.0462388135
C         17.1896504610       33.8672722880       17.6541806589
C         19.2713059723       32.8509787581       18.3943563446
C         17.3047638590       34.8333658331       18.6653674568
C         19.3866747112       33.8189090358       19.4070697562
C         18.4024191310       34.8194072059       19.5503540321
F         16.3451988918       35.7795010488       18.7727955654
O         18.4815600304       35.7903098713       20.5333754412
C         19.5614476971       35.8721330376       21.4840778423
H         21.7213111110       24.5446234638        4.3953296355
H         20.7128217349       26.7894014786        4.6649811939
H         20.4912169219       27.8030744620        6.9114984803
H         22.3287566317       24.3125936073        8.6681141984
H         20.9084154828       28.7608355582        8.9262643824
H         22.6306836295       28.3227153755        9.1936880483
H         22.3543452231       28.5096048901       11.4832247190
H         19.2098290909       28.0297601768       12.2218763050
H         18.0793049507       30.5166046492       11.1240810246
H         17.6113390732       29.7833909223       14.0446851374
H         16.6570679302       28.1098822946       12.3597893623
H         15.9288650503       29.3635210366       11.3767580652
H         16.2538682296       31.5569504157       14.0394221089
H         19.7541634832       30.9377873297       13.7988240573
H         19.0286400964       32.1060465419       12.6973116123
H         17.0447959014       29.7349001660        8.9560183629
H         17.3791968964       26.1048411220       11.2729673968
H         19.3084547089       34.1567191193       15.7535433151
H         20.5585292280       33.0363163020       15.2136187888
H         17.5782752211       28.4603232154        6.8890711345
H         17.9077343018       24.8362101478        9.2057445573
H         20.2441183961       33.8236636461       12.8777675864
H         18.0059522670       26.0080652904        7.0101945454
H         18.6610089714       35.7078867822       12.3658636945
H         17.7688738280       34.2801017614       12.9123377608
H         18.0265214065       35.6399933303       14.0234043752
H         21.7910623257       35.0843693356       14.3625212913
H         21.0272982192       36.1537353030       13.1736678104
H         20.4648063258       36.1580772870       14.8575756291
H         16.3386967926       33.8979911328       16.9789412230
H         20.0392537563       32.0871930213       18.2930819799
H         20.2440125162       33.7817211810       20.0719611559
H         19.4033117212       36.7225041552       22.1594058639
H         19.6151653403       34.9584169295       22.0900698102
H         20.5207637094       36.0160355533       20.9702668839
    82
VM2 Rank=23     G=230.776           E=143.131           -TS=87.645              
C         22.2661893884       23.9885140519        6.2285700978
C         22.8710082522       23.5280885835        7.4086455575
C         21.5199562018       25.1863080457        6.2275200321
C         22.7387152425       24.2582221972        8.5994581698
C         20.8509161900       25.7091736419        4.9506853399
C         21.4039887049       25.9152929743        7.4295831828
C         22.0020865668       25.4560781785        8.6183178143
F         19.5881375473       26.1362882635        5.1770565295
F         21.5262357648       26.7574672210        4.4303251787
F         20.7640468877       24.7807201465        3.9709731371
N         21.8677546430       26.1998151219        9.8228157667
C         22.0816976046       27.6418477844        9.8563324593
C         21.5542839014       25.6915363024       11.0691147105
C         21.8455557258       28.0104772471       11.3313322189
O         21.3279142095       24.5292884587       11.3583724633
O         21.5459559340       26.7318878178       11.9499458661
C         20.7108628398       29.0395898438       11.5014902904
N         19.6136948432       28.6069147823       12.2140402772
O         20.7474168468       30.1444737670       10.9875907415
C         18.2703644005       29.1903217793       12.0724846853
C         17.9050710474       30.0959447278       13.2815966729
C         17.2479708059       28.0480981445       11.8536109676
O         16.5956818521       30.6447757331       13.1101867753
C         18.9214831403       31.2551212382       13.4615667227
C         17.6144255182       27.1440239462       10.6821139627
N         18.5475269617       32.2572330410       14.4924468654
C         17.5017389392       27.6166602331        9.3617444132
C         18.0751769609       25.8338257887       10.9090503954
C         19.3134207849       33.5210686366       14.3775500084
S         18.0999851844       31.6692450715       16.0407583297
C         17.8386071832       26.7867448871        8.2793150284
C         18.4108070646       25.0027008522        9.8274258414
C         18.3914726114       34.7585369020       14.2478623493
C         18.2526995215       33.0577202905       17.1971663633
O         16.6765814962       31.3334625255       15.9092332849
O         19.1220341552       30.6756141071       16.3891912693
C         18.2888828605       25.4775301119        8.5122899420
C         19.2150342796       36.0569415961       14.3715467066
C         17.6181763939       34.7408877429       12.9106215625
C         17.1316094905       33.8520013894       17.5083627667
C         19.4877698068       33.3394008000       17.8146760634
C         17.2527842308       34.9284109960       18.4003715245
C         19.6095408304       34.4175498718       18.7079861820
C         18.4914084241       35.2243487610       19.0051701009
F         16.1596045325       35.6776238875       18.6667450156
O         18.5715313121       36.2963765839       19.8765941760
C         19.7901929165       36.6968459258       20.5331621912
H         22.3815381996       23.4090603076        5.3155791706
H         23.4434672197       22.6035775467        7.4004058083
H         23.2126747319       23.8915083582        9.5065424216
H         20.8296398633       26.8380388672        7.4384890567
H         21.3653273684       28.1565952314        9.2031055653
H         23.1069512474       27.8853378323        9.5502952147
H         22.7549471435       28.4394472682       11.7696773908
H         19.6879193684       27.6709361033       12.5933180796
H         18.2556343481       29.8227059891       11.1733517940
H         17.9238807094       29.4680252807       14.1829120041
H         17.1584521900       27.4598519229       12.7755547184
H         16.2544325956       28.4786942443       11.6751013939
H         16.3636775644       31.0681249816       13.9699902917
H         19.9017827761       30.8286125500       13.7116476006
H         19.0257823551       31.7526981326       12.4880846239
H         17.1508656549       28.6281845836        9.1752909777
H         18.1745591314       25.4571990179       11.9235435644
H         19.9899931836       33.6397782254       15.2324162410
H         19.9587305095       33.4972306631       13.4885801611
H         17.7470348405       27.1565955482        7.2611259849
H         18.7685364171       23.9922068144       10.0096630447
H         17.6549345445       34.7524987848       15.0592175822
H         18.5466318975       24.8331237401        7.6757685344
H         19.7332078317       36.1015422181       15.3382980493
H         19.9691606918       36.1255699572       13.5768461889
H         18.5664386067       36.9395642021       14.3007320223
H         18.3057202360       34.7505068435       12.0552688473
H         16.9906785758       33.8436399105       12.8295590802
H         16.9600718697       35.6150714382       12.8273193521
H         16.1673782617       33.6433525604       17.0527271318
H         20.3577940601       32.7239570294       17.5960909336
H         20.5754585543       34.6149197408       19.1623989124
H         19.6043271855       37.5726988284       21.1676138545
H         20.1725074053       35.8878772012       21.1690622510
H         20.5583148052       36.9640759970       19.7958795948
    82
VM2 Rank=24     G=230.804           E=142.942           -TS=87.862              
C         21.6298666063       24.9754695430        5.3911394779
C         21.0789168991       26.2574401356        5.5398489196
C         22.0791755894       24.2546544897        6.5175174559
C         20.9640680801       26.8308239761        6.8149339388
C         22.6744300706       22.8494826928        6.3657351125
C         21.9506356695       24.8405325477        7.7950122493
C         21.3920279563       26.1234746980        7.9537045236
F         23.2250355147       22.6381901830        5.1484245569
F         23.6524733990       22.6002288797        7.2661380649
F         21.7369551445       21.8917170319        6.5373718700
N         21.2675762753       26.7009747349        9.2489473506
C         21.6068015921       28.0976250423        9.4973854644
C         20.8539483404       26.0564978897       10.4002571633
C         21.3963753569       28.2606727170       11.0126371795
O         20.5034375914       24.8943454995       10.5122241909
O         20.9109153586       26.9560895041       11.4227544456
C         20.4187679904       29.4021542897       11.3529154883
N         19.2563305204       29.0223276714       11.9878915027
O         20.6225094976       30.5584786058       11.0247565976
C         18.0037706744       29.7901089179       11.9074900485
C         17.7053095667       30.5509051731       13.2291969329
C         16.8557960174       28.8366149559       11.4940096688
O         16.4909939376       31.2943816264       13.1033926232
C         18.8578153639       31.5207268282       13.6049835113
C         17.1708320965       28.0522582080       10.2250819922
N         18.5927891013       32.4164480472       14.7682228910
C         17.2538396869       28.7140840141        8.9862777119
C         17.3985799866       26.6647195772       10.2826862512
C         19.6253977638       33.4740334057       14.9571715311
S         18.0225857531       31.6367988119       16.1868524019
C         17.5582489817       27.9969970068        7.8172225180
C         17.6994960465       25.9462434624        9.1136963988
C         19.8692492339       34.3975062760       13.7331715755
C         18.1671927033       32.8570223874       17.5173873392
O         16.5866567490       31.4450001910       15.9457093879
O         18.9400055992       30.5205200965       16.4433466766
C         17.7785604283       26.6118803223        7.8805683101
C         18.5585864179       35.0566237563       13.2451323418
C         20.8992397719       35.4888735290       14.0947045126
C         17.1973302492       33.8684827081       17.6566347916
C         19.2569648007       32.8171595124       18.4093795014
C         17.3166949374       34.8259071289       18.6755486210
C         19.3765935485       33.7763981211       19.4298337072
C         18.4055241931       34.7900279940       19.5707645780
F         16.3698700291       35.7850670289       18.7804858845
O         18.4892399980       35.7529412679       20.5612370440
C         19.5605889114       35.8120895138       21.5232156954
H         21.7053665021       24.5436797802        4.3958033080
H         20.7365515291       26.8062043638        4.6657343323
H         20.5255414113       27.8198862895        6.9132370223
H         22.2875198565       24.2913428909        8.6708955508
H         20.9363160678       28.7617474124        8.9365527891
H         22.6493633424       28.2984435980        9.2202108291
H         22.3507844418       28.4784011679       11.5075026903
H         19.1923363538       28.0362554340       12.2098499632
H         18.1065216631       30.5437355574       11.1137447324
H         17.5982845359       29.8014363112       14.0253049930
H         16.6392368090       28.1502964680       12.3223128870
H         15.9384233084       29.4184386233       11.3379962953
H         16.2654097405       31.5937212933       14.0156709567
H         19.7592693860       30.9277133400       13.8078961732
H         19.0609530621       32.1121529922       12.7060404681
H         17.0841084846       29.7860534666        8.9307314548
H         17.3458595884       26.1409396980       11.2333511153
H         19.3367647231       34.1408001846       15.7774017248
H         20.5771386454       33.0061768342       15.2447571983
H         17.6216814266       28.5141398086        6.8631933544
H         17.8786424851       24.8750581312        9.1655105042
H         20.2993101569       33.8108592297       12.9101177176
H         18.0151478412       26.0557864589        6.9768171565
H         18.7485848933       35.7200560938       12.3919281929
H         17.8304462127       34.3020965025       12.9206277811
H         18.0952218821       35.6520258110       14.0421122899
H         21.8475600203       35.0411426000       14.4188066755
H         21.1119295699       36.1279226680       13.2280055800
H         20.5312411784       36.1306831879       14.9057275898
H         16.3533736803       33.9160876089       16.9736373631
H         20.0147421535       32.0430246593       18.3100904606
H         20.2269209077       33.7222729736       20.1025189399
H         19.4082893196       36.6600391201       22.2029157001
H         19.5946296213       34.8935046883       22.1232436695
H         20.5270689829       35.9452162763       21.0200363895
    82
VM2 Rank=25     G=230.809           E=142.071           -TS=88.737              
C         21.7966719481       26.0296087592        5.8923582359
C         22.5243242686       25.2253152494        6.7836011881
C         21.0886023131       27.1567931244        6.3603979260
C         22.5470325610       25.5331244017        8.1523891836
C         20.2721553108       28.0333420486        5.4032819786
C         21.1186995481       27.4531277778        7.7392263058
C         21.8402014758       26.6468905219        8.6394844828
F         20.6845294688       27.9438845018        4.1182794950
F         18.9643885614       27.6940142104        5.4152764630
F         20.3341005806       29.3448748947        5.7270306521
N         21.8513937353       26.9569983948       10.0266629074
C         22.1122390352       28.3101134917       10.5032915856
C         21.6409853608       26.0707800953       11.0657853736
C         21.9696474449       28.1898885761       12.0304737693
O         21.4215097462       24.8745977936       10.9847995976
O         21.7390303167       26.7708138585       12.2314987354
C         20.8223763624       29.0632314041       12.5757244474
N         19.8002068905       28.3861066641       13.2055474503
O         20.7872465038       30.2711844801       12.4149904597
C         18.4438591255       28.9322357375       13.3749187661
C         18.1836444753       29.3912147357       14.8385851589
C         17.4182984235       27.8777901168       12.8890508246
O         16.8450784110       29.8761557760       14.9579442973
C         19.1772592752       30.5010129966       15.2802403500
C         17.6765285580       27.4108947578       11.4609856638
N         19.1415804216       30.8392320701       16.7313226866
C         17.4235089090       28.2726803965       10.3779345315
C         18.1691228362       26.1164371542       11.2121636415
C         19.4695124125       29.7399401183       17.6753534160
S         17.9688240344       31.9458441103       17.3002259320
C         17.6514113731       27.8425958855        9.0598233031
C         18.3963799802       25.6850813549        9.8947791621
C         20.8009742759       28.9971165633       17.3847758113
C         17.8633503556       33.2010164541       16.0006812277
O         16.7113284722       31.1967541623       17.4218905975
O         18.6060899346       32.6005261261       18.4490328598
C         18.1326726462       26.5459937743        8.8181667718
C         22.0095147493       29.9603551318       17.4157053560
C         21.0088840441       27.8636463774       18.4109927505
C         16.7533097600       33.2428929307       15.1351427172
C         18.9061388125       34.1326668236       15.8323723491
C         16.6899337508       34.2042595956       14.1148715915
C         18.8426900031       35.0958874436       14.8107991989
C         17.7319315017       35.1384778055       13.9421740076
F         15.6116641979       34.2172679948       13.2995108547
O         17.6332777411       36.0701051743       12.9234956492
C         18.6458900877       37.0582281839       12.6499602867
H         21.7829768658       25.7703224048        4.8362511165
H         23.0685446473       24.3596828608        6.4134802023
H         23.1124833280       24.9020205277        8.8335131461
H         20.5584252271       28.3059087558        8.1136922077
H         21.3820238739       29.0191531666       10.0925597472
H         23.1279744367       28.6216092745       10.2288643348
H         22.8942531902       28.5016652954       12.5315232410
H         19.9238851034       27.3836944030       13.2768676281
H         18.3377388545       29.8164722229       12.7303796742
H         18.3182832997       28.5142280306       15.4851294169
H         17.4247238978       27.0226213005       13.5765047993
H         16.4068211040       28.2996136734       12.9459750020
H         16.6774936462       30.0598839616       15.9120955357
H         20.1923347795       30.1750907469       15.0312511738
H         19.0075571590       31.3877860197       14.6584858417
H         17.0460467913       29.2755736750       10.5590726775
H         18.3758271632       25.4418049993       12.0386369816
H         19.5349106676       30.1503615967       18.6926698936
H         18.6478852083       29.0112334274       17.6874605820
H         17.4502732788       28.5114487808        8.2267452964
H         18.7788942155       24.6842652940        9.7095736713
H         20.7482947387       28.5297255762       16.3919941860
H         18.3049381646       26.2094516370        7.7991114201
H         21.9119827157       30.7474996187       16.6577798848
H         22.1006024809       30.4464924224       18.3954862198
H         22.9444201342       29.4216612008       17.2156466129
H         21.0802477727       28.2605868136       19.4319660829
H         20.1756884919       27.1497301153       18.3811974570
H         21.9312810069       27.3079265569       18.1985691396
H         15.9416843508       32.5290377840       15.2461554050
H         19.7700662605       34.1051649845       16.4930176346
H         19.6615434871       35.8003917921       14.7033782276
H         18.3442892797       37.6782905751       11.7962933253
H         18.7909826540       37.7156479960       13.5169759813
H         19.6011984876       36.5767996426       12.4037414101
    82
VM2 Rank=26     G=230.830           E=142.814           -TS=88.017              
C         21.1199689393       25.1101340709        5.1825123446
C         20.0143127948       25.9203006626        5.4829302355
C         22.2210756241       25.0473240888        6.0621536546
C         19.9926879962       26.6709225744        6.6677986674
C         23.4300663812       24.1581925127        5.7463923831
C         22.1826222176       25.8018358139        7.2542203444
C         21.0735994459       26.6114999651        7.5669472168
F         23.3176136022       22.9427727820        6.3258212814
F         23.5940552982       23.9414302673        4.4213366803
F         24.5939173383       24.6901565178        6.1844381508
N         21.0491828136       27.3670165300        8.7733785528
C         20.5818618734       28.7483625973        8.7989079963
C         21.4628083249       26.9379802439       10.0211375497
C         20.8069458731       29.1832187638       10.2574624389
O         21.8953036588       25.8378551916       10.3189670904
O         21.3118902924       27.9782741807       10.8888347149
C         19.5238349982       29.7176722285       10.9226634376
N         19.1187838845       29.0487243631       12.0572626766
O         18.8723824639       30.6330973975       10.4496368484
C         17.7261023083       29.0283569657       12.5339082467
C         17.5682629160       29.8186266368       13.8637397455
C         17.2612685860       27.5543251291       12.6443660453
O         16.2319687968       29.6882070502       14.3536208757
C         17.9025118671       31.3254177056       13.6791641993
C         17.5009180635       26.7598913946       11.3648509475
N         18.1762292136       32.0666332648       14.9402971824
C         18.4523500727       25.7232837244       11.3375955300
C         16.7837920647       27.0686467806       10.1943369529
C         19.3258756288       31.5890144769       15.7560260659
S         16.8208436972       32.6564689986       15.7963714027
C         18.6786765847       24.9988905887       10.1555238484
C         17.0123920460       26.3475507492        9.0105439629
C         20.6600219260       31.4393208200       14.9784848242
C         17.5285387861       33.8640287022       16.9413732051
O         16.0663433348       33.4376330454       14.8092213416
O         16.2289376134       31.5106887065       16.4991077221
C         17.9579591940       25.3099400717        8.9920370653
C         21.1113887237       32.7833988559       14.3628267445
C         21.7599018715       30.8973234354       15.9151413150
C         17.5757932415       33.5934309961       18.3221780850
C         18.0601294511       35.0737048763       16.4543711419
C         18.1452788908       34.5251729921       19.2037498802
C         18.6312914646       36.0064850083       17.3370593838
C         18.6779397664       35.7386025795       18.7214202696
F         18.1765992777       34.2356345346       20.5238612962
O         19.2331225368       36.6304352980       19.6223702002
C         19.8106482557       37.8931158609       19.2366502555
H         21.1171115602       24.5300675109        4.2625343873
H         19.1708393440       25.9638213031        4.7980145169
H         19.1246631134       27.2854433120        6.8894860390
H         23.0231050753       25.7561214653        7.9425258673
H         19.5169736106       28.7979590532        8.5366957239
H         21.1663605113       29.3684944223        8.1076225929
H         21.5636995348       29.9758348636       10.3053883114
H         19.7302298189       28.2967240125       12.3510635337
H         17.0882837885       29.5187020719       11.7849557010
H         18.2693013818       29.3773486237       14.5834772142
H         17.7731544758       27.0774044342       13.4896187108
H         16.1913590004       27.5270549942       12.8868918140
H         16.1952338850       30.1329887709       15.2338123074
H         18.7754466813       31.4187617779       13.0248511326
H         17.0781788793       31.8003407543       13.1306722254
H         19.0202119226       25.4788193661       12.2312638407
H         16.0501578132       27.8703028388       10.2023458001
H         19.5146164293       32.2865157839       16.5814270121
H         19.0713806587       30.6262359665       16.2190504102
H         19.4177252331       24.2015290478       10.1402199849
H         16.4553973242       26.5912830448        8.1094451500
H         20.5317484949       30.7063098795       14.1705669328
H         18.1353546769       24.7504208813        8.0769388335
H         20.3692986020       33.1650179658       13.6505305036
H         21.2552766037       33.5449017781       15.1400304446
H         22.0593348460       32.6669085646       13.8223802315
H         21.4715655825       29.9264662927       16.3383119801
H         22.7024332303       30.7561791363       15.3706474436
H         21.9497313449       31.5881747446       16.7468530028
H         17.1748069431       32.6623245795       18.7134875267
H         18.0334693423       35.2873104707       15.3879393611
H         19.0344364077       36.9303620803       16.9341537203
H         20.1849114159       38.4210255734       20.1229005814
H         20.6514793897       37.7408930846       18.5475659869
H         19.0611235710       38.5299958986       18.7492222706
    82
VM2 Rank=27     G=230.850           E=142.417           -TS=88.434              
C         20.6900898955       26.9229382159        5.1736080442
C         19.9889520466       27.9721459312        5.7873534639
C         21.5329787224       26.0847726676        5.9334640456
C         20.1236787328       28.1978462079        7.1652817367
C         22.3139381267       24.9432558697        5.2709545915
C         21.6654008899       26.3283759896        7.3172156080
C         20.9598146290       27.3746826989        7.9422004662
F         22.4255179540       23.8588645697        6.0712999254
F         21.7426480449       24.5055322171        4.1256537973
F         23.5721379788       25.3215125799        4.9552208567
N         21.0993791027       27.6048077306        9.3401607364
C         21.2470768848       28.9514487389        9.8805123797
C         21.1376091409       26.6424339176       10.3323377452
C         21.4491352064       28.7197377186       11.3878974069
O         21.0349763463       25.4354349008       10.1962211253
O         21.3210605267       27.2806773778       11.5227137943
C         20.4350074616       29.4981686492       12.2479214768
N         19.6120155645       28.7291866356       13.0418179533
O         20.3192718297       30.7103294935       12.1887196217
C         18.2828565159       29.1710555477       13.4935863966
C         18.2684121766       29.4945991576       15.0143156931
C         17.2394792940       28.0979981521       13.0938152840
O         16.9478133426       29.8654393751       15.4138296274
C         19.2572488955       30.6408533200       15.3640877071
C         17.3021285267       27.7366341683       11.6137460710
N         19.4920200871       30.8483682673       16.8212039580
C         17.7463010882       26.4641438099       11.2088927055
C         16.9319695720       28.6805971512       10.6382656736
C         20.0730654901       29.7027461241       17.5677551907
S         18.3854424614       31.7979401044       17.7139910538
C         17.8128246903       26.1370433172        9.8443922319
C         17.0019408863       28.3557744345        9.2732959280
C         21.3624808192       29.0992458867       16.9495364152
C         17.9629683698       33.1612807256       16.6014453336
O         17.2212985192       30.9434011553       17.9820713186
O         19.1898813402       32.3874677348       18.7909687215
C         17.4397936150       27.0822997817        8.8762629208
C         22.4894765563       30.1516921399       16.8420025314
C         21.8438877492       27.9016974296       17.7952553614
C         18.8969344632       34.1861135879       16.3571560476
C         16.7118556231       33.1981873238       15.9551691231
C         18.5823915975       35.2333481113       15.4776885671
C         16.3971087914       34.2463794524       15.0733494724
C         17.3319859890       35.2737501830       14.8271833459
F         19.5021998620       36.2005756087       15.2631205289
O         17.0600446978       36.3211659830       13.9644513210
C         15.8234998964       36.4490498568       13.2356066957
H         20.5773021030       26.7657386400        4.1033883205
H         19.3395343999       28.6115207109        5.1941419491
H         19.5668703210       29.0090101269        7.6259409848
H         22.3250314682       25.6986550378        7.9094072078
H         20.3398501248       29.5410361411        9.6946407936
H         22.1166465830       29.4539118842        9.4383906534
H         22.4555019675       29.0356289197       11.6889900789
H         19.7913155056       27.7331153142       13.0050669607
H         18.0208738198       30.0967388377       12.9617437392
H         18.5736928760       28.5834620538       15.5451626161
H         17.3871185868       27.2029892331       13.7111346076
H         16.2319914251       28.4632799517       13.3301128156
H         16.9489905883       29.9600272046       16.3954364509
H         20.2201087261       30.4243291850       14.8895757632
H         18.9079158601       31.5607424227       14.8808273865
H         18.0434259691       25.7273357896       11.9503087461
H         16.5917294408       29.6678108643       10.9392768931
H         20.3168170123       30.0281685381       18.5886884522
H         19.3186772026       28.9107571020       17.6670122547
H         18.1605487513       25.1534690958        9.5380043420
H         16.7150574292       29.0896318016        8.5244522828
H         21.1400795743       28.7171518169       15.9438439879
H         17.4944057298       26.8294486010        7.8203116869
H         22.1917743619       30.9911347263       16.2014835367
H         22.7457280473       30.5565570903       17.8294292692
H         23.3966924058       29.7106599878       16.4099024136
H         21.0683563959       27.1273371899       17.8560239090
H         22.7375574685       27.4438397121       17.3519936282
H         22.0945783932       28.2129138851       18.8176726916
H         19.8681043798       34.1687303606       16.8445282285
H         15.9832348393       32.4099185326       16.1309795824
H         15.4265949105       34.2476093382       14.5870838612
H         15.8445381701       37.3550551639       12.6168166112
H         15.6716584523       35.5857167726       12.5748297188
H         14.9725837475       36.5243391940       13.9249835816
    82
VM2 Rank=28     G=230.853           E=141.057           -TS=89.796              
C         22.6312391541       25.8622142794        7.3997958455
C         22.9025629167       25.8237345565        8.7754640635
C         21.8989815549       26.9327811139        6.8458948019
C         22.4402270055       26.8493932269        9.6131676766
C         21.5856180665       26.9784824873        5.3453966261
C         21.4342699996       27.9546069020        7.7015742453
C         21.6991139074       27.9236144548        9.0853587623
F         22.4688990146       26.2780092108        4.5979180212
F         20.3630316690       26.4686346899        5.0790138897
F         21.5951785517       28.2382233646        4.8532013172
N         21.1999596699       28.9499287425        9.9402736773
C         19.8611898517       29.5070929984        9.7639945774
C         21.8340325674       29.4855198474       11.0483473566
C         19.7696461113       30.5786236933       10.8627756621
O         22.9436934320       29.2157587963       11.4742052339
O         20.9642727068       30.3471884724       11.6440343667
C         18.4838495927       30.4809563764       11.6970873717
N         18.4776779715       29.4955347788       12.6578806159
O         17.5047926684       31.1772337448       11.4953340106
C         17.2510691597       28.9131470708       13.2259871597
C         16.7668649893       29.6819731416       14.4891220616
C         17.4686801901       27.4014129944       13.4790110191
O         16.3191029408       30.9754027226       14.0919387063
C         17.8607675643       29.7957017477       15.5877789008
C         18.0117117651       26.6830227221       12.2477961947
N         17.4986550771       30.6408932152       16.7594147801
C         19.2916234592       26.0985381833       12.2756212816
C         17.2551658807       26.6292054064       11.0620168948
C         16.3042075786       30.2215026585       17.5334572268
S         17.7734738482       32.3343342626       16.7250611454
C         19.8075705089       25.4665082672       11.1326107004
C         17.7763199108       26.0085444920        9.9143273249
C         16.3322861959       28.7549767517       18.0389584207
C         18.9408171950       32.6446869468       15.3706436856
O         16.4984757929       32.9973913666       16.4256008316
O         18.4998859293       32.5965628636       17.9735535242
C         19.0541903068       25.4283261269        9.9488277946
C         17.5523855556       28.4908118243       18.9503852025
C         15.0295706575       28.4328712265       18.8008293723
C         18.5126714981       33.2616784183       14.1788864994
C         20.2961619940       32.2844187699       15.5094593764
C         19.4244290228       33.5028485594       13.1395970357
C         21.2077883845       32.5182686571       14.4654478271
C         20.7776306556       33.1312814081       13.2703313318
F         18.9820003750       34.0928586017       12.0067790122
O         21.6424772462       33.3756744326       12.2176752578
C         23.0337799061       33.0006254255       12.2311633102
H         22.9907740498       25.0546686976        6.7662599078
H         23.4673832192       24.9945105604        9.1946325216
H         22.6480910593       26.7943672548       10.6783432661
H         20.8639111159       28.7775227454        7.2803335053
H         19.1077464723       28.7206746349        9.9066504360
H         19.7417830580       29.9645756711        8.7747400241
H         19.8082131398       31.5797217457       10.4143103115
H         19.3391635736       28.9755326349       12.7600649154
H         16.4545484418       28.9991252520       12.4728009019
H         15.9135678724       29.1353448881       14.9119920163
H         18.1553392197       27.2575439515       14.3212788227
H         16.5175618520       26.9442056312       13.7801010742
H         16.7281850538       31.1502912097       13.2102568884
H         18.0855569784       28.7848888032       15.9441827831
H         18.7922898822       30.1461261910       15.1340218097
H         19.8890850354       26.1326882308       13.1826520131
H         16.2663931198       27.0782455124       11.0259413807
H         16.2017230345       30.8742905698       18.4114946251
H         15.4047565852       30.3776025393       16.9219545102
H         20.7934113701       25.0102273439       11.1628295102
H         17.1900944535       25.9773514475        8.9994218560
H         16.3825378148       28.0748928890       17.1781416067
H         19.4594563705       24.9481796314        9.0615989990
H         17.5578074893       27.4527881663       19.3064434126
H         18.4942579952       28.6627027883       18.4146469690
H         17.5392966539       29.1507936054       19.8272325223
H         14.9183253605       29.0734410833       19.6853176560
H         14.1522747163       28.5847142300       18.1588522732
H         15.0203920663       27.3878000545       19.1362239558
H         17.4726911901       33.5511115406       14.0540192098
H         20.6400596224       31.8137542763       16.4279339377
H         22.2432190673       32.2201956038       14.5966870517
H         23.5652966906       33.5129011188       13.0433926871
H         23.1429042482       31.9163267928       12.3632712819
H         23.5068590760       33.2798266427       11.2813862334
    82
VM2 Rank=29     G=230.853           E=142.551           -TS=88.302              
C         22.1356796679       24.2312336172        6.2009633483
C         22.8791143760       23.8082723875        7.3141280650
C         21.3381739921       25.3930054570        6.2721452136
C         22.8287060817       24.5362670394        8.5125922649
C         20.5043255062       25.8534699051        5.0705958020
C         21.2953092826       26.1138883474        7.4840212887
C         22.0326895230       25.6915835867        8.6059840846
F         20.4243344866       27.2006010687        4.9825047442
F         21.0025420961       25.4290743529        3.8869981066
F         19.2354030093       25.3952845709        5.1438888198
N         21.9690831109       26.4261086017        9.8210262958
C         22.1333036653       27.8747406921        9.8459825057
C         21.7637218669       25.9037392826       11.0835815140
C         21.9175136475       28.2375874659       11.3254424159
O         21.6182308016       24.7316485486       11.3845448513
O         21.7678654709       26.9432037767       11.9657163376
C         20.6880027982       29.1464975475       11.5226801362
N         19.6598778098       28.6118447217       12.2690752009
O         20.5992579645       30.2459120488       11.0034635977
C         18.2660763817       29.0775878235       12.1900742882
C         17.8882805889       29.9806910244       13.3983116708
C         17.3325324924       27.8492244138       12.0571468321
O         16.5350393892       30.4246808111       13.2752295264
C         18.8180270797       31.2191570190       13.5070520324
C         17.6937725288       26.9536081005       10.8777105857
N         18.4306868562       32.2268327036       14.5366649847
C         17.4309503034       27.3761894880        9.5616501737
C         18.2916698097       25.6980362742       11.0927308474
C         19.2110135842       33.4939770846       14.4599295195
S         18.1318478813       31.6014329181       16.1067072597
C         17.7535417795       26.5492607625        8.4723900288
C         18.6141219779       24.8703248043       10.0045534918
C         19.1779316755       34.2191957120       13.0875397030
C         18.0991277486       33.0329631332       17.2157654903
O         16.7585772730       31.0854819658       16.0381972121
O         19.2822270180       30.7534302861       16.4399366302
C         18.3404004632       25.2932989094        8.6946014600
C         17.7295024810       34.4946505386       12.6220807711
C         19.9593024736       35.5474854893       13.1757469291
C         19.2293948959       33.3617557308       17.9889330581
C         16.9472075252       33.8396606467       17.2982984409
C         19.2050193615       34.4824071510       18.8333156334
C         16.9231374318       34.9624167194       18.1434846332
C         18.0543172624       35.2928995784       18.9189208088
F         20.3071846169       34.7720223091       19.5605007243
O         18.0704699477       36.3907860016       19.7613056458
C         16.9535040159       37.2875795824       19.9188870256
H         22.1792386566       23.6494020802        5.2831377315
H         23.4922473198       22.9125402731        7.2492290662
H         23.4066982365       24.1982802205        9.3691329011
H         20.6659745862       26.9969601296        7.5581315178
H         21.3904172140       28.3667237411        9.2051274377
H         23.1447251022       28.1485626862        9.5202522640
H         22.7913743401       28.7652300322       11.7267935437
H         19.8347545779       27.6906161489       12.6511413402
H         18.1497955793       29.6815773208       11.2788441918
H         17.9962027433       29.3756753009       14.3089375634
H         17.3532968340       27.2748995901       12.9919060817
H         16.2964066345       28.1912104283       11.9393739954
H         16.3051181163       30.8267987129       14.1459534953
H         19.8386685556       30.8714302308       13.7135199932
H         18.8311151174       31.6757156344       12.5118369395
H         16.9723164333       28.3453438027        9.3842083470
H         18.5067756985       25.3605582037       12.1030629052
H         18.8252055530       34.2182836853       15.1861309285
H         20.2569792236       33.2941799623       14.7309216472
H         17.5444870645       26.8793516124        7.4578950342
H         19.0780545005       23.9022865716       10.1775488973
H         19.6818392393       33.6004324617       12.3326883798
H         18.5868587838       24.6501181326        7.8537602979
H         17.1692688922       33.5600608228       12.4899254906
H         17.1902739259       35.1108633886       13.3527448281
H         17.7215862887       35.0228410172       11.6602351457
H         19.5032135318       36.2301006943       13.9045234579
H         20.9993320564       35.3712489492       13.4792220119
H         19.9779983978       36.0551831009       12.2027713952
H         20.1279874426       32.7530994614       17.9352837482
H         16.0701937602       33.5973650040       16.7018711684
H         16.0223852364       35.5668071151       18.1861019783
H         17.2054331842       38.0783220280       20.6368434875
H         16.6984122720       37.7615499790       18.9621830516
H         16.0740242400       36.7496426256       20.2958864600
    82
VM2 Rank=30     G=230.855           E=142.578           -TS=88.276              
C         22.0974887552       24.0447828069        6.3280263060
C         22.6160472320       23.4740123340        7.5010720135
C         21.4853188221       25.3156215263        6.3602509918
C         22.5225256596       24.1623541092        8.7201979532
C         20.8954543607       25.9409445706        5.0905771274
C         21.3963764342       25.9953234029        7.5932232927
C         21.9079167949       25.4258717860        8.7742946268
F         19.5713429336       25.6934131758        4.9860098655
F         21.0408814546       27.2851457012        5.0609404686
F         21.4679136409       25.4765717486        3.9566059199
N         21.8004657446       26.1222748763       10.0085703764
C         22.1794102066       27.5252102042       10.1281791160
C         21.3563839348       25.5990088308       11.2077730789
C         21.8349966462       27.8696607257       11.5875503850
O         20.9951877908       24.4558607188       11.4275446274
O         21.4058330357       26.5959417204       12.1363866698
C         20.7464984097       28.9572771148       11.6819867137
N         19.5608236702       28.5703118242       12.2688369050
O         20.8967049780       30.0731851915       11.2146981028
C         18.2777864669       29.2556741535       12.0454520831
C         17.8919858471       30.1668753216       13.2450316823
C         17.1904864492       28.1977869858       11.7344890875
O         16.6506892827       30.8253382439       12.9822429321
C         18.9801195684       31.2363917953       13.5315323336
C         17.5584314442       27.2948078037       10.5627527047
N         18.6249457618       32.2582737995       14.5587741065
C         17.5372139316       27.7968082111        9.2485213305
C         17.9218258509       25.9533210157       10.7830857518
C         19.5968626382       33.3845637731       14.6444388469
S         18.0353070738       31.6371060670       16.0460040906
C         17.8665911483       26.9649218781        8.1650827209
C         18.2507713225       25.1206416556        9.7006591826
C         19.8487054799       34.1538099852       13.3195598682
C         18.0717899491       33.0216455120       17.2130215074
O         16.6204919614       31.3437696926       15.7832826251
O         18.9922761062       30.6102226600       16.4741021485
C         18.2181821730       25.6245892224        8.3911624349
C         18.5303284292       34.6747139412       12.7023009752
C         20.8095021094       35.3352718291       13.5719178948
C         17.0503876504       33.9908448524       17.1913916440
C         19.1281525705       33.1515465278       18.1361022538
C         17.0859869296       35.0743506053       18.0823765726
C         19.1638830282       34.2370670804       19.0283649410
C         18.1411494408       35.2086011367       19.0080437255
F         16.0913667495       35.9886149414       18.0341439081
O         18.1420164891       36.2921437307       19.8689617866
C         19.1731936438       36.5285252109       20.8474763210
H         22.1702898713       23.4928189412        5.3937574553
H         23.0876514008       22.4948047274        7.4661007820
H         22.9255038690       23.7098367845        9.6228642750
H         20.9059086494       26.9643972440        7.6345507462
H         21.6078114487       28.1486780370        9.4287540713
H         23.2538741049       27.6463991300        9.9413812423
H         22.7216286376       28.2367617151       12.1188151168
H         19.5403168387       27.6208291256       12.6199584296
H         18.3746389485       29.9004894858       11.1602959272
H         17.7874269705       29.5224293714       14.1285984880
H         17.0009406146       27.5973579959       12.6331611743
H         16.2438654337       28.7050614450       11.5087311345
H         16.3750696135       31.2280516807       13.8392982890
H         19.8997952731       30.7230899762       13.8413229544
H         19.1910535873       31.7179878732       12.5709840837
H         17.2610696326       28.8322042832        9.0674403304
H         17.9491950238       25.5529320632       11.7929722572
H         19.2417544031       34.1354471099       15.3591306846
H         20.5566869875       33.0087862290       15.0251364112
H         17.8446035193       27.3572123873        7.1514320604
H         18.5328766577       24.0856489082        9.8780441566
H         20.3408465765       33.4891999900       12.5966035739
H         18.4691668188       24.9780629501        7.5542343246
H         17.8531069526       33.8474790466       12.4536013915
H         18.0058410729       35.3430543668       13.3970074374
H         18.7249303084       35.2313004180       11.7768072503
H         20.3772784868       36.0561693182       14.2780258663
H         21.7632824553       34.9835249520       13.9859126469
H         21.0284434217       35.8673898662       12.6371971749
H         16.2311893173       33.9078127399       16.4821418975
H         19.9250639417       32.4114686543       18.1603796774
H         19.9901253843       34.3126807345       19.7284354443
H         18.9555755104       37.4466472835       21.4077434673
H         19.2290900011       35.6964080366       21.5612316121
H         20.1500414425       36.6470769484       20.3609461991
