    79
VM2 Rank=1      G=212.854           E=118.693           -TS=94.161              
C         22.6776314918       24.1378435187        5.7983000395
C         22.7435132400       23.3340263453        6.9471487348
C         22.4681616759       25.5201411904        5.9230387667
C         22.5975838805       23.9119029215        8.2192961220
C         22.3235725764       26.0976681651        7.1953476197
C         22.3815942544       25.2975127749        8.3536078448
N         22.2374423646       25.8830982157        9.6429276886
C         21.5014328155       25.3766355029       10.6974629712
C         22.9108306759       27.1274082964        9.9957275393
O         20.8198866494       24.3658541686       10.7059094689
O         21.6723431100       26.2110454846       11.7610249145
C         22.5124676917       27.3564320068       11.4659645546
C         21.7784976938       28.6933191054       11.6967768586
O         22.0897620059       29.7256445698       11.1261011887
N         20.7027611194       28.6364357152       12.5564798854
C         19.6163639865       29.6258425986       12.5803713052
C         18.3742432111       29.0653758073       11.8371975813
C         19.3235121216       30.0624938525       14.0433250760
C         18.6918524735       28.5633416987       10.4332476759
O         18.8833301877       28.9396372602       14.8143134976
C         18.2792666849       31.2091267926       14.1125006428
C         18.6483772769       27.1868002952       10.1436367885
C         19.0428422807       29.4710272077        9.4173399406
N         18.2368782654       31.9425602891       15.4070994137
C         18.9464597330       26.7233062694        8.8515408476
C         19.3448805547       29.0084314035        8.1256354507
C         19.4855599726       32.6363420039       15.8238458047
S         17.2961904265       31.2511380737       16.6552592883
C         19.2927617819       27.6344746531        7.8415729293
C         20.0720744644       33.6083816341       14.7675559512
O         15.9799786420       31.0241496060       16.0464088053
O         18.0873072611       30.1533115934       17.2264121063
C         17.0695954142       32.6117832949       17.8249906709
C         19.0649666188       34.7236645447       14.4051732185
C         21.3794058886       34.2355738180       15.2953863630
C         16.2665238249       33.7154564531       17.4774050874
C         17.7139976273       32.5902340868       19.0771717118
C         16.1063440484       34.7864894497       18.3731417442
C         17.5519412053       33.6616756431       19.9715883138
C         16.7506767077       34.7618746049       19.6265815137
O         16.6315496233       35.7842682082       20.5451027010
C         15.8466384718       36.9692708765       20.3090813735
H         22.7899821325       23.6907208639        4.8135888591
H         22.9084265525       22.2635428102        6.8523790300
H         22.4175191521       26.1442032248        5.0341957922
H         22.6554879627       23.2782324971        9.1005167949
H         22.1576617306       27.1682332838        7.2743476238
H         23.9979829815       27.0179663130        9.8956256813
H         22.5585048498       27.9480876497        9.3577704824
H         23.3999321834       27.3471330087       12.1103566896
H         20.5269525797       27.7407917637       12.9957825386
H         19.9520994990       30.5205527377       12.0378312432
H         17.9337848265       28.2544713755       12.4312144577
H         17.6030197309       29.8415834382       11.7695148704
H         20.2742452374       30.4310788920       14.4494010710
H         18.7924831429       29.2399054449       15.7494822684
H         18.4952709901       31.9195086517       13.3056777740
H         17.2872915285       30.7954540708       13.8883008826
H         18.3880237190       26.4735131964       10.9212728369
H         19.0877306852       30.5354130378        9.6312074548
H         18.9136745973       25.6581790439        8.6351278290
H         19.6172714456       29.7148324872        7.3456055955
H         19.3011052593       33.2258448923       16.7305956871
H         20.2478336664       31.8926317219       16.0919430239
H         19.5227288497       27.2756986225        6.8414629688
H         20.3239436747       33.0490761046       13.8562945232
H         18.1450371536       34.3065255362       13.9769514865
H         18.7886349733       35.3089161396       15.2917106578
H         19.4928117298       35.4113047047       13.6645951185
H         21.1997344183       34.8211068144       16.2064351847
H         22.1199247056       33.4600603025       15.5299847931
H         21.8230650478       34.9035591697       14.5458822008
H         15.7710467520       33.7429349302       16.5095077874
H         18.3412128553       31.7463412132       19.3552553094
H         15.4834934891       35.6268037815       18.0830827673
H         18.0504177275       33.6425624976       20.9368603726
H         15.9039977529       37.6372253239       21.1778231680
H         16.2205454766       37.5134939844       19.4321453506
H         14.7928094949       36.7098017844       20.1444477023
    79
VM2 Rank=2      G=212.889           E=118.720           -TS=94.170              
C         22.7401520038       24.0829783664        5.8654485733
C         22.8062600877       23.2972515973        7.0267287389
C         22.5178063642       25.4650876772        5.9679781511
C         22.6476786555       23.8929828945        8.2890873717
C         22.3605683323       26.0604837599        7.2305125259
C         22.4186867424       25.2784923708        8.4011165933
N         22.2616618834       25.8822084767        9.6805548405
C         21.5245148850       25.3848312856       10.7386285901
C         22.9211848721       27.1381419634       10.0180610306
O         20.8524104026       24.3679098108       10.7587130392
O         21.6815766209       26.2368446248       11.7903030822
C         22.5127902343       27.3853884758       11.4825808257
C         21.7654551374       28.7187712963       11.6895231770
O         22.0705431751       29.7453418040       11.1052926296
N         20.6854233538       28.6647606237       12.5440134747
C         19.5896857103       29.6441014009       12.5467489100
C         18.3573256169       29.0608991439       11.8047985396
C         19.2839149485       30.0996728898       14.0012745234
C         18.6879596682       28.5406142593       10.4105329711
O         18.8498742955       28.9842103875       14.7863457791
C         18.2283305792       31.2370719277       14.0471150609
C         18.6579608308       27.1595619015       10.1414187867
C         19.0374833211       29.4359362611        9.3832117936
N         18.1709284463       31.9893030674       15.3303175734
C         18.9678927515       26.6793138655        8.8582625365
C         19.3513868740       28.9566256923        8.1004633341
C         19.4104778303       32.7008583250       15.7443629696
S         17.2292883006       31.3072433173       16.5829316218
C         19.3126490494       27.5781693106        7.8367998267
C         19.9959839827       33.6610713599       14.6767349758
O         15.9191868197       31.0579062173       15.9696501706
O         18.0279357321       30.2260557152       17.1749674585
C         16.9822737456       32.6824978482       17.7313210694
C         18.9818632969       34.7615613553       14.2895701050
C         21.2940651437       34.3080483150       15.2035312236
C         17.6234895851       32.6880704866       18.9856129994
C         16.1658966481       33.7700263452       17.3653448531
C         17.4474285433       33.7689684267       19.8666845582
C         15.9916038615       34.8496659917       18.2472490304
C         16.6285188580       34.8556790474       19.4984572349
O         16.4208245622       35.9436246575       20.3209044990
C         17.0200582481       36.0727674570       21.6248449518
H         22.8622834412       23.6220265183        4.8883078799
H         22.9811424698       22.2269648325        6.9491796027
H         22.4669746670       26.0751605891        5.0694863317
H         22.7059211490       23.2732304317        9.1801274014
H         22.1847917246       27.1306071684        7.2922569241
H         22.5643486685       27.9456882003        9.3660037746
H         24.0098594908       27.0377833543        9.9252469351
H         23.3968104820       27.3938289556       12.1317004389
H         20.5153225988       27.7741432928       12.9956123544
H         19.9202796587       30.5337716557       11.9928822080
H         17.9207614532       28.2550268011       12.4084601776
H         17.5794062739       29.8287818424       11.7207607490
H         20.2286096462       30.4834379878       14.4073925801
H         18.7504961234       29.2974832623       15.7163684896
H         18.4424709430       31.9374132057       13.2310676319
H         17.2417569580       30.8105522432       13.8231583436
H         18.3988761381       26.4558102372       10.9281124249
H         19.0720097949       30.5037564641        9.5812951840
H         18.9454702927       25.6108193865        8.6577096551
H         19.6225724318       29.6535579275        7.3115465201
H         19.2143741722       33.3031207394       16.6402142060
H         20.1773632415       31.9683297904       16.0295733622
H         19.5517747832       27.2064173360        6.8436027674
H         20.2591440516       33.0895702065       13.7762946154
H         19.4089129122       35.4409639872       13.5409754995
H         18.0685503032       34.3296284063       13.8618593405
H         18.6942894645       35.3585140515       15.1646669096
H         21.7372156384       34.9678712890       14.4465307649
H         21.1028699731       34.9064407644       16.1038159858
H         22.0395997573       33.5429071999       15.4556493441
H         18.2605107073       31.8558262169       19.2763209279
H         15.6720068385       33.7782798755       16.3963152010
H         17.9513693744       33.7520379642       20.8279513813
H         15.3618316571       35.6875731083       17.9612070808
H         16.7107386569       37.0179693734       22.0886148560
H         16.7050187408       35.2498476061       22.2794737115
H         18.1152313320       36.0691212326       21.5501935004
    79
VM2 Rank=3      G=212.924           E=118.131           -TS=94.793              
C         20.5454276300       24.1715661935        6.3631126278
C         20.7507197732       23.4194574609        7.5303497403
C         20.6337870038       25.5716472181        6.4088386256
C         21.0415178582       24.0672424555        8.7425388884
C         20.9258198445       26.2188258213        7.6209012006
C         21.1264231356       25.4723663290        8.7989892393
N         21.4250701513       26.1281891744       10.0266571268
C         20.9063604943       25.8202539374       11.2703089867
C         22.3778761636       27.2301535090       10.0910679831
O         20.0789086643       24.9651854611       11.5357515188
O         21.4928250258       26.6472287474       12.1806650408
C         22.4264161502       27.5867122104       11.5887310494
C         22.0436534442       29.0523465045       11.8791930780
O         22.3822814556       29.9789704637       11.1615553799
N         21.2406204836       29.2457790171       12.9824050688
C         20.4026465945       30.4345851989       13.1915168117
C         18.9292675955       30.1149713715       12.8176348564
C         20.5765905384       30.9557564004       14.6460540974
C         18.7791603344       29.4969276157       11.4322708834
O         20.1422888761       29.9600981141       15.5774471074
C         19.8243765745       32.2929055344       14.8812895836
C         18.3917077178       28.1512145317       11.2925944792
C         19.0355941023       30.2638372832       10.2811149174
N         20.1374170223       32.9727142316       16.1704251721
C         18.2559775666       27.5802839305       10.0163657133
C         18.9042071368       29.6928505220        9.0042423636
C         21.5499261513       33.3809955932       16.3817415619
S         19.3177116977       32.4786771634       17.5891525569
C         18.5101222296       28.3518459380        8.8716975388
C         22.1613039420       34.2441654715       15.2467947458
O         19.9923904256       31.2599809170       18.0552654251
O         19.2375380637       33.6932760985       18.4097083499
C         17.6298987514       32.1258937120       17.0367155278
C         21.3632016937       35.5504883043       15.0329147982
C         23.6329029379       34.5771547783       15.5704914835
C         17.1882775400       30.7960903633       16.8882783719
C         16.7561585359       33.1839224011       16.7187241034
C         15.8899850450       30.5269511391       16.4227680206
C         15.4576097222       32.9128331444       16.2558503964
C         15.0189978606       31.5879344006       16.1034319382
O         13.7362962860       31.3838246149       15.6385942373
C         13.1817377800       30.0748967229       15.4038494046
H         20.3198108985       23.6704461237        5.4249377033
H         20.6855106991       22.3347071457        7.4960568011
H         20.4758577019       26.1556158674        5.5054555238
H         21.2030577219       23.4718602048        9.6374331799
H         20.9865128687       27.3031707882        7.6398986479
H         23.3632899613       26.9087452180        9.7311344836
H         22.0214616788       28.0794131596        9.4940422021
H         23.4329427037       27.4184996266       11.9906321281
H         21.0212761429       28.4208963276       13.5278745456
H         20.7533909902       31.2284360876       12.5174710805
H         18.5028761520       29.4414703834       13.5719923651
H         18.3292812723       31.0312812976       12.8597997703
H         21.6505790127       31.1365805096       14.7859693820
H         20.3752752275       30.2756202800       16.4816219729
H         20.0731600326       32.9673426396       14.0533198452
H         18.7474678262       32.1143442512       14.7923491014
H         18.1994820085       27.5444547618       12.1735738612
H         19.3433355623       31.3015106319       10.3768756036
H         17.9587594139       26.5392067427        9.9154652086
H         19.1057489108       30.2902893879        8.1187701348
H         21.6178085295       33.9629277450       17.3115098889
H         22.1718013650       32.4878953942       16.5297238544
H         18.4041372043       27.9101008372        7.8840675725
H         22.1566014354       33.6704412968       14.3101366597
H         21.3467718843       36.1562560416       15.9480351970
H         21.8094532768       36.1553347414       14.2333090874
H         20.3241736087       35.3412633274       14.7497344782
H         23.7133886266       35.1615304593       16.4962919139
H         24.2244048904       33.6608476312       15.6943325717
H         24.0891370150       35.1611710879       14.7608190277
H         17.8537731275       29.9693665840       17.1252133442
H         17.0874797387       34.2145375429       16.8238928408
H         15.5745014446       29.4942939251       16.3122599603
H         14.7876578174       33.7318310968       16.0090260112
H         12.1539573858       30.1637891170       15.0298102731
H         13.7739291885       29.5318842714       14.6558366934
H         13.1595966156       29.4908054469       16.3329795014
    79
VM2 Rank=4      G=212.941           E=118.505           -TS=94.436              
C         23.4494943231       25.3698476611        5.9478830052
C         22.3051769814       26.1802458607        6.0107292879
C         24.2533393355       25.2052782866        7.0867828334
C         21.9646735417       26.8244592164        7.2116478000
C         23.9115894788       25.8486022135        8.2880119691
C         22.7618584463       26.6593334815        8.3616622371
N         22.4173356650       27.3148101724        9.5772534418
C         22.4701463079       26.7728393846       10.8481064169
C         21.9785775696       28.7055029639        9.5947715767
O         22.7823389204       25.6354034436       11.1562049577
O         22.1021236891       27.7458174769       11.7291513264
C         21.8222876930       29.0193980635       11.0926274424
C         20.4284148957       29.5750003046       11.4427292283
O         19.9572524002       30.5570534976       10.8951860501
N         19.7152832607       28.8493360295       12.3720057712
C         18.2461256365       28.8689914013       12.4631712640
C         17.7209087917       27.4188760857       12.3141020024
C         17.7667123372       29.5604378312       13.7707212368
C         18.2675128516       26.7165875016       11.0757493491
O         16.3448502877       29.4661621719       13.8801930128
C         18.1867810202       31.0562945441       13.8158476934
C         19.1682002201       25.6430072873       11.2048885891
C         17.8907372535       27.1501292313        9.7913441995
N         18.1443775756       31.6794672453       15.1666280098
C         19.6808090988       25.0058146174       10.0627815516
C         18.4059217287       26.5161129440        8.6484503721
C         19.0234270492       31.0766248569       16.2054229800
S         16.6325419584       32.2759474913       15.6932024904
C         19.2990500774       25.4414266346        8.7843351798
C         20.5086848233       30.9121596684       15.7883271456
O         16.1935534678       33.1762207863       14.6201863424
O         15.8364223998       31.1124464333       16.1056107930
C         17.0544917237       33.3432185827       17.0910788636
C         21.1517924006       32.2722160372       15.4335569203
C         21.3052456459       30.2373723169       16.9245048890
C         17.7368172855       34.5559643902       16.8729986314
C         16.7285912396       32.9578703532       18.4059961703
C         18.0879550575       35.3775616644       17.9578088300
C         17.0798962112       33.7810623233       19.4891244104
C         17.7590232631       34.9907943697       19.2727571240
O         18.0790987545       35.7551593959       20.3756924787
C         18.7815793325       37.0101457782       20.2887661267
H         23.7134759000       24.8714586465        5.0183116602
H         21.6814942611       26.3087519022        5.1295102406
H         25.1415365830       24.5800474264        7.0389837063
H         21.0721658061       27.4427255636        7.2457254606
H         24.5457639258       25.7160013120        9.1607204582
H         22.7304553063       29.3563063625        9.1308647951
H         21.0189412223       28.8100055114        9.0718354650
H         22.5665910082       29.7627779201       11.4034616961
H         20.2014782020       28.0451826541       12.7497097525
H         17.8467994253       29.4510562445       11.6206117587
H         17.9737045620       26.8491786316       13.2171406148
H         16.6247504030       27.4317579442       12.2637382406
H         18.2368237569       29.0265167887       14.6062536405
H         16.0907717314       29.8451986112       14.7552951305
H         19.2033025936       31.1525991499       13.4204488376
H         17.5510230424       31.6178332782       13.1184446556
H         19.4756656232       25.3029012877       12.1901091602
H         17.2002241670       27.9817983093        9.6796905754
H         20.3796718249       24.1796550323       10.1691716415
H         18.1116920621       26.8563834076        7.6588653603
H         19.0131510736       31.6970735328       17.1102065471
H         18.6235449174       30.0970516636       16.4996388458
H         19.6986245010       24.9495698303        7.9009068597
H         20.5712917119       30.2527073496       14.9121819412
H         20.6358612806       32.7495479613       14.5911462367
H         21.1126622832       32.9614847582       16.2868364055
H         22.2036990367       32.1446420296       15.1481689227
H         21.2937897523       30.8495535299       17.8356539909
H         20.8827469465       29.2544437896       17.1696757445
H         22.3521419349       30.0859584960       16.6315414532
H         17.9983869511       34.8573765107       15.8611531580
H         16.2067633669       32.0211910900       18.5881983839
H         18.6144167071       36.3071087364       17.7654936754
H         16.8274324621       33.4812017604       20.5025035638
H         18.9231449971       37.4318428748       21.2919088474
H         19.7700933815       36.8701469780       19.8324276867
H         18.2120034854       37.7325543177       19.6898577272
    79
VM2 Rank=5      G=212.964           E=118.521           -TS=94.443              
C         23.4397963826       25.2466603827        5.9949695594
C         22.3153655953       26.0856179056        6.0392518792
C         24.2276755112       25.0719326495        7.1434739835
C         21.9787600707       26.7482363071        7.2312201342
C         23.8898058150       25.7337075316        8.3357461874
C         22.7598760451       26.5732422240        8.3907619931
N         22.4194016683       27.2474042300        9.5972376742
C         22.4455929538       26.7151252114       10.8730035441
C         22.0153648733       28.6486842492        9.5986697621
O         22.7262544080       25.5729764002       11.1937491841
O         22.0927844941       27.7043867769       11.7420655433
C         21.8513922663       28.9790714118       11.0921482374
C         20.4682242585       29.5720797158       11.4227965285
O         20.0275265914       30.5609483311       10.8623016882
N         19.7273724449       28.8721184884       12.3501039023
C         18.2582366068       28.9287153099       12.4247217382
C         17.6990930784       27.4906043219       12.2829676225
C         17.7815332121       29.6439955670       13.7204035130
C         18.2412603427       26.7638163685       11.0568624164
O         16.3565922545       29.5863058301       13.8140251620
C         18.2385589749       31.1292252525       13.7570094087
C         19.1135402358       25.6694657256       11.2052166356
C         17.8890690380       27.1948930136        9.7646724984
N         18.1947478087       31.7664844229       15.1011847307
C         19.6222556101       25.0094356950       10.0743923101
C         18.4004682617       26.5379850320        8.6330637541
C         19.0441549092       31.1512580581       16.1572237968
S         16.6919869988       32.4064167436       15.6021478599
C         19.2650946452       25.4427779474        8.7880901086
C         20.5295974233       30.9424743954       15.7610983860
O         16.2892049858       33.3060344269       14.5144730117
O         15.8619108852       31.2674182539       16.0159973851
C         17.1227694003       33.4770318485       16.9948315960
C         21.2138727712       32.2809157046       15.4012221946
C         21.2930179310       30.2581407196       16.9141951580
C         17.8323690178       34.6730538030       16.7730769906
C         16.7754625836       33.1105720896       18.3099611406
C         18.1872593659       35.4942069267       17.8563749663
C         17.1310933662       33.9337231498       19.3923544991
C         17.8400024834       35.1312146951       19.1674277979
O         18.2167547214       35.9767492896       20.1903245999
C         17.9258997096       35.7158935940       21.5771809184
H         23.7007722184       24.7340211042        5.0723249099
H         21.7040633464       26.2220249759        5.1505767574
H         25.1005147649       24.4245325695        7.1100511621
H         21.1015670912       27.3886479695        7.2509394101
H         24.5115794962       25.5928876328        9.2160569072
H         22.7880575181       29.2766053416        9.1374372488
H         21.0641367869       28.7726175039        9.0647335032
H         22.6107066478       29.7063658895       11.4047223919
H         20.1893381737       28.0593137323       12.7395212321
H         17.8826564694       29.5124640951       11.5724614468
H         17.9282619060       26.9231974731       13.1937206945
H         16.6041767944       27.5298663850       12.2206788313
H         18.2284823937       29.1062549303       14.5661426704
H         16.1019329751       29.9803954859       14.6822787936
H         19.2621795644       31.1960569326       13.3740415350
H         17.6262009462       31.6997388304       13.0460842371
H         19.4019526876       25.3307895450       12.1966711892
H         17.2206632614       28.0423527418        9.6382050949
H         20.2991768165       24.1672089689       10.1956317944
H         18.1253475524       26.8764616399        7.6373852285
H         19.0391654313       31.7813149838       17.0553878431
H         18.6142955776       30.1859026340       16.4561562328
H         19.6617085262       24.9331994463        7.9134146769
H         20.5854544177       30.2725966019       14.8924358716
H         22.2654568378       32.1220235816       15.1307534625
H         20.7218168664       32.7634079041       14.5475461398
H         21.1826797869       32.9797155448       16.2470541061
H         22.3390573327       30.0754794554       16.6363740097
H         21.2866131982       30.8797765386       17.8189694523
H         20.8409019405       29.2895677550       17.1636369218
H         18.1112847444       34.9612739088       15.7620533345
H         16.2322166941       32.1863462371       18.4933018107
H         18.7355299502       36.4158375066       17.6816813078
H         16.8531067259       33.6314514303       20.3971581838
H         18.3232907359       36.5248947983       22.2030910880
H         16.8421986039       35.6555171748       21.7412884781
H         18.3879063432       34.7737546668       21.8995349948
    79
VM2 Rank=6      G=212.980           E=118.178           -TS=94.802              
C         20.6209877697       24.1193978202        6.3578288667
C         20.6576259552       25.5219640433        6.3979406990
C         20.8777146525       23.3795622169        7.5227367727
C         20.9493597424       26.1838442103        7.6021089600
C         21.1681932270       24.0420014101        8.7270589008
C         21.2014943919       25.4494916262        8.7778825466
N         21.4997401340       26.1202881236        9.9974766020
C         21.0161398294       25.7987330183       11.2517549725
C         22.4134427748       27.2558877227       10.0400977082
O         20.2255408975       24.9152089884       11.5356782310
O         21.5893405567       26.6500264948       12.1480445940
C         22.4761547282       27.6209181285       11.5352022601
C         22.0441373650       29.0725841880       11.8267680650
O         22.3349244441       30.0078202991       11.0993889952
N         21.2544894635       29.2411679495       12.9436448800
C         20.3771547941       30.3993018323       13.1632890028
C         18.9094922686       30.0227542549       12.8223449896
C         20.5621452197       30.9377510270       14.6100066860
C         18.7544125065       29.3948644329       11.4419345957
O         20.1844664648       29.9347542342       15.5580407328
C         19.7649645285       32.2472412826       14.8520734152
C         18.4177085140       28.0344456418       11.3136201326
C         18.9565288550       30.1675075705       10.2837992967
N         20.0996099761       32.9621148854       16.1165403840
C         18.2784808267       27.4543837036       10.0418840332
C         18.8215670270       29.5875797892        9.0113329633
C         21.5008168182       33.4329169392       16.2644458533
S         19.3595842736       32.4561718680       17.5740827740
C         18.4783135092       28.2315968565        8.8902874686
C         22.0315213194       34.2971983427       15.0903891450
O         20.0920450587       31.2641854670       18.0217171057
O         19.2767985725       33.6757460053       18.3870008189
C         17.6606613528       32.0479270247       17.1000290926
C         21.1719333112       35.5650898976       14.8835559303
C         23.4992562896       34.6968385649       15.3498311044
C         16.7441276053       33.0763526679       16.8051899734
C         17.2503372586       30.7044626549       16.9932628239
C         15.4323331007       32.7662105894       16.4073217075
C         15.9391120610       30.3964630341       16.5940411219
C         15.0257027755       31.4209834494       16.2994800750
O         13.7533819091       31.0565616324       15.9102298233
C         12.7292578716       32.0107001116       15.5686558966
H         20.3957066075       23.6069145483        5.4257317062
H         20.4598180816       26.0964584608        5.4963369463
H         20.8525906157       22.2930177956        7.4927142278
H         20.9696126360       27.2697666269        7.6170111324
H         21.3697849082       23.4562739517        9.6202018438
H         23.4030885752       26.9680984032        9.6637006886
H         22.0163033730       28.0890526667        9.4461164861
H         23.4954858033       27.4923789422       11.9190729202
H         21.0759017716       28.4112357447       13.4962655990
H         20.6837100011       31.2008261878       12.4768965921
H         18.5254429067       29.3360015750       13.5874531904
H         18.2761475462       30.9157979487       12.8753049440
H         21.6314520256       31.1590895459       14.7249073627
H         20.4335933446       30.2630095436       16.4534376911
H         19.9531659739       32.9164419777       14.0041259766
H         18.6937078456       32.0224975344       14.8088426143
H         18.2678441327       27.4234719792       12.1999061174
H         19.2249302156       31.2168269035       10.3705678551
H         18.0206982745       26.4020396342        9.9497422366
H         18.9810580343       30.1895904951        8.1203979934
H         21.5799188112       34.0361140690       17.1796427641
H         22.1650825288       32.5696411175       16.4049080524
H         18.3696814098       27.7827364174        7.9061566743
H         22.0149620467       33.7048056867       14.1655509485
H         21.1656743387       36.1882998163       15.7870142647
H         21.5613480387       36.1711891377       14.0556941748
H         20.1323518853       35.3078200106       14.6456315328
H         23.5907421813       35.3026923605       16.2606819757
H         24.1328956257       33.8083018677       15.4674552046
H         23.8992187282       35.2825498019       14.5121148651
H         17.0526752174       34.1167258263       16.8793041678
H         17.9477023178       29.8992380851       17.2118940630
H         14.7446300501       33.5757161294       16.1837886503
H         15.6279571766       29.3589364330       16.5093438654
H         11.8060730053       31.4872615311       15.2895714077
H         12.5085512689       32.6647240068       16.4221789854
H         13.0440090624       32.6291516998       14.7181091229
    79
VM2 Rank=7      G=213.100           E=118.783           -TS=94.318              
C         23.5229758122       24.5667397766        6.4737506715
C         23.5003916512       23.7723664568        7.6308406104
C         23.0889435341       25.9002981112        6.5323576891
C         23.0419289106       24.3105855412        8.8448201418
C         22.6320453688       26.4384564916        7.7467611867
C         22.5995279232       25.6463556744        8.9115306150
N         22.1381842766       26.1933802463       10.1418114234
C         21.3112251549       25.5724662005       11.0594348386
C         22.5413039346       27.5238755900       10.5826100170
O         20.8029520206       24.4679654351       10.9707545191
O         21.1476875747       26.4233103981       12.1119735297
C         21.9036231085       27.6545657545       11.9763487857
C         21.0322917719       28.9179762015       12.1129020427
O         21.4791845133       30.0417973406       11.9590134849
N         19.6926344955       28.6954781676       12.3458679724
C         18.6377332279       29.6472955886       11.9637364526
C         17.5585115817       28.8981435281       11.1440839244
C         18.0502385747       30.3861811008       13.1979495529
C         18.1454898707       28.1303930642        9.9648868885
O         17.0422181198       31.3104538872       12.7822251560
C         19.1489235266       31.1520775990       13.9830444480
C         18.1698678460       26.7233446438        9.9714312782
C         18.6879084656       28.8247637577        8.8680227622
N         18.6586515332       32.0252674611       15.0887790301
C         18.7250326997       26.0186947826        8.8904721426
C         19.2464802485       28.1209720415        7.7881035271
C         19.7100584337       32.9067482353       15.6701511379
S         17.5807477671       31.2797654637       16.1973055698
C         19.2629230707       26.7171421622        7.7983131486
C         20.4451504181       33.8290315223       14.6604088128
O         16.2747468770       31.3360497732       15.5275202141
O         18.2110318293       30.0165729032       16.5989562815
C         17.4890382192       32.3886467362       17.6267965653
C         19.4530027714       34.6996770634       13.8554146038
C         21.4463953928       34.7349408464       15.4083492049
C         16.6694601727       33.5339318537       17.5826993795
C         18.2504983084       32.1269965835       18.7829641426
C         16.6110626870       34.4080614806       18.6816437744
C         18.1902894975       33.0020877694       19.8805137933
C         17.3739054892       34.1434124581       19.8368804514
O         17.3579441807       34.9658710145       20.9443138283
C         16.5687891406       36.1688592934       21.0222564010
H         23.8769453492       24.1500638694        5.5339310964
H         23.8385759434       22.7399667057        7.5876099044
H         23.1054523947       26.5168003667        5.6369943702
H         23.0340127190       23.6854632005        9.7339493958
H         22.2924879871       27.4699208268        7.7740456960
H         23.6345011986       27.5998022688       10.6395525774
H         22.1479620537       28.2885881824        9.9001603908
H         22.6835580818       27.7006659350       12.7462689574
H         19.4335162920       27.7223047492       12.4533225567
H         19.0777219393       30.4105685555       11.3062019003
H         17.0085197303       28.2175586688       11.8061518175
H         16.8191630012       29.6187667361       10.7719345308
H         17.6061117646       29.6278100947       13.8571438204
H         16.5931944961       31.6059585941       13.6092198464
H         19.8584269823       30.4207646641       14.3919845111
H         19.6940392684       31.7447800018       13.2409610102
H         17.7625647062       26.1733453328       10.8155199758
H         18.6789454531       29.9113952225        8.8548564031
H         18.7454581899       24.9316440275        8.9035805038
H         19.6651803547       28.6631131622        6.9440595420
H         19.2685788899       33.5773805880       16.4161388371
H         20.4531860877       32.2897536985       16.1939851467
H         19.6963325262       26.1709797088        6.9640748554
H         21.0286342326       33.2159736919       13.9602557089
H         19.9867770039       35.3586273020       13.1589557796
H         18.7682536993       34.0788416051       13.2634243171
H         18.8481922954       35.3276815913       14.5219022007
H         22.0021085294       35.3678478814       14.7045141994
H         20.9322469089       35.3926131068       16.1212742519
H         22.1775133848       34.1349649500       15.9653996734
H         16.0812723951       33.7482215847       16.6932160158
H         18.8905455044       31.2489644335       18.8298332449
H         15.9734502259       35.2846201548       18.6237749406
H         18.7796638328       32.7976291572       20.7701420068
H         16.7191300699       36.6545625713       21.9947059182
H         16.8621463095       36.8764497083       20.2359637967
H         15.5007225669       35.9395009634       20.9144899998
    79
VM2 Rank=8      G=213.135           E=119.365           -TS=93.770              
C         23.6402387900       24.3377054262        6.6247887278
C         23.2588079027       25.6883521849        6.6460417247
C         23.5303537661       23.5615060304        7.7891889725
C         22.7671413313       26.2617385015        7.8303727390
C         23.0371479871       24.1350093504        8.9730212823
C         22.6470347918       25.4883185216        9.0019488818
N         22.1505630737       26.0709871327       10.2018416408
C         21.2569956138       25.4967331842       11.0868362222
C         22.5855305064       27.3908018314       10.6444283314
O         20.7091864700       24.4121785364       10.9878538447
O         21.0787751456       26.3684161464       12.1197457946
C         21.8895891002       27.5664365514       12.0049991583
C         21.0648252252       28.8654995419       12.0857784300
O         21.5608632576       29.9676403777       11.9257588302
N         19.7103147221       28.7003065191       12.2759625887
C         18.7075740394       29.6848461846       11.8401167702
C         17.6410248677       28.9668852196       10.9769875846
C         18.0922377734       30.4523534496       13.0425107678
C         18.2530311013       28.1686077125        9.8312091621
O         17.1251389985       31.3991990629       12.5808712649
C         19.1785935948       31.1945828273       13.8659411678
C         18.2215005040       26.7617650181        9.8459951089
C         18.8737617337       28.8335418742        8.7578641164
N         18.6517803053       32.0865399390       14.9307125624
C         18.7987920284       26.0284089887        8.7961655772
C         19.4545717958       28.1009266626        7.7092977748
C         19.6599170160       33.0515301543       15.4303472918
S         17.4914871735       31.4295579403       16.0107848435
C         19.4148791507       26.6976435621        7.7272795392
C         19.1721648606       34.5179517759       15.3316930740
O         16.2101775190       31.5808132387       15.3092446171
O         18.0290190956       30.1227526923       16.4073718993
C         17.4712606849       32.4945570255       17.4787474901
C         20.1479531097       35.4586160642       16.0681103519
C         19.0154367046       34.9567571375       13.8587648512
C         16.5290426920       33.5365917710       17.5908863684
C         18.3816650523       32.2730829493       18.5318479451
C         16.5193199073       34.3623305445       18.7274378025
C         18.3705579705       33.1001924015       19.6679329500
C         17.4387925494       34.1527552880       19.7670828320
O         17.3827564743       34.9976745558       20.8560980916
C         18.2811956136       34.8989061238       21.9781310261
H         24.0212094163       23.8937806665        5.7082907385
H         23.3430293559       26.2908555566        5.7449739032
H         23.8277848649       22.5158385379        7.7750027479
H         22.4691996224       27.3063405563        7.8285796676
H         22.9615486616       23.5234595924        9.8683873307
H         23.6770685251       27.4246445102       10.7515908837
H         22.2549699023       28.1603979839        9.9347151881
H         22.6341110392       27.5917290739       12.8101318498
H         19.4092903029       27.7403570852       12.3927800473
H         19.2025095563       30.4278857535       11.1987365192
H         17.0376520388       28.3119392984       11.6180760231
H         16.9454400629       29.7097707612       10.5662591018
H         17.6014849047       29.7138621374       13.6911857968
H         16.6663435593       31.7336456490       13.3871692531
H         19.8487368954       30.4506272419       14.3164664349
H         19.7795268139       31.7828102804       13.1595484977
H         17.7533343229       26.2340186207       10.6725448413
H         18.9083040869       29.9195701952        8.7387325997
H         18.7754941039       24.9415111938        8.8156692070
H         19.9337730590       28.6203914049        6.8833665996
H         19.9402089360       32.8140200312       16.4636385720
H         20.5863412052       32.9733553548       14.8448695898
H         19.8650998662       26.1291324368        6.9172303944
H         18.1925986789       34.6103721357       15.8142960854
H         20.2304327532       35.1843898694       17.1279355184
H         21.1513509854       35.4154223464       15.6251255353
H         19.7999887057       36.4984429590       16.0198242585
H         19.9700869518       34.8890977158       13.3216632816
H         18.2870994176       34.3245247798       13.3342139343
H         18.6621764155       35.9937297318       13.7946804835
H         15.8110122304       33.7128111574       16.7932653892
H         19.1033994307       31.4620907849       18.4659044102
H         15.7966440906       35.1699549399       18.8048873329
H         19.0869458493       32.9139249344       20.4618545491
H         18.0482860608       35.6773478072       22.7156501476
H         18.1835427402       33.9215217118       22.4681688108
H         19.3215319753       35.0326233704       21.6543713978
    79
VM2 Rank=9      G=213.136           E=119.500           -TS=93.636              
C         21.7274474433       25.1921089032        5.8354722945
C         22.8998771493       25.0916730869        6.6011541589
C         20.5221967904       25.5704415695        6.4477206043
C         22.8673789805       25.3701443029        7.9779094020
C         20.4904168517       25.8481176516        7.8243041295
C         21.6616114138       25.7494503484        8.5996762548
N         21.6297773893       26.0421222584        9.9912343258
C         20.6772924957       25.6169806243       10.8976058048
C         22.6378155036       26.8924643620       10.6137271739
O         19.7343666574       24.8741480040       10.6849164626
O         21.0057566124       26.1356015558       12.1146233984
C         22.1617798162       27.0132097988       12.0730248928
C         21.8163751135       28.4625530930       12.4724433917
O         22.5471661820       29.4086650465       12.2296853060
N         20.5981813591       28.6331586834       13.0896195616
C         19.9444021179       29.9342861045       13.2783634605
C         18.4311167644       29.8041499513       12.9681646673
C         20.2526703642       30.4983617485       14.6937437952
C         18.1764267346       29.2727860579       11.5635173089
O         19.6377488335       29.6855679844       15.6974322898
C         19.8021186328       31.9762341635       14.8366935425
C         17.8300819728       27.9236037535       11.3632188259
C         18.3060992867       30.1252178780       10.4520396597
N         20.3157109719       32.6732229716       16.0500342143
C         17.6109607802       27.4332308728       10.0654230799
C         18.0885495724       29.6354851444        9.1534049413
C         21.7918125325       32.7857282530       16.1776829944
S         19.4868177192       32.4678432341       17.5327368443
C         17.7391387779       28.2894528993        8.9598971590
C         22.5170360711       33.3840643192       14.9433116368
O         19.9006571644       31.1623845235       18.0640622897
O         19.7212165383       33.7201620473       18.2619884807
C         17.7355309644       32.4687490485       17.0737597020
C         22.0100058718       34.8081922013       14.6207893267
C         24.0401750421       33.4142187466       15.1888758659
C         17.0018438813       31.2661055987       17.0470779293
C         17.1025174565       33.6729720278       16.7089969364
C         15.6518068737       31.2667312660       16.6569507919
C         15.7520897835       33.6718669464       16.3213233983
C         15.0217510822       32.4732550938       16.2913112424
O         13.7012279829       32.5337310901       15.8967884149
C         12.8540464689       31.3725567854       15.7972940403
H         21.7527962330       24.9767796372        4.7700026669
H         23.8337235911       24.7976555908        6.1282252931
H         19.6132640916       25.6489624169        5.8563260004
H         23.7815431542       25.2836196837        8.5585839573
H         19.5528529688       26.1414507285        8.2868642671
H         23.6257387722       26.4178610916       10.5719268193
H         22.6728673323       27.8699787398       10.1146383753
H         22.9349811905       26.6543327480       12.7631934278
H         20.0610590992       27.7935229887       13.2645189095
H         20.3699879634       30.6344192225       12.5454891602
H         17.9588948677       29.1480668352       13.7106825222
H         17.9422165956       30.7793276216       13.0747740824
H         21.3436236701       30.4590813564       14.8121809760
H         19.9655247538       29.9966117198       16.5732746385
H         20.1413852426       32.5182695235       13.9459910935
H         18.7082038721       32.0188641172       14.7995157530
H         17.7352596952       27.2524592198       12.2126662241
H         18.5792624862       31.1672565900       10.5949464257
H         17.3463160466       26.3889391422        9.9178926686
H         18.1909083467       30.2987320823        8.2981588032
H         22.0276890032       33.4239117009       17.0406712215
H         22.2166246414       31.7973633574       16.3989861886
H         17.5698480294       27.9105733894        7.9550864616
H         22.3425373690       32.7402800418       14.0702964699
H         22.5340222926       35.2221783114       13.7499448529
H         20.9369618026       34.8076768396       14.3926857526
H         22.1730020002       35.4856377696       15.4688145741
H         24.4253828621       32.4055041395       15.3863593361
H         24.5700774908       33.8067892694       14.3114519698
H         24.2915626770       34.0489254513       16.0485221700
H         17.4793407893       30.3282647020       17.3209269308
H         17.6600480753       34.6068040331       16.7203442198
H         15.1087831276       30.3270561649       16.6403684360
H         15.2681090960       34.6026224937       16.0385155660
H         11.8520401557       31.6662406006       15.4598367140
H         13.2635469594       30.6551174410       15.0743537257
H         12.7567771406       30.8788542710       16.7728682727
    79
VM2 Rank=10     G=213.152           E=119.391           -TS=93.761              
C         23.5680111112       24.3656936980        6.5304094290
C         23.1887936729       25.7165777523        6.5691394207
C         23.4755260971       23.5797681650        7.6897865270
C         22.7167176478       26.2804932578        7.7659243224
C         23.0018986337       24.1438041125        8.8860940028
C         22.6141289764       25.4972949378        8.9326562896
N         22.1375345871       26.0703480991       10.1451667664
C         21.2573253977       25.4896663159       11.0393006724
C         22.5813231729       27.3857761545       10.5920394223
O         20.7063812048       24.4067579844       10.9396910627
O         21.0968895349       26.3526160889       12.0824019854
C         21.9074752821       27.5505425070       11.9650362823
C         21.0859200433       28.8498902349       12.0702677006
O         21.5807437546       29.9527622994       11.9115237195
N         19.7345086348       28.6846835905       12.2812864826
C         18.7259988776       29.6743753632       11.8712002289
C         17.6448522212       28.9658453747       11.0185026739
C         18.1311215195       30.4306376245       13.0908689294
C         18.2374712362       28.1776002454        9.8557080365
O         17.1571935503       31.3825215111       12.6545215372
C         19.2315079598       31.1641990669       13.9033914076
C         18.2046020967       26.7707106875        9.8580319572
C         18.8417676015       28.8518070687        8.7787759691
N         18.7222224068       32.0453177678       14.9854421954
C         18.7642783645       26.0465083925        8.7924288152
C         19.4049678063       28.1283308092        7.7143752609
C         19.7356179007       33.0093951554       15.4759314203
S         17.5779913528       31.3791611747       16.0769004999
C         19.3639953745       26.7249795874        7.7200607855
C         19.2412033354       34.4747589702       15.3966129680
O         16.2852965151       31.5473910207       15.4005991116
O         18.1152872500       30.0639080568       16.4449008952
C         17.5919329101       32.4218040551       17.5609001829
C         20.2237363298       35.4130402296       16.1270563499
C         19.0617857028       34.9252778315       13.9298291241
C         18.5206720019       32.1788698966       18.5927037078
C         16.6583265259       33.4677015400       17.7069148455
C         18.5330348068       32.9904347134       19.7393149396
C         16.6724167620       34.2787961749       18.8545237571
C         17.6153444897       34.0438181814       19.8751033114
O         17.6781891566       34.8085196474       21.0215105429
C         16.8070081939       35.9286146553       21.2711664614
H         23.9338196407       23.9290994562        5.6042646912
H         23.2595583559       26.3266041012        5.6719845919
H         23.7712825004       22.5338964788        7.6620382879
H         22.4202214810       27.3254436834        7.7777162347
H         22.9396602103       23.5247712314        9.7773372115
H         23.6744812732       27.4173786429       10.6819937312
H         22.2404751052       28.1618391906        9.8943356505
H         22.6648044518       27.5679046703       12.7583468686
H         19.4341343306       27.7241323894       12.3947889893
H         19.2113318152       30.4231499423       11.2291504708
H         17.0508935908       28.3056257427       11.6629643440
H         16.9438181256       29.7134037754       10.6259190996
H         17.6505648423       29.6861553472       13.7403158350
H         16.7134383039       31.7113190585       13.4714759016
H         19.9087091219       30.4156789902       14.3354105414
H         19.8208846544       31.7593746861       13.1930990792
H         17.7490989547       26.2358180126       10.6870595855
H         18.8772625726       29.9379305176        8.7691265590
H         18.7400834236       24.9594995314        8.8022964962
H         19.8715370406       28.6549289957        6.8857335502
H         20.0335727827       32.7649592453       16.5026475914
H         20.6524900029       32.9386754888       14.8746925547
H         19.8005968183       26.1635290767        6.8977253189
H         18.2681977155       34.5592014893       15.8937235474
H         20.3222896725       35.1302553397       17.1832750409
H         21.2209144256       35.3774211129       15.6695880304
H         19.8712388313       36.4518794983       16.0924317409
H         20.0089613182       34.8660597123       13.3786772382
H         18.3285812889       34.2944882364       13.4103429497
H         18.7035202034       35.9612929776       13.8795354114
H         19.2368586884       31.3653681732       18.5021643734
H         15.9268262198       33.6587181909       16.9250546721
H         19.2565145933       32.8039361680       20.5281958726
H         15.9487986447       35.0833967062       18.9393245334
H         17.0475146350       36.3829383797       22.2406499943
H         16.9276618406       36.6940608775       20.4936397131
H         15.7579243619       35.6063454748       21.2938997149
    79
VM2 Rank=11     G=213.168           E=118.835           -TS=94.333              
C         23.5690698812       24.5555190272        6.5302973741
C         23.1154653462       25.8832709848        6.5691509416
C         23.5573893650       23.7779393471        7.6989008267
C         22.6498530976       26.4323688418        7.7753164983
C         23.0901922771       24.3270647082        8.9046398192
C         22.6282009595       25.6570279380        8.9515618665
N         22.1578913695       26.2151504922       10.1734329627
C         21.3392156811       25.5957616610       11.0994797474
C         22.5411942864       27.5576859754       10.5949557521
O         20.8474456392       24.4826547766       11.0268074858
O         21.1620935716       26.4595824072       12.1391827933
C         21.8999790641       27.6996881475       11.9859608286
C         21.0100213940       28.9520521566       12.1026654899
O         21.4406578457       30.0798647229       11.9324895481
N         19.6734007580       28.7134891742       12.3372342013
C         18.6053434510       29.6436613976       11.9386550516
C         17.5379717603       28.8658202247       11.1302862795
C         18.0056441663       30.3942128888       13.1599144557
C         18.1371866056       28.0879614235        9.9639441309
O         16.9858729093       31.2977327336       12.7275245190
C         19.0923423244       31.1876901029       13.9342432825
C         18.1814774346       26.6816804968        9.9927222574
C         18.6708653942       28.7725611834        8.8566981079
N         18.5881943044       32.0726007227       15.0243257311
C         18.7476945038       25.9680104561        8.9234762064
C         19.2404915949       28.0598135936        7.7884921925
C         19.6264983066       32.9773626050       15.5933705912
S         17.5176881656       31.3315337196       16.1429627130
C         19.2768131795       26.6566948508        7.8208832013
C         20.3543956063       33.8903081147       14.5700245503
O         16.2123533960       31.3595758675       15.4701116381
O         18.1637603004       30.0835354836       16.5664296117
C         17.4092221301       32.4622524567       17.5541040981
C         19.3550602184       34.7347721857       13.7462561638
C         21.3420724122       34.8210967430       15.3053557582
C         18.1753976218       32.2317718071       18.7141133949
C         16.5716263346       33.5932500391       17.4918114064
C         18.1046290837       33.1217272506       19.7996608480
C         16.5025453672       34.4815227280       18.5780874354
C         17.2655499888       34.2523515791       19.7340181030
O         17.1572867427       35.1602702789       20.7670133600
C         17.8909461610       35.0421087065       22.0014387763
H         23.9298812301       24.1304125052        5.5968778897
H         23.1235385564       26.4867768886        5.6648610829
H         23.9107693632       22.7501130304        7.6709685818
H         22.2951284378       27.4590069883        7.7873090627
H         23.0908108172       23.7149788472        9.8028273091
H         23.6331110077       27.6502269285       10.6518921225
H         22.1377167625       28.3064996512        9.9008945307
H         22.6782050841       27.7687745629       12.7558911290
H         19.4284034749       27.7383463856       12.4590081939
H         19.0351336847       30.4023406614       11.2691656067
H         16.9972943887       28.1879749596       11.8027568210
H         16.7885684613       29.5695270842       10.7460714164
H         17.5707265090       29.6406241128       13.8306366537
H         16.5313628425       31.6006904286       13.5488129727
H         19.8106916411       30.4728319971       14.3566162476
H         19.6309934442       31.7752002874       13.1833637047
H         17.7810917927       26.1393416989       10.8450374191
H         18.6464843050       29.8586115818        8.8263427471
H         18.7834953043       24.8817004879        8.9537601675
H         19.6523537068       28.5944515391        6.9363367304
H         19.1737774978       33.6557965402       16.3254765518
H         20.3750816752       32.3790791350       16.1309601239
H         19.7188275526       26.1036409748        6.9957488627
H         20.9477291693       33.2719339071       13.8829352913
H         18.6797089264       34.0955349094       13.1631286462
H         18.7405646562       35.3673964418       14.3993891870
H         19.8836139378       35.3874508888       13.0399802240
H         20.8175247471       35.4850914662       16.0047181883
H         22.0781524625       34.2397745639       15.8754949106
H         21.8928862544       35.4480477430       14.5923993134
H         18.8288125459       31.3643600972       18.7732696842
H         15.9790172891       33.7850700249       16.6001713919
H         18.7047254184       32.9241063527       20.6823366906
H         15.8563258875       35.3534210573       18.5255261281
H         17.6428154356       35.8781110106       22.6675476733
H         17.6364598101       34.1062340780       22.5155963842
H         18.9722084741       35.0623121160       21.8131411633
    79
VM2 Rank=12     G=213.194           E=118.286           -TS=94.908              
C         22.0514179064       26.9509633621        5.4839958792
C         22.9450349891       26.2788655032        6.3325763924
C         21.1400752255       27.8749351817        6.0186826226
C         22.9255094389       26.5288785545        7.7148667693
C         21.1219327272       28.1256838600        7.4006889384
C         22.0105437592       27.4504895865        8.2607853896
N         21.9929181128       27.7074062997        9.6606510419
C         22.0938992214       26.7689554579       10.6709743227
C         21.8878523688       29.0643583582       10.1846132713
O         22.1795946556       25.5586930012       10.5524070253
O         22.0780138881       27.4364311742       11.8595414720
C         22.0150747441       28.8779536929       11.7062081478
C         20.8487769524       29.5181153872       12.4832092494
O         20.5678932584       30.7005535595       12.3874592439
N         20.0938298621       28.6524209681       13.2443478197
C         18.6890726272       28.9064118358       13.6026582505
C         17.8337514655       27.6980657383       13.1462083887
C         18.5308308679       29.2268978974       15.1157287499
C         18.0488890502       27.3448440185       11.6785590504
O         17.1477374496       29.3964996906       15.4310479943
C         19.3138629359       30.5088884848       15.5126070306
C         18.6979018342       26.1483992442       11.3211982819
C         17.6172429478       28.2238703585       10.6683194177
N         19.4437335579       30.7384126476       16.9794663610
C         18.9069629951       25.8315613941        9.9687510568
C         17.8293358194       27.9097363717        9.3155879361
C         20.1552973821       29.6886144206       17.7535915241
S         18.1617002516       31.5011815634       17.8150428986
C         18.4720947390       26.7116268543        8.9655921083
C         21.5478002504       29.2888449876       17.1966477075
O         17.1244761927       30.4798063167       18.0121906348
O         18.8107816808       32.1837115655       18.9411257564
C         17.6042306855       32.8052137553       16.6905008611
C         22.5086481177       30.4984110689       17.1426123809
C         22.1628804302       28.1704489129       18.0637583578
C         18.3907663324       33.9587380944       16.5026827867
C         16.3958453022       32.6685226092       15.9794920600
C         17.9746865071       34.9651596040       15.6142795129
C         15.9818773070       33.6754670262       15.0915132423
C         16.7654341053       34.8251436210       14.9038288434
O         16.3079902098       35.7781276864       14.0173726763
C         17.0248018456       36.9936902857       13.7266285458
H         22.0658631300       26.7569698864        4.4142610610
H         23.6533304178       25.5648132774        5.9196168158
H         20.4471713778       28.3962459230        5.3628227211
H         23.6263035098       26.0047463419        8.3594970215
H         20.4058936275       28.8384426145        7.7997198129
H         22.6962395689       29.6956453122        9.7946492197
H         20.9140899683       29.4998755011        9.9249752561
H         22.9464169280       29.3320062122       12.0662892992
H         20.4136486860       27.6914852420       13.2411986935
H         18.3371433835       29.7860302408       13.0451716900
H         18.0603716889       26.8339136532       13.7832383423
H         16.7715959495       27.9211402106       13.3085524013
H         18.9349761640       28.3722008612       15.6735604458
H         17.0760486323       29.4932557045       16.4098894538
H         20.3200527883       30.4472680967       15.0848981582
H         18.8498754031       31.3681509112       15.0140971236
H         19.0448257689       25.4637985795       12.0904982039
H         17.1195976604       29.1529906286       10.9330227292
H         19.4130651779       24.9077515195        9.6991383665
H         17.4944510261       28.5934806788        8.5397230402
H         20.3000244896       30.0408398792       18.7843854257
H         19.5245598730       28.7919011769       17.8185667259
H         18.6375672090       26.4672525102        7.9191945522
H         21.4320500634       28.8852155337       16.1814949487
H         22.6555797366       30.9294813668       18.1411969948
H         23.4905281042       30.2009774231       16.7531334818
H         22.1186094126       31.2888093502       16.4893758442
H         22.3162209893       28.5081220154       19.0969575546
H         21.5098067539       27.2885744226       18.0875676336
H         23.1346350267       27.8544686685       17.6630020663
H         19.3278844611       34.0711232710       17.0432774244
H         15.7808635202       31.7811074108       16.1095115014
H         18.5982646254       35.8441607003       15.4850643546
H         15.0505321120       33.5650439760       14.5429960528
H         16.4689343242       37.5914698875       12.9932638116
H         17.1512466109       37.5960431492       14.6355557353
H         18.0142819047       36.7692303832       13.3076400093
    79
VM2 Rank=13     G=213.205           E=119.538           -TS=93.667              
C         21.7308253689       25.1861184857        5.8101556952
C         22.9312874721       25.1572981578        6.5374869816
C         20.5272352459       25.5043916562        6.4587620238
C         22.9284120076       25.4473320626        7.9122354909
C         20.5251160735       25.7936695252        7.8333202129
C         21.7245623270       25.7666318469        8.5703581522
N         21.7220340031       26.0709636076        9.9597699871
C         20.8243121197       25.6035010221       10.9005410511
C         22.7016407807       26.9811676212       10.5416832628
O         19.9172028434       24.8081709988       10.7251944756
O         21.1632323694       26.1513838471       12.1017684244
C         22.2670928760       27.0906639733       12.0147465043
C         21.8552401499       28.5229381116       12.4127555622
O         22.5251690367       29.5050347743       12.1392587941
N         20.6491507541       28.6330964797       13.0663786657
C         19.9311356889       29.8985313302       13.2640973970
C         18.4178864456       29.6820339354       13.0070544109
C         20.2550697274       30.4959856715       14.6621370647
C         18.1462325883       29.1224595032       11.6165968931
O         19.7209317251       29.6630281922       15.6951177069
C         19.7270625745       31.9478808460       14.8056831407
C         17.8695266871       27.7540288599       11.4399480909
C         18.1907651013       29.9689381945       10.4939448957
N         20.2540928614       32.6919249932       15.9847939241
C         17.6350328280       27.2384594960       10.1546614478
C         17.9577618171       29.4540895638        9.2077642732
C         21.7254891898       32.8912599215       16.0423487892
S         19.5074049368       32.4600575173       17.5066073998
C         17.6780688903       28.0887023760        9.0379843087
C         22.3582310106       33.5086219746       14.7671362532
O         20.0125070617       31.1837443413       18.0297764596
O         19.7103595080       33.7307112670       18.2132375967
C         17.7388769889       32.3677829855       17.1309826822
C         21.7555642800       34.8956741965       14.4475365054
C         23.8866206858       33.6300180036       14.9416203875
C         17.0303945428       33.5338188337       16.7802638881
C         17.0650638117       31.1309023232       17.1576341980
C         15.6638048799       33.4650847362       16.4593282292
C         15.6993384076       31.0640675315       16.8352664498
C         14.9930427993       32.2257218388       16.4853048862
O         13.6547343920       32.0967034260       16.1764108295
C         12.8234871420       33.2084059712       15.7903466079
H         21.7332400205       24.9618496513        4.7462320505
H         23.8639389913       24.9098230918        6.0363934091
H         19.5966041339       25.5274052340        5.8970967499
H         23.8643414271       25.4164990432        8.4630994951
H         19.5884589735       26.0401548117        8.3241902498
H         23.7121591650       26.5605564352       10.4714687666
H         22.6670739726       27.9540260343       10.0335438728
H         23.0808351165       26.7820100246       12.6822202448
H         20.1644875525       27.7672353943       13.2650485036
H         20.2926617763       30.6119614537       12.5099482553
H         18.0079331400       29.0089906799       13.7710919210
H         17.8797230636       30.6299987733       13.1217579235
H         21.3499033296       30.5186777040       14.7428070560
H         20.0649161587       29.9999138922       16.5550988017
H         19.9937757764       32.4943477652       13.8932834674
H         18.6318504198       31.9270481032       14.8186419274
H         17.8408554361       27.0877023558       12.2979573962
H         18.4097813568       31.0260256290       10.6183806085
H         17.4245470287       26.1795371671       10.0253191242
H         17.9942105261       30.1128872565        8.3437745021
H         21.9627842264       33.5568364103       16.8839810993
H         22.2166931779       31.9329651440       16.2584061050
H         17.4968577392       27.6903210858        8.0428409957
H         22.1820400070       32.8408567035       13.9126611245
H         21.9175573390       35.5959501386       15.2770047883
H         22.2146302104       35.3236896541       13.5473092168
H         20.6750826397       34.8300105562       14.2695241541
H         24.1395165438       34.2927354638       15.7794083503
H         24.3381094099       32.6485030562       15.1357384095
H         24.3526354531       34.0370811298       14.0350276681
H         17.5428123509       34.4928145706       16.7514284803
H         17.5994807761       30.2210695439       17.4205755023
H         15.1395427731       34.3767785479       16.1906796676
H         15.1843432324       30.1075599342       16.8536117115
H         11.8012045893       32.8622011744       15.5922788310
H         12.7829635129       33.9584854409       16.5907850483
H         13.2086690204       33.6817376469       14.8778922845
    79
VM2 Rank=14     G=213.216           E=118.300           -TS=94.917              
C         21.5117376157       26.7891195977        5.3967638452
C         20.5569794608       27.6280385283        5.9924257605
C         22.5816572938       26.2951266030        6.1593920992
C         20.6716854752       27.9716465668        7.3495997066
C         22.6951332375       26.6378526940        7.5170660086
C         21.7384726493       27.4747829191        8.1244384045
N         21.8549399066       27.8257224727        9.4989242118
C         22.1992984577       26.9807935850       10.5377449213
C         21.6350891680       29.1926848707        9.9571482535
O         22.4293790790       25.7852538295       10.4754214939
O         22.2378053308       27.7233492647       11.6803730759
C         21.9667884445       29.1313789307       11.4579521064
C         20.8272716372       29.6744757056       12.3413258276
O         20.3828073863       30.8029260841       12.2177492456
N         20.2899746732       28.7774007686       13.2386895986
C         18.9168174561       28.8790104377       13.7585972072
C         18.1808461092       27.5441671252       13.4819486689
C         18.8989174934       29.2839575511       15.2595313429
C         18.2635698998       27.1178129576       12.0203061867
O         17.5529201137       29.3024340205       15.7381259938
C         19.5477011527       30.6781021561       15.4823642327
C         17.6010742928       27.8624142542       11.0271997739
C         19.0179963274       25.9894974213       11.6486309592
N         19.8160811947       31.0274122175       16.9061829627
C         17.6892350597       27.4823929574        9.6776236203
C         19.1035696046       25.6064445790       10.2998698970
C         20.7440491834       30.1318706857       17.6440930869
S         18.5514884563       31.6853856763       17.8504548298
C         18.4386145975       26.3521698686        9.3141302664
C         22.1028523919       29.8677845129       16.9419806577
O         17.6886161822       30.5604916020       18.2351261792
O         19.2321703276       32.5242371231       18.8445499870
C         17.6983361837       32.8231625262       16.7307820809
C         22.8840024685       31.1795498549       16.7005983655
C         22.9556426364       28.8991554903       17.7878678631
C         18.2946855771       34.0510577366       16.3836722155
C         16.4466417753       32.4820798480       16.1811636567
C         17.6450062125       34.9261669690       15.4970980293
C         15.7989010312       33.3582754221       15.2935739138
C         16.3984412200       34.5861738957       14.9480484869
O         15.8105683386       35.4838909216       14.0810260435
C         14.5432348982       35.2453497687       13.4384389332
H         21.4233816770       26.5233687631        4.3461708348
H         19.7276244296       28.0114266145        5.4031746741
H         23.3234893346       25.6473490156        5.6987859751
H         19.9207237244       28.6161791876        7.7974814085
H         23.5312666390       26.2518474204        8.0943507582
H         22.3006276216       29.8903534791        9.4333145595
H         20.5883809155       29.4845162178        9.8005211006
H         22.8661262980       29.7221689854       11.6709727606
H         20.7315547993       27.8660156445       13.2473205489
H         18.3874948388       29.6660641332       13.2029639627
H         18.5947214230       26.7622363286       14.1309568985
H         17.1256398618       27.6438243729       13.7663714479
H         19.4757682412       28.5278563003       15.8077890122
H         17.5858399201       29.4598101717       16.7111418438
H         20.4966683297       30.7101722150       14.9368233785
H         18.9203491788       31.4353106894       14.9974211616
H         17.0198831909       28.7384782628       11.3023395287
H         19.5423945940       25.4096626550       12.4033860098
H         17.1760091926       28.0624135144        8.9148694908
H         19.6917847296       24.7363379923       10.0184940381
H         20.9599239768       30.5726147990       18.6272989841
H         20.2481246272       29.1712633282       17.8375990241
H         18.5084624260       26.0570743418        8.2700572447
H         21.9240587287       29.3809180083       15.9735559617
H         23.8445303994       30.9782075734       16.2095818719
H         22.3205580561       31.8666980447       16.0572152103
H         23.0879906228       31.6962438249       17.6471709105
H         22.4310341193       27.9475037415       17.9425295864
H         23.9073347198       28.6773755511       17.2880146704
H         23.1821898309       29.3267010150       18.7732200399
H         19.2630365738       34.3227580057       16.7977659789
H         15.9775829198       31.5347365897       16.4364329688
H         18.1091780235       35.8716898153       15.2305613538
H         14.8366129761       33.0723178155       14.8808033794
H         13.7472880177       35.1229773624       14.1843985200
H         14.2825753464       36.0948405331       12.7945645044
H         14.5887690053       34.3429939700       12.8149812902
    79
VM2 Rank=15     G=213.242           E=119.489           -TS=93.754              
C         20.7445104492       25.1378463853        6.1890450095
C         20.9458076811       24.1574536436        7.1732869722
C         20.8079028007       26.4972729319        6.5327291019
C         21.2078515659       24.5363850024        8.5004489941
C         21.0716196796       26.8756382728        7.8595297293
C         21.2681430851       25.8983238062        8.8551516574
N         21.5345057961       26.2830060356       10.1992244299
C         20.9925691230       25.7176830486       11.3384939048
C         22.4780889163       27.3500221544       10.5140100120
O         20.1765120267       24.8144352953       11.4021200850
O         21.5342792103       26.3553993236       12.4150059780
C         22.4994905715       27.3763792815       12.0518373525
C         22.1463836838       28.7651634842       12.6171142012
O         22.9070938395       29.7157327783       12.5537829460
N         20.8706571034       28.8945686853       13.1186940466
C         20.1526112020       30.1758991836       13.1582678497
C         18.6488090507       29.9263744367       12.8710889080
C         20.4240712421       30.9087075136       14.5014320699
C         18.4315100922       29.1199529523       11.5965183724
O         19.9772822985       30.0981879576       15.5850060076
C         19.7662208373       32.3105246849       14.5605260360
C         18.0637707758       27.7633538123       11.6660427617
C         18.6259627778       29.7195167133       10.3388685194
N         20.1676380353       33.1412693859       15.7310581705
C         17.8900686795       27.0151652367       10.4900416757
C         18.4521937792       28.9718900264        9.1623470123
C         21.6090405801       33.4773292076       15.8486893804
S         19.3608565961       32.9473277322       17.2315116710
C         18.0840741072       27.6190954220        9.2379335518
C         22.2451419036       34.1102384011       14.5829606496
O         20.0939917890       31.9518590113       18.0229813598
O         19.1820052008       34.3244159646       17.7091513152
C         17.7023283542       32.3424725930       16.8203768965
C         21.5353794897       35.4248332306       14.1863385737
C         23.7458508479       34.3775703833       14.8229985873
C         16.7631340932       33.2099286533       16.2281401939
C         17.3421147531       31.0041376572       17.0723711360
C         15.4859593998       32.7385674150       15.8809202142
C         16.0652608668       30.5332639938       16.7220795680
C         15.1318623618       31.4015308937       16.1212878473
O         13.8669177520       30.9939872609       15.7512890336
C         13.4015276023       29.6382901481       15.8972982179
H         20.5405191841       24.8447301643        5.1621004485
H         20.8991808490       23.1040655996        6.9082218175
H         20.6512307182       27.2578889559        5.7718855725
H         21.3653318617       23.7669034354        9.2517649094
H         21.1084890905       27.9315955732        8.1112969333
H         23.4717467116       27.1185181379       10.1100552809
H         22.1248119002       28.3080898152       10.1111924470
H         23.4953577362       27.1046966123       12.4229760788
H         20.3173150497       28.0464730016       13.1151922397
H         20.5453005878       30.8087792286       12.3494040550
H         18.1894050966       29.4117707952       13.7249815076
H         18.1230185154       30.8839396117       12.7786573218
H         21.5119549457       31.0394215023       14.5755731191
H         20.3788785710       29.2183266240       15.4319155632
H         20.0297647687       32.8419749977       13.6386003726
H         18.6785271783       32.1945060336       14.5245430079
H         17.9173322577       27.2852548945       12.6309407659
H         18.9160479050       30.7646925603       10.2737027947
H         17.6135297449       25.9653270382       10.5497883384
H         18.6056417524       29.4394522108        8.1930976388
H         21.7418193182       34.1865903770       16.6775347209
H         22.1707856481       32.5733922234       16.1209979904
H         17.9561028396       27.0377037354        8.3281331143
H         22.1717186373       33.4022230955       13.7462450114
H         21.5921264538       36.1628867338       14.9967044417
H         21.9969185321       35.8648327597       13.2931972145
H         20.4752837800       35.2535527223       13.9618974638
H         23.8961369422       35.0868478512       15.6472298320
H         24.2740533317       33.4483739371       15.0730884570
H         24.2171244525       34.7969723860       13.9248046728
H         17.0283839659       34.2459205152       16.0299511049
H         18.0591296414       30.3244371005       17.5270862093
H         14.7669463088       33.4096388492       15.4192434641
H         15.8154975708       29.4954828563       16.9184725816
H         12.3723727768       29.5522779615       15.5263963189
H         14.0329195605       28.9482990031       15.3225403780
H         13.4125130135       29.3360032227       16.9524815316
    79
VM2 Rank=16     G=213.293           E=119.638           -TS=93.655              
C         22.9667979718       23.8303771568        6.0487961578
C         22.4477804667       23.0144050044        7.0661722338
C         23.1548356578       25.2019709825        6.2800715036
C         22.1147721767       23.5702599970        8.3126569621
C         22.8228673763       25.7570676399        7.5270204775
C         22.2946490275       24.9469493755        8.5517516389
N         21.9611165086       25.5091199539        9.8163658970
C         20.8364965564       25.2290138036       10.5696409609
C         22.8373366121       26.4669316698       10.4805380192
O         19.9147679671       24.4872751720       10.2754584356
O         20.9298171852       25.9335857853       11.7322023899
C         22.1251000009       26.7514370458       11.8161639837
C         21.7997991972       28.2441841595       12.0274570027
O         22.5634063019       29.1390864996       11.7044820803
N         20.5560914823       28.5085015157       12.5591707202
C         19.8649060298       29.7995853661       12.4334409732
C         18.7842061623       29.7098087106       11.3218987113
C         19.3120569550       30.2375100897       13.8193705292
C         19.3196242221       29.1593700142       10.0046042626
O         18.3247403662       29.3132769875       14.2898014511
C         18.7273451487       31.6750119355       13.8136018307
C         18.9178071622       27.8899806914        9.5486666028
C         20.2287901511       29.9112525147        9.2382172480
N         18.1339389712       32.1029861839       15.1065208595
C         19.4139245663       27.3808564252        8.3371089092
C         20.7290414692       29.4013685501        8.0284702767
C         17.2523616894       33.2883524347       14.9865109907
S         19.0446429755       31.8503711888       16.5387800797
C         20.3181367913       28.1375673092        7.5756005934
C         15.8189008363       33.0072779944       15.5001127787
O         18.7595700823       30.4599961821       16.9161098003
O         20.3961567709       32.3273308464       16.2222182833
C         18.3500230040       32.9466365283       17.8058414225
C         15.0085762450       34.3177487432       15.5732020875
C         15.0940627573       31.9796651190       14.6025682221
C         18.7926298734       34.2805873105       17.9137292556
C         17.3799088058       32.4679493858       18.7090075869
C         18.2520868530       35.1328003739       18.8917450381
C         16.8406712974       33.3212987384       19.6860849180
C         17.2688041663       34.6546895945       19.7808440627
O         16.7008091324       35.4452630320       20.7582732379
C         17.0416430272       36.8322919886       20.9477215255
H         23.2241140272       23.4004708328        5.0838256008
H         22.3042850461       21.9512185002        6.8896597906
H         23.5575738171       25.8352101964        5.4933842786
H         21.7186204212       22.9254620517        9.0928541456
H         22.9707400647       26.8210331258        7.6881775942
H         22.9294374450       27.3809754933        9.8798610332
H         23.8294638233       26.0296148940       10.6489005051
H         22.7454287768       26.4222729866       12.6586468456
H         19.9953793151       27.7021820541       12.8072667501
H         20.5985037471       30.5570611102       12.1242117715
H         17.9541520460       29.0849879174       11.6754454175
H         18.3572758084       30.7022112126       11.1386420220
H         20.1681993414       30.2238384098       14.5077771248
H         18.1846351643       29.5285017332       15.2413696858
H         19.5226906276       32.3755629372       13.5262154057
H         17.9521599993       31.7235830017       13.0397227997
H         18.2235064550       27.2940928731       10.1352651643
H         20.5527736727       30.8889740040        9.5843216881
H         19.1012788253       26.3983140335        7.9917981499
H         21.4327574389       29.9866200141        7.4420373354
H         17.6833544292       34.1443531224       15.5194333024
H         17.1723308171       33.6010275285       13.9364331161
H         20.7012902262       27.7437103142        6.6375842973
H         15.8704045329       32.5901625976       16.5125346615
H         14.9167958762       34.7834391129       14.5834534517
H         13.9968857932       34.1310067570       15.9556430570
H         15.4907970275       35.0385574953       16.2463735984
H         15.6344957999       31.0242476213       14.5804947350
H         14.0817267337       31.7795445114       14.9758590238
H         15.0096929813       32.3444517071       13.5710029329
H         19.5521973948       34.6587694423       17.2332979712
H         17.0370782690       31.4376272006       18.6478282442
H         18.6040254800       36.1579966120       18.9495117669
H         16.0865817362       32.9496047398       20.3743490447
H         16.4600539303       37.2520942943       21.7781876720
H         18.1076960491       36.9405351137       21.1859871870
H         16.8180374826       37.4131963172       20.0435375200
    79
VM2 Rank=17     G=213.341           E=119.864           -TS=93.477              
C         23.9211530212       24.1768614760        6.6804348298
C         22.5696296459       23.9643740003        6.9923233757
C         24.7061542422       25.0001573629        7.5022235756
C         22.0043392122       24.5764133477        8.1231593494
C         24.1396123262       25.6127202610        8.6325713976
C         22.7818271674       25.4089622045        8.9526956335
N         22.2057929744       26.0392051056       10.0943676974
C         21.3091397214       25.4750139714       10.9848985635
C         22.5014342496       27.4281066542       10.4344764619
O         20.8476989933       24.3468966162       10.9582279000
O         21.0098212143       26.4164386055       11.9249232866
C         21.8046471756       27.6216642349       11.7911491308
C         20.9809286019       28.9200307161       11.8790261015
O         21.4464033558       30.0125549080       11.6025272571
N         19.6588117895       28.7623080988       12.2318178080
C         18.6078615886       29.7247358328       11.8644742084
C         17.5207151720       28.9939329868       11.0394443229
C         18.0385926786       30.4579582387       13.1088696616
C         18.1073511363       28.2072720579        9.8725738195
O         17.0261526731       31.3871006643       12.7134102649
C         19.1524488772       31.2135476041       13.8819891324
C         18.0554819000       26.8011596917        9.8647108282
C         18.7369289473       28.8808371601        8.8096550566
N         18.6648893331       32.0792437873       14.9862960303
C         18.6203167189       26.0770005819        8.8023001629
C         19.3089951626       28.1573062638        7.7503466508
C         19.6742619029       33.0641404523       15.4425649932
S         17.5778393933       31.3839464211       16.1174010899
C         19.2486305612       26.7549117151        7.7451835275
C         19.1455966605       34.5185370699       15.3855462075
O         16.2573077975       31.5223357726       15.4898400741
O         18.1596044791       30.0813147252       16.4619507037
C         17.6211320648       32.4247195336       17.6021534977
C         20.1335598681       35.4764639474       16.0823966317
C         18.9029564863       34.9681636416       13.9276101545
C         16.6698545235       33.4489423325       17.7834928529
C         18.5915592842       32.2018991845       18.5995569978
C         16.7066262111       34.2588947606       18.9313975477
C         18.6265557308       33.0122873728       19.7465416719
C         17.6906609994       34.0443920176       19.9170766337
O         17.7770965420       34.8090533087       21.0619755169
C         16.8906296166       35.9091953117       21.3444193925
H         24.3596437304       23.7029599358        5.8055846985
H         21.9598957884       23.3249869797        6.3586969915
H         25.7545191837       25.1630215420        7.2643783165
H         20.9575901490       24.3996456372        8.3502543674
H         24.7665828775       26.2392960920        9.2599695221
H         22.0760677582       28.0949734536        9.6724004587
H         23.5792060133       27.6057775725       10.5274598733
H         22.5552990621       27.6513730367       12.5905048497
H         19.3797079969       27.8081197342       12.4258090988
H         19.0479666970       30.4928426065       11.2129978917
H         16.9519184536       28.3281809127       11.7006267376
H         16.8000551563       29.7275471033       10.6562263456
H         17.6012116678       29.6985473715       13.7714258736
H         16.6047678557       31.7012721642       13.5478256547
H         19.8622883852       30.4789541374       14.2846403194
H         19.7009280295       31.8242065227       13.1523077188
H         17.5805303237       26.2672411391       10.6833736319
H         18.7893389712       29.9662893855        8.8090328776
H         18.5736233270       24.9909160411        8.8021756276
H         19.7970270389       28.6833085857        6.9337153876
H         20.0144144821       32.8241178421       16.4571436242
H         20.5700898793       33.0147309165       14.8084212212
H         19.6881671640       26.1955540551        6.9231529152
H         18.1898091442       34.5806753547       15.9180952712
H         20.2767361106       35.1936631246       17.1334930805
H         21.1139059908       35.4635712388       15.5887757979
H         19.7575676066       36.5074445353       16.0636762806
H         18.1650525374       34.3227064366       13.4334069509
H         18.5207343823       35.9962464999       13.8934801016
H         19.8303954999       34.9307780760       13.3420619612
H         15.9066849926       33.6241462120       17.0286692613
H         19.3223627536       31.4050460578       18.4818697592
H         15.9684076178       35.0467037815       19.0435791319
H         19.3818973302       32.8414640448       20.5086565137
H         15.8504527580       35.5635838403       21.4038786506
H         17.1553049060       36.3678479460       22.3055319568
H         16.9664643634       36.6778850161       20.5644312258
    79
VM2 Rank=18     G=213.355           E=119.354           -TS=94.001              
C         23.9536784110       24.4460259831        6.6565032078
C         22.6261828714       24.1550254067        7.0059895345
C         24.7123603680       25.3133776915        7.4574515270
C         22.0584702337       24.7326411430        8.1535945583
C         24.1433558842       25.8914234481        8.6046215371
C         22.8093969217       25.6086357080        8.9625622782
N         22.2301480603       26.2035975336       10.1213466067
C         21.3937474054       25.5873369373       11.0356308666
C         22.4534321381       27.6073916500       10.4555320575
O         20.9995716597       24.4337941337       11.0202554060
O         21.0651440862       26.5095911632       11.9848027685
C         21.7804513168       27.7612065058       11.8291791715
C         20.8803060783       29.0063696392       11.9349408941
O         21.2775612842       30.1280294556       11.6689628361
N         19.5717728538       28.7652210148       12.2911065398
C         18.4629543399       29.6673432855       11.9417445812
C         17.3856323755       28.8655910986       11.1718617789
C         17.8999968378       30.4005180911       13.1895605920
C         17.9701586626       28.0918035214        9.9955912826
O         16.8382438037       31.2770980682       12.8057518357
C         19.0028968849       31.2209549764       13.9112622082
C         18.0180130921       26.6857435761       10.0214931547
C         18.4993875006       28.7804970246        8.8886831959
N         18.5288330000       32.0937188051       15.0243542566
C         18.5821396976       25.9760165588        8.9489812526
C         19.0701511211       28.0719635354        7.8185957689
C         19.5684033356       33.0270897860       15.5425129093
S         17.5323007940       31.3262568191       16.1925189368
C         19.1094087808       26.6690929450        7.8473796751
C         20.2187448522       33.9597512621       14.4852967362
O         16.1956013435       31.3226111819       15.5836938922
O         18.2286413776       30.0942649950       16.5818503655
C         17.4653968671       32.4526680380       17.6096860578
C         19.1564318577       34.7750128834       13.7124909078
C         21.2146682492       34.9186301511       15.1717829440
C         18.2945789525       32.2412823907       18.7293059402
C         16.5965560420       33.5614530561       17.5919462002
C         18.2552594399       33.1281477226       19.8189612477
C         16.5589834642       34.4466724821       18.6822597629
C         17.3847746406       34.2365162949       19.7979575632
O         17.3049052570       35.1403866956       20.8370704241
C         18.1023578574       35.0402473420       22.0329267399
H         24.3940810740       23.9988025895        5.7686647151
H         22.0370262688       23.4814255439        6.3885497138
H         25.7422896004       25.5371811890        7.1903890995
H         21.0307234520       24.4950095527        8.4100023422
H         24.7501971405       26.5533011224        9.2153568985
H         23.5212478355       27.8465085300       10.5222062354
H         21.9720605023       28.2485775687        9.7048308488
H         22.5476101317       27.8402174072       12.6092859313
H         19.3514282729       27.7940097383       12.4760220225
H         18.8429651988       30.4399156022       11.2583558995
H         16.8788716269       28.1820151675       11.8645877864
H         16.6125386004       29.5529176163       10.8053553257
H         17.5165636629       29.6358180459       13.8788605503
H         16.4153943799       31.5693382767       13.6475861796
H         19.7578505456       30.5241858934       14.2986728008
H         19.4910169228       31.8207431029       13.1358747839
H         17.6215394834       26.1410345358       10.8741158181
H         18.4744913219       29.8666098829        8.8617649282
H         18.6133976956       24.8896616773        8.9752851931
H         19.4801682276       28.6098042483        6.9675006868
H         19.1336755830       33.6929723215       16.2967023934
H         20.3589944875       32.4501601106       16.0419415343
H         19.5479245129       26.1211055220        7.0171928569
H         20.7947081799       33.3581661060       13.7692185499
H         19.6307619502       35.4422058545       12.9817025015
H         18.4717039266       34.1165279590       13.1626572198
H         18.5570252284       35.3901468415       14.3956664315
H         21.7116322750       35.5605614095       14.4330500523
H         20.7066000390       35.5678874805       15.8966864857
H         21.9941667122       34.3587985368       15.7044906849
H         18.9724950852       31.3911724682       18.7537370847
H         15.9551150960       33.7384941676       16.7315919443
H         18.9038638614       32.9455021712       20.6699841955
H         15.8884324579       35.3014236915       18.6640910986
H         17.8663154271       35.8688906124       22.7124869386
H         17.8983617777       34.0975895245       22.5571079761
H         19.1719299171       35.0887778939       21.7907414737
    79
VM2 Rank=19     G=213.360           E=119.204           -TS=94.155              
C         22.8209540380       23.7367747856        6.1437303118
C         21.9578463031       22.9940825716        6.9645239542
C         23.2583999699       25.0052458355        6.5557205675
C         21.5307060669       23.5207133460        8.1948932256
C         22.8320014848       25.5308672284        7.7866233626
C         21.9600149583       24.7954700262        8.6137977989
N         21.5305531948       25.3270016413        9.8626201978
C         20.2529925116       25.2652018829       10.3867397153
C         22.4575091104       26.0010647246       10.7640958085
O         19.2616717199       24.7841012648        9.8650741323
O         20.2825853422       25.8419377526       11.6209308099
C         21.5917617426       26.3462584290       11.9902056302
C         21.5689553910       27.8538255194       12.3148692167
O         22.5571489874       28.5637183856       12.2267002089
N         20.3369915888       28.3653544550       12.6612584356
C         19.9827786903       29.7890954166       12.5721221118
C         19.1296375238       30.0379902066       11.2984571871
C         19.2999812882       30.2448455700       13.8931878580
C         19.7596220722       29.4697008167       10.0315255088
O         18.0615693986       29.5549448469       14.0902569420
C         19.0633378286       31.7777675590       13.9570694161
C         19.1740802104       28.3692850558        9.3781522974
C         20.9383206719       30.0338007054        9.5102245013
N         18.3614122423       32.2621791081       15.1817058380
C         19.7563353062       27.8430894312        8.2131172996
C         21.5240635881       29.5056929460        8.3475903953
C         17.9663438774       33.6981005031       15.1258509827
S         18.9776755331       31.6872364667       16.6777197214
C         20.9304624262       28.4126999279        7.6963453770
C         17.0862523218       34.1048020379       13.9131920211
O         18.3805671909       30.3535931958       16.8273558459
O         20.4283704215       31.9064577017       16.6326126538
C         18.2507348078       32.7412049434       17.9593173162
C         15.8139275602       33.2320889290       13.8124923839
C         16.6908005220       35.5925473864       14.0259360349
C         16.9382160428       32.5016145578       18.4123760297
C         18.9821802653       33.8187418008       18.4968412013
C         16.3628333019       33.3293112494       19.3916801817
C         18.4050604231       34.6446665112       19.4760334990
C         17.0972341892       34.4063805091       19.9274992412
O         16.5841527270       35.2523855151       20.8888153729
C         15.2549571595       35.1191592537       21.4287394062
H         23.1512590269       23.3295904619        5.1912082995
H         21.6204191645       22.0101013222        6.6482380617
H         23.9276332178       25.5814269238        5.9215209305
H         20.8664649999       22.9322503487        8.8225085950
H         23.1765791568       26.5157170712        8.0886349498
H         23.2821412018       25.3320250713       11.0402837246
H         22.8554482897       26.9094511142       10.2937144217
H         21.9589824079       25.8187178000       12.8789043262
H         19.5765724210       27.6986599236       12.7193423263
H         20.9094358951       30.3709147648       12.4704159131
H         18.1312443155       29.6058326902       11.4427814612
H         18.9750071166       31.1137933001       11.1592073038
H         19.9927445601       29.9732293303       14.7014092896
H         17.8179874487       29.7098209168       15.0328528240
H         20.0355164894       32.2813476890       13.8717739160
H         18.4799066325       32.0445223364       13.0721788438
H         18.2688864927       27.9173378877        9.7751267489
H         21.4041454809       30.8782734429       10.0107841072
H         19.3001645193       26.9911865778        7.7145785706
H         22.4358808503       29.9450199746        7.9510841487
H         17.3828033161       33.9628199080       16.0148996174
H         18.8687345802       34.3248672791       15.1373344674
H         21.3804152451       28.0057909931        6.7942518162
H         17.6651396949       33.9967073292       12.9863786361
H         15.1937118260       33.5413072447       12.9616496093
H         16.0664682508       32.1735282655       13.6696253294
H         15.2065944257       33.3136220720       14.7229530359
H         16.0922696432       35.7779326503       14.9273627829
H         17.5812410630       36.2327496995       14.0715533215
H         16.0988708957       35.9067676028       13.1566387618
H         16.3627153323       31.6755551870       18.0006754702
H         19.9948724316       34.0180931438       18.1540556274
H         15.3496995815       33.1257809974       19.7239268650
H         18.9718024804       35.4753374369       19.8876072088
H         15.0719582684       35.9030741851       22.1744988258
H         14.5027010274       35.2175675864       20.6353766659
H         15.1311406771       34.1442845017       21.9178948430
    79
VM2 Rank=20     G=213.362           E=116.293           -TS=97.070              
C         21.8734254870       23.6274505455        8.6537602703
C         20.8523355090       23.2478912637        9.5390608221
C         22.4659655181       24.8944423209        8.7713862483
C         20.4227566568       24.1355757139       10.5396020484
C         22.0372173620       25.7810659503        9.7729785276
C         21.0084325568       25.4108992259       10.6615474248
N         20.5761372058       26.3091728338       11.6770983648
C         19.2692096531       26.5571919459       12.0534460021
C         21.5287174638       27.0753844812       12.4725140575
O         18.2551660821       26.0934298651       11.5614305293
O         19.2972680534       27.4552498311       13.0777982852
C         20.6417335092       27.8109420342       13.4900913197
C         20.8834800387       29.3310342429       13.4936298602
O         21.8896627736       29.8418941340       13.9537270042
N         19.9199225888       30.0863003259       12.8652901068
C         20.1803211728       31.3942027551       12.2421270341
C         19.3758777598       31.4987662987       10.9241160437
C         19.9090509451       32.5752182899       13.2180763703
C         19.6800297488       30.3443756046        9.9767390127
O         20.8384991892       32.5022866365       14.2962374261
C         18.4472255082       32.5978489422       13.7458293673
C         20.8877863413       30.3186256139        9.2560497578
C         18.7697560568       29.2796555453        9.8378550086
N         18.1757650498       33.5750253499       14.8365529269
C         21.1810041640       29.2425415466        8.4017253811
C         19.0623820515       28.2031908455        8.9844586666
C         18.4334835317       35.0025533415       14.5243117829
S         18.4259739489       33.1371910609       16.4773539197
C         20.2669793700       28.1856171702        8.2642297429
C         17.7037396923       35.5397733675       13.2650649284
O         19.6733210265       33.7692503032       16.9256051324
O         17.1404300540       33.4349144720       17.1210882605
C         18.6341846946       31.3345916120       16.5109676295
C         16.1700733600       35.3952271463       13.3915031327
C         18.0730513602       37.0195557187       13.0304093076
C         17.5228752895       30.4901735275       16.3133612051
C         19.9005680918       30.7621770657       16.7421857613
C         17.6818320170       29.0937362753       16.3099900001
C         20.0555085367       29.3662541583       16.7514139354
C         18.9537046587       28.5269607265       16.5252513283
O         19.1737580722       27.1653215657       16.5154902046
C         18.1623878501       26.2080403463       16.1466458623
H         22.2052854101       22.9409348749        7.8786994314
H         20.3939930118       22.2659661729        9.4506470194
H         23.2562996062       25.1903595653        8.0859700177
H         19.6340374039       23.8271618182       11.2209246170
H         22.4997161471       26.7613494866        9.8454025842
H         22.0701689119       27.7896185285       11.8385230386
H         22.2391821122       26.4083647280       12.9770151309
H         20.8394463190       27.4338952529       14.5006071283
H         19.1179432424       29.5628180490       12.5374842859
H         21.2455687444       31.4369112159       11.9718379785
H         18.3007125602       31.5237429598       11.1380435927
H         19.6104488249       32.4505152273       10.4304910115
H         20.0858539645       33.5122758643       12.6736127835
H         21.1779538682       31.5750404368       14.3017715582
H         17.7915920687       32.8314337714       12.9000329495
H         18.1593233831       31.5880339834       14.0507915079
H         21.6013260367       31.1314701732        9.3614091336
H         17.8363803602       29.2814197317       10.3944352968
H         22.1162129359       29.2273524092        7.8478034160
H         18.3581724891       27.3805337639        8.8859984417
H         18.1182130991       35.6167046461       15.3792560363
H         19.5154048700       35.1571778655       14.4107745920
H         20.4944248494       27.3506199588        7.6061055353
H         18.0384692633       34.9768421675       12.3835629174
H         15.8776234388       34.3441349209       13.5073461544
H         15.7928569760       35.9469252758       14.2620979658
H         15.6650941020       35.7837375969       12.4979985416
H         19.1572818167       37.1379473204       12.9068068817
H         17.5899629078       37.4045007029       12.1231149679
H         17.7568651873       37.6461305895       13.8744773206
H         16.5382997035       30.9203161783       16.1447377059
H         20.7670169240       31.3994155900       16.9033022561
H         16.8139100157       28.4648644147       16.1391325822
H         21.0371685522       28.9321352764       16.9193196167
H         18.5775095726       25.1928182179       16.1762861791
H         17.3145531630       26.2523506849       16.8422488812
H         17.7982640030       26.4018157979       15.1292637662
    79
VM2 Rank=21     G=213.368           E=119.398           -TS=93.970              
C         23.8982968495       24.3700583033        6.6609088647
C         24.6787748016       25.1358397580        7.5406100530
C         22.5356435926       24.1704095061        6.9300108806
C         24.0966835368       25.7039118329        8.6861953463
C         21.9547772411       24.7379287973        8.0760743343
C         22.7278207570       25.5125079686        8.9637954344
N         22.1361731089       26.0978836656       10.1211185599
C         21.2084070329       25.5085784797       10.9620202403
C         22.4484013758       27.4630560281       10.5344648915
O         20.7290075757       24.3913839898       10.8707595857
O         20.9015773152       26.4099811468       11.9381240268
C         21.7158275507       27.6082904775       11.8782682237
C         20.9065508364       28.9132287666       11.9972837163
O         21.3991105275       30.0113064656       11.8015898105
N         19.5673240903       28.7583120765       12.2797151419
C         18.5478785152       29.7571422055       11.9213368031
C         17.4505222463       29.0728188144       11.0706714796
C         17.9834524589       30.4814703063       13.1737106229
C         18.0296651207       28.3062466088        9.8870800390
O         17.0113424166       31.4531423983       12.7814701126
C         19.1098367437       31.1835056277       13.9791502895
C         17.9759924637       26.9005413818        9.8539887468
C         18.6547463330       28.9984493961        8.8336536466
N         18.6514709252       32.0459432202       15.1067832907
C         18.5347436039       26.1952515075        8.7757379519
C         19.2199110733       28.2937805323        7.7580541136
C         19.7344552011       32.8722267511       15.7108030815
S         17.5445053542       31.3135831754       16.1953243386
C         19.1578378277       26.8917638389        7.7276339704
C         20.5026356232       33.7939273701       14.7254699946
O         16.2426449069       31.4352894448       15.5261532476
O         18.1265815774       30.0180865043       16.5656341504
C         17.4913421988       32.3890969698       17.6520024252
C         19.5427949672       34.7210911128       13.9447989062
C         21.5359332941       34.6426672655       15.4965121959
C         16.7159813816       33.5654742411       17.6352306621
C         18.2394280631       32.0699878313       18.8024538366
C         16.6881084948       34.4136027916       18.7555349261
C         18.2097781534       32.9191788981       19.9213965755
C         17.4374776004       34.0914850340       19.9049789018
O         17.4500656995       34.8862079575       21.0325247824
C         16.7074915643       36.1163615523       21.1389717988
H         24.3488550424       23.9304990844        5.7743389441
H         25.7356093388       25.2885566383        7.3358086855
H         21.9293522380       23.5754391869        6.2514139484
H         24.7199326120       26.2861996242        9.3584005795
H         20.8996180755       24.5718023687        8.2697688607
H         23.5263178024       27.6130626096       10.6666350272
H         22.0594821105       28.1735278459        9.7926098549
H         22.4435256243       27.5941348242       12.6989939747
H         19.2660706038       27.7999680231       12.4093794902
H         19.0173327830       30.5244522797       11.2895437228
H         16.8626167338       28.4018243581       11.7094898209
H         16.7486429741       29.8318716810       10.7024008766
H         17.5102163275       29.7221295870       13.8111881998
H         16.5716416683       31.7428485598       13.6155156192
H         19.7897380000       30.4147443894       14.3693588028
H         19.6791440294       31.7734896064       13.2531757264
H         17.5046491567       26.3523753742       10.6652935624
H         18.7085103032       30.0836840429        8.8528614476
H         18.4875060881       25.1093188211        8.7562883233
H         19.7041244568       28.8340731562        6.9485031005
H         19.3179211713       33.5383101242       16.4749661812
H         20.4544303616       32.2145841633       16.2172227786
H         19.5921907748       26.3470861662        6.8930939354
H         21.0635905248       33.1791641013       14.0086714687
H         20.1001962163       35.3788560254       13.2659502870
H         18.8363034848       34.1414725921       13.3367749864
H         18.9608057265       35.3523602450       14.6283067537
H         22.1143543142       35.2735773431       14.8093747934
H         21.0458296243       35.2992989423       16.2271165743
H         22.2447149277       34.0019539695       16.0368147482
H         16.1386057829       33.8240486808       16.7504487389
H         18.8455437273       31.1673534708       18.8283852847
H         16.0844183225       35.3149598593       18.7185495917
H         18.7887561975       32.6703986704       20.8065502827
H         16.8738071993       36.5717238944       22.1234269432
H         17.0298847784       36.8313755385       20.3709769265
H         15.6316929942       35.9309906632       21.0237384302
    79
VM2 Rank=22     G=213.384           E=119.671           -TS=93.713              
C         23.8345511646       24.3983809143        7.4848337061
C         24.1091100842       24.1582269687        8.8403274822
C         23.0429896442       25.4971499216        7.1155380336
C         23.5906229619       25.0149736744        9.8255981841
C         22.5259584770       26.3543404565        8.1009741897
C         22.7911344553       26.1170507984        9.4642039891
N         22.2692316837       26.9874317728       10.4618942540
C         21.7031051467       26.6116938989       11.6657166820
C         22.3157773656       28.4369075947       10.3084945534
O         21.5205878112       25.4785960309       12.0765862377
O         21.3813348782       27.7487377499       12.3450865370
C         21.7065637208       28.9628693627       11.6200894141
C         20.4773374235       29.8625280485       11.3862416821
O         20.4953463317       30.8141263081       10.6245543937
N         19.3354424993       29.4922815488       12.0622148591
C         17.9775973363       29.9058717948       11.6715858792
C         17.1504779068       28.6411669833       11.3304425118
C         17.3271833480       30.7806228947       12.7794294644
C         17.8482542155       27.7321575621       10.3243448541
O         15.9598475002       31.0582399594       12.4750574493
C         18.0772350144       32.1236193747       12.9836342481
C         18.3509696249       26.4800978292       10.7247131184
C         18.0157182163       28.1482801923        8.9908776451
N         18.2691839271       32.4542740631       14.4186685972
C         19.0071477160       25.6504517956        9.8004241379
C         18.6745419767       27.3206537094        8.0663596143
C         19.5961297380       33.0369768958       14.7428028538
S         16.9294698905       33.1333577282       15.2381584419
C         19.1672935097       26.0696458523        8.4705208484
C         20.7775808629       32.0441480258       14.5739364880
O         16.8347420888       34.5390468533       14.8268207318
O         15.8195085389       32.1963651023       15.0199847839
C         17.3785812424       32.9588546842       16.9813144395
C         22.1018226887       32.7213267783       14.9840101742
C         20.5675108487       30.7558525003       15.4021333785
C         17.4539524971       31.6790185378       17.5638042698
C         17.6816296472       34.0937339966       17.7588726974
C         17.8276937625       31.5375801433       18.9105824652
C         18.0545775643       33.9501326076       19.1064459277
C         18.1290634545       32.6677574854       19.6871488624
O         18.4914933099       32.4662098760       21.0029114962
C         18.8326999258       33.5402617248       21.9006604234
H         24.2350906863       23.7349495236        6.7222021471
H         24.7240554965       23.3089382015        9.1278051353
H         22.8291949211       25.6843512730        6.0661151683
H         23.8146936643       24.8198571212       10.8711398776
H         21.9092274484       27.1962440546        7.7994369579
H         23.3516709672       28.7790282362       10.1905348019
H         21.7176475840       28.7518926347        9.4435652340
H         22.4469203850       29.5476793597       12.1797017527
H         19.4334899004       28.6809204959       12.6598352140
H         18.0373455489       30.5177155617       10.7605514235
H         16.9365536204       28.0903372150       12.2549717561
H         16.1753171679       28.9426320491       10.9274216083
H         17.3805356951       30.2047656377       13.7139749852
H         15.5780299457       31.4374740227       13.3038815455
H         19.0438639472       32.0600678996       12.4750580087
H         17.5339473927       32.9335047745       12.4781886777
H         18.2385978033       26.1498499296       11.7539012780
H         17.6382422705       29.1163989315        8.6727492817
H         19.3969870781       24.6860504637       10.1170812656
H         18.8014898571       27.6482733586        7.0376729867
H         19.7702116800       33.9246511359       14.1191042052
H         19.6146924497       33.3797373643       15.7846924687
H         19.6764880786       25.4275883642        7.7560651943
H         20.8697904271       31.7639644829       13.5175355536
H         22.2837809526       33.6218245940       14.3833672935
H         22.0863914773       33.0151141862       16.0416253306
H         22.9514045527       32.0429251114       14.8337279447
H         20.4559198251       30.9863842160       16.4694515182
H         19.6694172797       30.2168492309       15.0761272967
H         21.4198101837       30.0740635451       15.2885979845
H         17.2283792057       30.7964093160       16.9696648117
H         17.6314854578       35.0865587336       17.3176909078
H         17.8867655589       30.5484374193       19.3561852087
H         18.2842341115       34.8383427649       19.6866034130
H         17.9872799684       34.2304626400       22.0183889887
H         19.0870666532       33.1373159781       22.8891385972
H         19.6991601912       34.0993933958       21.5243534295
    79
VM2 Rank=23     G=213.394           E=117.796           -TS=95.599              
C         23.8558379314       23.4520310004        8.9605331476
C         24.2590675275       23.7139959340       10.2797148055
C         22.7431080444       24.1183637943        8.4227654321
C         23.5501281053       24.6420575562       11.0607664978
C         22.0342446160       25.0462043684        9.2039784705
C         22.4325814315       25.3126369727       10.5278944071
N         21.7202240554       26.2569161653       11.3147689226
C         20.3501702605       26.3137400468       11.4810558705
C         22.4037539055       27.3485621725       11.9994598884
O         19.5132268266       25.5687913724       11.0009955687
O         20.0765240841       27.4066459716       12.2436650279
C         21.2628324305       28.0920856613       12.7168950755
C         21.2136197221       29.6042349150       12.4247523592
O         22.2084931940       30.3041423440       12.3455759711
N         19.9498013379       30.1088833884       12.2160396454
C         19.6473821352       31.4146240453       11.6120278467
C         18.6275192978       31.1964820390       10.4647832567
C         19.1551943831       32.4315044191       12.6776436159
C         17.3597875937       30.4708771509       10.9064947627
O         18.8700289288       33.6974848191       12.0836429454
C         20.1912734955       32.6678002516       13.8027821320
C         16.2638047416       31.1938878218       11.4118847795
C         17.2799147895       29.0677157066       10.8204475764
N         19.6158994550       33.4650898386       14.9133883994
C         15.1067606331       30.5217002578       11.8396925811
C         16.1231505259       28.3944936317       11.2456304142
C         20.5466013857       34.4580204365       15.5022461443
S         18.4149892780       32.7598313816       15.9252763780
C         15.0365878103       29.1215545365       11.7578575250
C         19.8375457019       35.7367104890       16.0211760983
O         18.9089177468       32.9225090888       17.2982536507
O         17.1303927812       33.3195849029       15.4925376200
C         18.4883577804       30.9708769727       15.6303820702
C         20.8727567927       36.7045646593       16.6317351689
C         19.0496838595       36.4484750013       14.8975185558
C         19.5604332126       30.2117393154       16.1405128367
C         17.4688190777       30.3218459275       14.9051635915
C         19.6191072728       28.8270611390       15.9115222522
C         17.5330150190       28.9380268036       14.6714847114
C         18.6114687755       28.1846214718       15.1753054220
O         18.7268935058       26.8247474612       14.9762600461
C         17.7811005481       26.0598787682       14.2034885295
H         24.4045334867       22.7337425487        8.3561553687
H         25.1200693339       23.1976573641       10.6971779266
H         22.4302934988       23.9165942909        7.4011933336
H         23.8684522495       24.8327497036       12.0820627497
H         21.1756368786       25.5589200894        8.7776342775
H         23.1337170875       26.9667599103       12.7236431728
H         22.9067852363       27.9943269288       11.2676455319
H         21.3537476315       27.9617519592       13.8018524100
H         19.1914987386       29.4415421145       12.3065456046
H         20.5661222943       31.8234432476       11.1679219186
H         18.3708263951       32.1618935972       10.0105102784
H         19.1178756163       30.6226227551        9.6683238309
H         18.2358214085       32.0307810574       13.1141241089
H         18.7103748851       34.3129639925       12.8297046850
H         20.5826388653       31.7161703534       14.1793261145
H         21.0438295094       33.1899938426       13.3489441233
H         16.3121094901       32.2778813220       11.4783323159
H         18.1162071879       28.4967556419       10.4253172269
H         14.2649349107       31.0859451056       12.2330316619
H         16.0698283157       27.3107992041       11.1774595977
H         21.1104114815       33.9936756344       16.3230377146
H         21.2815282468       34.7760591555       14.7508481959
H         14.1406389120       28.6014557027       12.0874187284
H         19.1310909014       35.4644501259       16.8173254162
H         20.3817215951       37.5991797298       17.0357844541
H         21.4195598756       36.2247758706       17.4537341723
H         21.6040653247       37.0294408171       15.8802995814
H         18.5924464658       37.3747090185       15.2682132853
H         19.7057675484       36.7071731348       14.0564853507
H         18.2395678430       35.8137423842       14.5174156191
H         20.3478494758       30.6970785928       16.7125966342
H         16.6275971644       30.8908552215       14.5159283394
H         20.4478088168       28.2464340751       16.3069185951
H         16.7392039282       28.4632457721       14.1044457684
H         17.7241586868       26.4386388760       13.1747614364
H         18.0915991477       25.0083058555       14.1640343696
H         16.7822486520       26.1081062139       14.6556925519
    79
VM2 Rank=24     G=213.407           E=119.758           -TS=93.649              
C         22.8915859840       23.7185160048        6.1099163162
C         22.1338500243       22.9497575988        7.0071885762
C         23.2570573016       25.0306339112        6.4488774736
C         21.7399137884       23.4937633634        8.2410722691
C         22.8639704417       25.5737033447        7.6832892635
C         22.0972399813       24.8118304813        8.5871972418
N         21.7015899085       25.3613139461        9.8394093890
C         20.4638142374       25.2299745544       10.4404962195
C         22.6262548883       26.1353916526       10.6592100058
O         19.4825377429       24.6587572676        9.9965203529
O         20.5209893285       25.8566195662       11.6491096966
C         21.8077831907       26.4691155918       11.9205047041
C         21.6908721819       27.9835748496       12.1879588889
O         22.6158796520       28.7591248522       12.0114821958
N         20.4465579138       28.4183423037       12.5905111983
C         19.9813483491       29.8073463686       12.4692431479
C         19.0421454967       29.9403398118       11.2397507046
C         19.3387167865       30.2659874833       13.8089612102
C         19.6427252648       29.3710877136        9.9590494746
O         18.1718767350       29.4912236306       14.1065963788
C         18.9862098804       31.7771910021       13.8276108709
C         19.1091598627       28.2041285626        9.3809550226
C         20.7428945639       30.0014862403        9.3495417170
N         18.3140689142       32.2362139076       15.0702767055
C         19.6647295816       27.6771464185        8.2033100496
C         21.3021982011       29.4729952933        8.1741296912
C         17.6405450952       33.5486281859       14.9272151068
S         18.9944457448       31.7774492699       16.5772583276
C         20.7602083946       28.3128566108        7.5984146597
C         16.1296012868       33.4703020773       15.2566327561
O         18.4505443872       30.4376738560       16.8340182376
O         20.4323737189       32.0399651862       16.4439674133
C         18.3344938245       32.9188342147       17.8228139535
C         15.5209767633       34.8860070215       15.3246819159
C         15.3737343018       32.6125321860       14.2174809821
C         17.1980081908       32.5695128065       18.5797860220
C         18.9669569679       34.1555673676       18.0609877028
C         16.6831623780       33.4563495655       19.5407757894
C         18.4512084826       35.0406169575       19.0223664829
C         17.3083109746       34.6997038665       19.7625051263
O         16.8465090948       35.6106607010       20.6897988901
C         15.6739501928       35.3887744063       21.4971278699
H         23.1961396826       23.2978550812        5.1546727348
H         21.8524246937       21.9321937952        6.7474241384
H         23.8446815830       25.6271207401        5.7553581762
H         21.1577421181       22.8851575551        8.9281550463
H         23.1516250982       26.5920679154        7.9283530585
H         22.9305518207       27.0492611578       10.1328978349
H         23.5112736057       25.5377219568       10.9110867284
H         22.2627517643       26.0078121830       12.8054544713
H         19.7431948102       27.7012507035       12.7214756332
H         20.8541359371       30.4512363249       12.2926065283
H         18.0898012154       29.4403665527       11.4575913528
H         18.7971452383       30.9951949703       11.0725118543
H         20.0931132776       30.0853858330       14.5869848146
H         17.9513731725       29.6847561873       15.0475191329
H         19.9082116788       32.3540422207       13.6756877385
H         18.3265476929       31.9830130582       12.9763526091
H         18.2655080260       27.7012410479        9.8463429425
H         21.1686907320       30.8982365485        9.7913892092
H         19.2492240907       26.7737918851        7.7632179612
H         22.1534462667       29.9638583374        7.7092981872
H         18.1261886016       34.3017998110       15.5591928824
H         17.7363771768       33.9177804573       13.8969899488
H         21.1894840404       27.9052856086        6.6865958459
H         15.9953208586       33.0019743960       16.2386058868
H         15.6203383863       35.4073638799       14.3638450683
H         14.4539423827       34.8411113360       15.5777886235
H         16.0201947701       35.4896278677       16.0939175094
H         15.7643052172       31.5867425140       14.1932308893
H         14.3052020452       32.5549203746       14.4606601448
H         15.4702634479       33.0351444299       13.2093168415
H         16.7071419876       31.6128224062       18.4163915014
H         19.8537620209       34.4330271991       17.4957552290
H         15.8018040514       33.1676692787       20.1047502069
H         18.9379842712       35.9962750476       19.1964639047
H         15.5013007708       36.2507522739       22.1538912854
H         14.7870813410       35.2561760094       20.8639627235
H         15.7990612901       34.4977490517       22.1259165163
    79
VM2 Rank=25     G=213.422           E=119.252           -TS=94.170              
C         22.9307104637       23.8251326770        6.1149352702
C         22.2635398130       23.0195984195        7.0510083657
C         23.2212964463       25.1629164961        6.4247750230
C         21.8851178775       23.5523605117        8.2946132549
C         22.8437921986       25.6948135700        7.6688788636
C         22.1673857422       24.8956734440        8.6118810768
N         21.7875875520       25.4340549711        9.8738219107
C         20.5877333075       25.2273825049       10.5282972433
C         22.6905600494       26.2800710635       10.6453268079
O         19.6297915388       24.5856601648       10.1322599971
O         20.6524021774       25.8725085464       11.7267637536
C         21.9054191342       26.5725871588       11.9376211838
C         21.6986541120       28.0787514757       12.1972845851
O         22.5622019160       28.9118944473       11.9772828706
N         20.4451184925       28.4344743487       12.6461628975
C         19.8840106163       29.7882628976       12.5328230015
C         18.8886920602       29.8448572235       11.3419275970
C         19.2691519023       30.2181138116       13.8953154073
C         19.4721998956       29.2991671554       10.0432172736
O         18.1676116335       29.3739594903       14.2453677651
C         18.8199905299       31.7039614841       13.9174670687
C         18.9924465685       28.0929287624        9.4996243914
C         20.5031716689       29.9914890857        9.3821060088
N         18.1724756505       32.1530572501       15.1847795384
C         19.5324092849       27.5880195622        8.3051727116
C         21.0470556720       29.4853271768        8.1897579447
C         17.5678594283       33.5130728623       15.1084585682
S         19.0030809512       31.7559356534       16.6341849430
C         20.5585101184       28.2854176736        7.6487792688
C         16.5301705138       33.7232398208       13.9728713373
O         18.6211211426       30.3629779212       16.9012149394
O         20.3962369531       32.1718778442       16.4323634095
C         18.2571207496       32.7714498978       17.9358107312
C         15.3953651192       32.6749070738       14.0346805784
C         15.9333620498       35.1439063714       14.0623451116
C         18.8702530987       33.9730738113       18.3432015852
C         17.0455658782       32.3752065231       18.5356246538
C         18.2789731404       34.7693109110       19.3391082366
C         16.4563169907       33.1727360978       19.5308828690
C         17.0667255307       34.3699186676       19.9371083677
O         16.4400937457       35.1114760050       20.9171820187
C         16.9597182856       36.3594691666       21.4157115699
H         23.2232186742       23.4131483927        5.1521755232
H         22.0403332232       21.9822905737        6.8137627583
H         23.7387981437       25.7879438214        5.7011734856
H         21.3736809096       22.9154470235        9.0116746160
H         23.0726234161       26.7331240833        7.8911599893
H         22.9079292690       27.2060999287       10.0975995820
H         23.6248505589       25.7480197774       10.8642635022
H         22.4272614020       26.1524751993       12.8060235608
H         19.7969219257       27.6737056024       12.8110223460
H         20.7042268550       30.4861243835       12.3142021324
H         17.9803847751       29.2874805971       11.6040212690
H         18.5692868540       30.8793893148       11.1734863378
H         20.0665015064       30.0921887435       14.6404961045
H         17.9929758180       29.5467236880       15.2000634453
H         19.6966696292       32.3332230600       13.7138449227
H         18.1241267607       31.8360972529       13.0850894981
H         18.2030421798       27.5425805522       10.0047795294
H         20.8874785039       30.9194115073        9.7967819684
H         19.1588565462       26.6542162325        7.8918432504
H         21.8448120068       30.0241895392        7.6849306676
H         17.0358533974       33.7409482002       16.0391133329
H         18.3659074151       34.2611512784       15.0046796180
H         20.9756296953       27.8948970477        6.7239511267
H         17.0311221413       33.6471693445       12.9986786382
H         14.6611619367       32.8455909323       13.2371662216
H         15.7857847134       31.6564859126       13.9117073888
H         14.8687650719       32.7199040891       14.9965099911
H         15.2245441883       35.3225373580       13.2435284949
H         15.3994535728       35.2921939875       15.0100454257
H         16.7209415779       35.9053196051       13.9931448720
H         19.8037912505       34.2920419577       17.8853691480
H         16.5597124127       31.4524558515       18.2266136700
H         18.7691293973       35.6912313675       19.6359186711
H         15.5211211504       32.8642623253       19.9900343677
H         16.2916917226       36.7633932286       22.1869148293
H         17.9521231249       36.2154737232       21.8622336067
H         17.0367968625       37.0978592238       20.6071129050
    79
VM2 Rank=26     G=213.448           E=119.969           -TS=93.479              
C         23.9882217847       24.1811375081        6.7569590778
C         22.6367656223       23.9570856578        7.0609619669
C         24.7578540663       25.0218380507        7.5756639575
C         22.0561820817       24.5749356322        8.1808381316
C         24.1760164571       25.6401967983        8.6950330960
C         22.8181549398       25.4248628611        9.0071305180
N         22.2265427683       26.0609043883       10.1375419628
C         21.3297532166       25.4962499810       11.0276257700
C         22.5038370543       27.4567386455       10.4644191633
O         20.8814854743       24.3626548878       11.0100492310
O         21.0126389232       26.4444517482       11.9549164702
C         21.7943355068       27.6573747043       11.8134573780
C         20.9547711563       28.9468238713       11.8801786044
O         21.4094233461       30.0415389889       11.5944947542
N         19.6319991765       28.7775226801       12.2250413830
C         18.5726003313       29.7233547472       11.8393351809
C         17.4988299674       28.9699892208       11.0170974013
C         17.9875142344       30.4655928968       13.0710014822
C         18.1014616572       28.1761641392        9.8633155548
O         16.9669627332       31.3780317698       12.6579381576
C         19.0880163548       31.2435570594       13.8410542245
C         18.0675237149       26.7695144398        9.8730654080
C         18.7279488107       28.8442352771        8.7951240517
N         18.5842850419       32.1175854266       14.9315128559
C         18.6470529168       26.0392631834        8.8228036799
C         19.3146336663       28.1147462473        7.7479666666
C         19.5815606510       33.1172752865       15.3823055992
S         17.4993475804       31.4231119535       16.0652312787
C         19.2721410719       26.7117398295        7.7603169863
C         19.0384477379       34.5656938329       15.3105724378
O         16.1809527502       31.5355292089       15.4280494500
O         18.0961236419       30.1329749763       16.4304808957
C         17.5192125646       32.4836045447       17.5364694278
C         20.0158403794       35.5399084518       15.9997236052
C         18.7939041053       34.9989443472       13.8479981523
C         16.5505559094       33.4940572358       17.7003817514
C         18.4886689237       32.2895443572       18.5411625869
C         16.5718343145       34.3164725530       18.8391849014
C         18.5085008245       33.1132820369       19.6795749016
C         17.5493092001       34.1346688294       19.8299946635
O         17.5213332311       34.9748612583       20.9237391358
C         18.4784561107       34.9029804871       21.9982880982
H         24.4385492817       23.7027482034        5.8906053856
H         22.0389371890       23.3042380730        6.4297203547
H         25.8061513007       25.1937239993        7.3439464029
H         21.0097408862       24.3890585358        8.4020039636
H         24.7912409021       26.2803865162        9.3203170579
H         23.5787911692       27.6476043493       10.5636991840
H         22.0769861534       28.1102768421        9.6917000891
H         22.5383441147       27.7050210618       12.6181378977
H         19.3626392255       27.8223888412       12.4279438108
H         19.0080618059       30.4881394677       11.1808624039
H         16.9338803976       28.3057233506       11.6830561256
H         16.7720006803       29.6904469887       10.6207927472
H         17.5548334864       29.7095870349       13.7405044562
H         16.5367004789       31.6972577382       13.4858781584
H         19.8037309669       30.5222134190       14.2570481281
H         19.6338720690       31.8511604449       13.1068661159
H         17.5951719074       26.2399629956       10.6960573806
H         18.7665578105       29.9301755163        8.7809934132
H         18.6142348606       24.9527510606        8.8362656352
H         19.8001537425       28.6365826406        6.9271758737
H         19.9208980160       32.8896923721       16.4000062901
H         20.4799353906       33.0717373117       14.7514797546
H         19.7229988838       26.1477056624        6.9476673064
H         18.0812485653       34.6236310318       15.8410542793
H         20.1601096463       35.2685751166       17.0536691530
H         20.9970418686       35.5320419084       15.5076974412
H         19.6296847391       36.5668893728       15.9706399146
H         18.0632345427       34.3415642263       13.3587933645
H         18.4016556849       36.0228431189       13.8034073654
H         19.7226680007       34.9650892888       13.2643385444
H         15.7875211865       33.6485226262       16.9409478695
H         19.2320559516       31.5026711636       18.4355013589
H         15.8281810895       35.0999022568       18.9563787779
H         19.2699989977       32.9486858728       20.4353845110
H         18.2582276686       35.6717674161       22.7496994420
H         18.4376750173       33.9218440949       22.4888609704
H         19.4960701462       35.0712998156       21.6226139693
    79
VM2 Rank=27     G=213.452           E=119.395           -TS=94.057              
C         23.5360591364       23.9828784364        6.1458690015
C         22.1843223331       24.2079945172        6.4514299745
C         24.5246286639       24.2451775345        7.1077738703
C         21.8216410361       24.6948721217        7.7183574322
C         24.1617462098       24.7322498371        8.3746682812
C         22.8077111066       24.9583289719        8.6884177393
N         22.4409218944       25.4588289382        9.9669338146
C         21.4402863289       24.9663913079       10.7816797979
C         23.0900661451       26.6312314574       10.5404177655
O         20.7293421115       23.9977139265       10.5745922133
O         21.3842841443       25.7566990000       11.8905246210
C         22.3224338776       26.8636392888       11.8555892435
C         21.6150505589       28.2333403218       11.9167904981
O         22.1328275924       29.2659591418       11.5242023206
N         20.3475797625       28.2265539404       12.4576809357
C         19.5274733318       29.4307606012       12.6467001012
C         18.0291726451       29.0267330575       12.5955462502
C         19.9653465959       30.1652717030       13.9501092216
C         17.0625301210       30.1992381474       12.4925742810
O         19.6014418771       29.4096290994       15.1088767995
C         19.4095165640       31.6104687278       14.0476856134
C         16.0989044957       30.4169493378       13.4951768494
C         17.1203197249       31.0723270199       11.3901048478
N         20.1658987047       32.5050328136       14.9677416323
C         15.2126710578       31.5029482346       13.4027016508
C         16.2389814692       32.1623771641       11.3007449216
C         21.5896213623       32.7639576992       14.6266705605
S         19.8429553745       32.3972260131       16.6432728560
C         15.2858258873       32.3790109763       12.3084194888
C         21.8519225157       33.2028922258       13.1613838501
O         20.4808860777       31.1621899685       17.1185348712
O         20.2072176389       33.7166253663       17.1737289126
C         18.0392402151       32.2978640053       16.7492957520
C         21.0982721761       34.5070662966       12.8139186138
C         23.3653780040       33.3958540278       12.9308713693
C         17.2524192318       33.4313326155       16.4673136131
C         17.4090891640       31.0862422854       17.0955089977
C         15.8514116265       33.3521781561       16.5330820072
C         16.0075923944       31.0089079123       17.1601881807
C         15.2231447108       32.1451446139       16.8780735287
O         13.8443604834       32.1241649187       16.9119691308
C         13.0805056485       30.9267482712       17.1528785897
H         23.8170089563       23.6060313039        5.1653885374
H         21.4180107023       24.0061126414        5.7069845039
H         25.5716311453       24.0705858925        6.8721512863
H         20.7724701202       24.8688961778        7.9436673291
H         24.9355951803       24.9270002370        9.1121996344
H         23.0000717688       27.4872680669        9.8587225900
H         24.1486375896       26.4283735445       10.7440006207
H         23.0039682645       26.8054047832       12.7130355476
H         19.9975671314       27.3342542649       12.7843727281
H         19.7293324920       30.1000846826       11.7990416067
H         17.8719894539       28.3799809094       11.7229246778
H         17.7895707747       28.4062950597       13.4685216300
H         21.0593871123       30.2335026642       13.8998911664
H         20.0891639289       29.7984709170       15.8722319040
H         19.4114870038       32.0468358719       13.0421106830
H         18.3559851827       31.5662817542       14.3411373706
H         16.0410402821       29.7489475437       14.3504011207
H         17.8502560994       30.9082075483       10.6020138464
H         14.4693131627       31.6663710312       14.1782482554
H         16.2923748421       32.8363052897       10.4493806795
H         21.9754056003       33.5560000789       15.2833983318
H         22.1864778167       31.8675655112       14.8420395383
H         14.6015945448       33.2209488900       12.2390442712
H         21.5209771559       32.4086307055       12.4779157032
H         21.2942380092       34.8074681444       11.7767792643
H         20.0137560846       34.3835356469       12.9239074859
H         21.4109698253       35.3291781946       13.4703645782
H         23.9138996345       32.4674074279       13.1361416501
H         23.5693045882       33.6788887265       11.8901782444
H         23.7697707597       34.1819177502       13.5816774517
H         17.7280555035       34.3701444520       16.1930022233
H         18.0044835717       30.2020292394       17.3100533784
H         15.2474251510       34.2273407613       16.3104337671
H         15.5445725927       30.0640369839       17.4261627491
H         12.0072241376       31.1516459714       17.1133028674
H         13.3012604363       30.1672333995       16.3916653983
H         13.3082053518       30.5143134079       18.1442798383
    79
VM2 Rank=28     G=213.473           E=120.044           -TS=93.429              
C         23.8454603766       25.6712279792        5.9024124412
C         24.7590900192       25.7323579564        6.9666741832
C         22.4665006197       25.7257626422        6.1598337639
C         24.2942298685       25.8485055616        8.2874661371
C         22.0025176148       25.8413313882        7.4806129692
C         22.9121091892       25.9023426710        8.5535873091
N         22.4404095137       26.0306702795        9.8889245663
C         21.4071084699       25.3174399532       10.4657781546
C         23.0145302135       27.0055741068       10.8089426659
O         20.7615062167       24.4141055125        9.9625689863
O         21.2632307646       25.7636734121       11.7457311967
C         22.1335727144       26.8812735657       12.0654992333
C         21.3458638907       28.1722101231       12.3699883333
O         21.8674972008       29.2744857793       12.4019990845
N         19.9927700237       28.0110341930       12.5629426974
C         19.0257351583       29.1157610310       12.5664421578
C         17.7176817368       28.6645373080       11.8693394669
C         18.8149491982       29.6540769357       14.0095991698
C         17.9621693472       28.1950683114       10.4409737433
O         18.1660355965       28.6717162648       14.8229596154
C         18.0081407217       30.9798128616       14.0192505834
C         18.0338295463       26.8213777983       10.1437440373
C         18.1390703534       29.1352284941        9.4095951069
N         18.1399398772       31.7820052883       15.2660559031
C         18.2753263810       26.3924445733        8.8282372361
C         18.3814028957       28.7073353454        8.0935942069
C         19.5109905087       32.2353541822       15.6276648664
S         17.1135100210       31.3543478833       16.5638456047
C         18.4478518480       27.3354572125        7.8022509079
C         20.2767631340       32.9695814988       14.4962011383
O         15.7622454197       31.3761000646       15.9909037892
O         17.6798612458       30.1438988974       17.1733443031
C         17.2034532432       32.7811428829       17.6717144137
C         19.5268303503       34.2417144745       14.0393758701
C         21.6955017217       33.3423683203       14.9748447371
C         16.6241323381       34.0076766681       17.2923988190
C         17.8743376029       32.6837202611       18.9062805168
C         16.7116736372       35.1257658429       18.1393755038
C         17.9601258348       33.8025320745       19.7519218432
C         17.3819555705       35.0253729586       19.3753054955
O         17.5008817531       36.0885984790       20.2462631297
C         16.9602082628       37.3960089637       19.9735561125
H         24.2053758310       25.5815595515        4.8803286903
H         25.8272822754       25.6893519669        6.7684545423
H         21.7575485180       25.6791108749        5.3368631021
H         25.0123836525       25.8902664209        9.1016950613
H         20.9338249556       25.8849050340        7.6682861079
H         24.0547629908       26.7494074472       11.0442794741
H         22.9678932521       28.0138444467       10.3763892621
H         22.7438898994       26.6490749564       12.9467253082
H         19.6435730886       27.0617740909       12.5315440807
H         19.4513350875       29.9344189723       11.9687262613
H         17.2464731139       27.8643268812       12.4545131510
H         16.9983767874       29.4918137803       11.8572487800
H         19.8172174760       29.8537125579       14.4098912959
H         18.1441782630       29.0206071946       15.7452896674
H         18.3353498807       31.5882130005       13.1677891044
H         16.9506204493       30.7507741239       13.8331190188
H         17.9073261066       26.0847248399       10.9326230816
H         18.0919840453       30.1985018836        9.6290823235
H         18.3329198251       25.3295035682        8.6063584410
H         18.5178562218       29.4385087685        7.3007416916
H         19.4638910218       32.9249845452       16.4797061291
H         20.1054299834       31.3745614532       15.9622114457
H         18.6348651405       27.0040482337        6.7838793535
H         20.3918346866       32.2965691638       13.6353286174
H         18.5311354098       33.9991766622       13.6478643392
H         19.3987946946       34.9445825440       14.8726554842
H         20.0795565609       34.7565547398       13.2432703242
H         21.6590865447       34.0225211486       15.8357392380
H         22.2567080713       32.4468170166       15.2715091084
H         22.2600946709       33.8383410227       14.1748382263
H         16.1101931877       34.0931522121       16.3375995351
H         18.3306004673       31.7437988040       19.2083606991
H         16.2584689842       36.0608131515       17.8255211191
H         18.4784924327       33.7245792669       20.7036655899
H         17.1797864762       38.0748700263       20.8072824766
H         17.4043325603       37.8166385571       19.0620589926
H         15.8707267860       37.3466518958       19.8487534253
    79
VM2 Rank=29     G=213.475           E=119.045           -TS=94.430              
C         23.8163666014       25.4015211611        5.9912581332
C         24.0930396271       26.7564653864        6.2299144177
C         23.0942263473       24.6592266641        6.9381226114
C         23.6453562148       27.3691494033        7.4123178835
C         22.6479493469       25.2723369829        8.1204348228
C         22.9157497255       26.6334400580        8.3683261648
N         22.4534619661       27.2591539226        9.5629632531
C         22.4547679282       26.7137450016       10.8349158997
C         21.8747107701       28.5996113968        9.5519513315
O         22.8445534509       25.6073555980       11.1668872214
O         21.9281879652       27.6411198909       11.6847457422
C         21.6732910848       28.9158458706       11.0429174167
C         20.2871199077       29.5038659841       11.3654903875
O         19.8171720334       30.4494891908       10.7561013747
N         19.5826299043       28.8539911335       12.3550849865
C         18.1149332118       28.8989497498       12.4643059760
C         17.5601885727       27.4608255954       12.3091302115
C         17.6657896968       29.5939198213       13.7795916301
C         18.1156737247       26.7476259936       11.0809069202
O         16.2448403104       29.5187782317       13.9123072829
C         18.1079740200       31.0836234564       13.8140219620
C         17.8297502565       27.2303174585        9.7904090214
C         18.9471964341       25.6221235408       11.2281611227
N         18.1099442069       31.7059262049       15.1658221254
C         18.3701063032       26.5963204482        8.6594681417
C         19.4811223604       24.9823603798       10.0978350184
C         19.0103253593       31.0920597592       16.1796493370
S         16.6185402142       32.3159638355       15.7337362655
C         19.1943065618       25.4704440076        8.8128194983
C         20.4817538550       30.9118971473       15.7221233941
O         16.1626706012       33.2265267326       14.6765522352
O         15.8201845859       31.1591168851       16.1603840323
C         17.0867755917       33.3712603412       17.1259798089
C         21.1300077176       32.2653528349       15.3518899012
C         21.3014027219       30.2263583691       16.8352072229
C         17.7758109334       34.5781781115       16.8969219788
C         16.7902666913       32.9821596185       18.4467376999
C         18.1626651202       35.3903190316       17.9766899863
C         17.1772755886       33.7958973834       19.5248314414
C         17.8630941602       34.9998368189       19.2975432289
O         18.2187245512       35.7549926849       20.3959201315
C         18.9310937754       37.0035479134       20.2976227790
H         24.1627964897       24.9274569549        5.0761254669
H         24.6557172310       27.3323548284        5.4992244759
H         22.8806610666       23.6087131706        6.7567775747
H         23.8772881423       28.4164909299        7.5814317724
H         22.0917923178       24.6825893723        8.8425247896
H         22.5480813128       29.3319477216        9.0914668571
H         20.9153155791       28.5846558374        9.0173830549
H         22.4257158371       29.6435361405       11.3711019673
H         20.0646158339       28.0688417635       12.7758913948
H         17.7153815750       29.4943318854       11.6313845299
H         17.7873535367       26.8878020179       13.2168312459
H         16.4655269120       27.4977286800       12.2411676630
H         18.1425355563       29.0535423558       14.6071623842
H         16.0114503540       29.8972822519       14.7934492372
H         19.1142754878       31.1661275018       13.3893637377
H         17.4605892488       31.6544134979       13.1350465925
H         17.1951351502       28.1034619925        9.6648718085
H         19.1837814764       25.2434315084       12.2188448474
H         18.1488754559       26.9765860591        7.6654013388
H         20.1197268479       24.1112527579       10.2201905050
H         19.0317040086       31.7114168693       17.0849743722
H         18.6079178208       30.1165796583       16.4838068460
H         19.6094151044       24.9779068793        7.9370774500
H         20.5131769540       30.2533255749       14.8437384862
H         20.5964414898       32.7499332118       14.5247542570
H         21.1220314836       32.9534338746       16.2069856668
H         22.1721952097       32.1266302938       15.0375140795
H         21.3215182820       30.8370277146       17.7472210296
H         20.8748628488       29.2477244238       17.0903616421
H         22.3382024487       30.0639155268       16.5136412022
H         18.0147979904       34.8823895665       15.8803405261
H         16.2635881663       32.0498686273       18.6372945070
H         18.6936126023       36.3155077163       17.7758725018
H         16.9474175383       33.4931697973       20.5427287091
H         19.1022104662       37.4184341067       21.2989979960
H         19.9062835995       36.8564235618       19.8155825103
H         18.3536384448       37.7346681488       19.7171129962
    79
VM2 Rank=30     G=213.497           E=119.055           -TS=94.442              
C         24.0096659645       24.9672271374        6.3746555116
C         24.5381613455       26.1968320697        6.7967178547
C         22.9717293421       24.3665724684        7.1033063939
C         24.0272050514       26.8265423284        7.9440051971
C         22.4622300844       24.9963595340        8.2507839300
C         22.9819079213       26.2335282302        8.6810584661
N         22.4576663482       26.8786651356        9.8392491095
C         22.0937347751       26.2725160413       11.0289975795
C         22.2135725996       28.3178813905        9.8709691242
O         22.1501710085       25.0862741911       11.3044584816
O         21.6422927193       27.2464346541       11.8699522110
C         21.8119330120       28.5816948888       11.3313210283
C         20.5619203687       29.4694433961       11.4750178451
O         20.4451980100       30.5371534696       10.8981505319
N         19.5529500439       28.9513199206       12.2569835828
C         18.1411565096       29.3466247021       12.1203908366
C         17.3118014435       28.1002558818       11.7219278599
C         17.6218503825       30.0465628737       13.4069017612
C         17.9121882358       27.3507451680       10.5372201757
O         16.2227266466       30.3125936983       13.2885286409
C         18.3782580583       31.3780092553       13.6735088406
C         18.4197742893       26.0489600853       10.7032831226
C         17.9956638413       27.9682819942        9.2755472552
N         18.2675041804       31.8942890838       15.0648787028
C         18.9978475647       25.3696767325        9.6186597596
C         18.5813444119       27.2930511808        8.1920296446
C         18.7957777448       31.0162813068       16.1444335500
S         16.8750244440       32.8122487750       15.4355953878
C         19.0806864292       25.9923125785        8.3627874797
C         20.2452858361       30.5093546607       15.9233098139
O         16.8471386983       33.8720369250       14.4203784176
O         15.7681037872       31.8599333656       15.5953373733
C         17.2991343231       33.6300183615       16.9921525971
C         21.2454349183       31.6825896257       15.8122329291
C         20.6608370046       29.5753405227       17.0790258242
C         16.6818509471       33.2363129314       18.1956685285
C         18.2701599673       34.6497666749       17.0125265356
C         17.0295901039       33.8585244388       19.4070942012
C         18.6166032513       35.2701448015       18.2245047068
C         18.0007430073       34.8801314118       19.4244288011
O         18.3829284334       35.5244863492       20.5828471004
C         17.8312469456       35.2140217593       21.8771733070
H         24.4050990848       24.4799972033        5.4867046112
H         25.3449975011       26.6620081269        6.2356581059
H         22.5621754634       23.4127818214        6.7798507751
H         24.4559005929       27.7735374985        8.2582212287
H         21.6600692558       24.5166954563        8.8030382980
H         21.3948810099       28.5701434356        9.1835586414
H         23.1110724881       28.8907087947        9.6099149233
H         22.6350463068       29.0821305186       11.8561360632
H         19.7536772173       28.0476572767       12.6680195578
H         18.0538919800       30.0724973580       11.2997991156
H         17.2250252150       27.4337218009       12.5891546547
H         16.2880695394       28.4077720527       11.4735948868
H         17.7964853136       29.3554016955       14.2411487663
H         15.9193072073       30.6801859657       14.1528051464
H         19.4382901513       31.2390506256       13.4351650410
H         18.0184942269       32.1313314312       12.9600699024
H         18.3701550932       25.5628341876       11.6738773774
H         17.6140680024       28.9763409154        9.1374253114
H         19.3842722849       24.3627894990        9.7545432510
H         18.6466168345       27.7771408826        7.2208901051
H         18.7886778936       31.5538186437       17.1008133951
H         18.1299816807       30.1523244538       16.2721466768
H         19.5305948090       25.4686720158        7.5230150779
H         20.2888554468       29.9194472501       14.9979184657
H         22.2676798211       31.3121414163       15.6638673813
H         21.0030012806       32.3341661676       14.9635090557
H         21.2355290021       32.2966895186       16.7219071535
H         21.6738288015       29.1837041992       16.9202324980
H         20.6492245875       30.1041408710       18.0409627244
H         19.9803079087       28.7174342563       17.1541305735
H         15.9345180084       32.4461194207       18.1924017422
H         18.7575483863       34.9561119978       16.0896844668
H         16.5411232445       33.5389032411       20.3222539536
H         19.3668873914       36.0559234932       18.2366516766
H         16.7470767102       35.3856237720       21.8877628401
H         18.0286674445       34.1670919127       22.1416562815
H         18.2874793828       35.8535455498       22.6433509795
