    81
VM2 Rank=1      G=216.676           E=123.244           -TS=93.432              
C         18.2434181195       26.3160716651        6.1267161883
C         19.0543905662       25.1863794214        6.3229823645
C         18.3478804395       27.4082626490        7.0004399389
C         19.9641360986       25.1536759221        7.3936879267
F         17.5650158689       28.4914611761        6.8176111188
C         19.2577157804       27.3791315686        8.0675904573
C         20.0700569177       26.2475600874        8.2751594048
N         20.9869046820       26.2112152216        9.3613956461
C         21.8739357363       27.3324461018        9.6497070872
C         21.1711572793       25.1628484008       10.2426794583
C         22.6302372899       26.8815954465       10.9113034217
O         22.1390029537       25.5331391409       11.1287602436
O         20.5896365032       24.0917925769       10.2512429861
C         22.3566688738       27.8147626836       12.1065238121
N         21.4842233323       27.3305218044       13.0565508366
O         22.8077360457       28.9457576916       12.1745791558
C         20.6671419815       28.2122908398       13.8996403768
C         19.3013191211       27.5401253436       14.1864569787
C         21.4498542927       28.6241266102       15.1804685302
C         18.5418391876       27.2240272254       12.9051116638
C         20.7097999458       29.6718810334       16.0449497235
O         21.7281689075       27.4746071729       15.9772913463
C         18.5000792039       25.9102231112       12.4031208666
C         17.8882049673       28.2534623941       12.2037358797
N         20.2715953648       30.8762847657       15.2945266837
C         17.8086225993       25.6286095821       11.2132235737
C         17.1964668177       27.9726907226       11.0137361570
S         18.9527980490       31.7177557726       15.9871933332
C         21.3291231650       31.6236001552       14.5569150028
C         17.1546419053       26.6590831088       10.5196702179
O         17.8261675543       30.7960402826       15.7972921907
O         19.3571090564       32.1823795654       17.3188962826
C         18.6454765522       33.1061568061       14.8681913080
C         22.3918565430       32.2851224767       15.4638375269
C         18.0707209649       32.8758422222       13.6025432746
C         18.9901775836       34.4183383929       15.2476263757
O         21.8366418920       33.4199580341       16.1421361529
C         23.5599737376       32.9112145257       14.6864126985
C         17.8462587943       33.9470744735       12.7235747396
C         18.7725959069       35.4931617961       14.3635746775
C         22.9084953144       34.2474844890       16.6246902173
C         23.9934990578       34.1131313504       15.5413814779
C         18.1980673101       35.2518399630       13.1056446381
O         19.1053652751       36.7934588257       14.6812235364
C         19.8318224621       37.1504074010       15.8730045224
H         17.5360468401       26.3467626539        5.3029484308
H         18.9775368272       24.3372669130        5.6481153180
H         20.5870986084       24.2742108702        7.5367399138
H         19.3118784089       28.2301516877        8.7391057182
H         21.2999061047       28.2485175768        9.8395540398
H         22.5674864873       27.4942301277        8.8148945837
H         23.7122777728       26.8730259440       10.7313986568
H         21.1585502760       26.3838331515       12.9063398698
H         20.4643099664       29.1251085944       13.3226490868
H         19.4514250736       26.6276194999       14.7772854884
H         18.6845456069       28.2028592524       14.8054374146
H         22.4036530628       29.0638740340       14.8594923884
H         19.8361410957       29.1803867797       16.4926907106
H         21.3573853520       29.9662130219       16.8806620424
H         22.1089118402       26.8165735317       15.3575073809
H         19.0047642233       25.1060850625       12.9319341415
H         17.9172866297       29.2716158590       12.5824664314
H         17.7845427177       24.6126633683       10.8265410808
H         16.6940344818       28.7718346264       10.4745443193
H         21.8519321140       30.9433580558       13.8734740771
H         20.8881520547       32.3963228823       13.9162978842
H         16.6223186537       26.4411540100        9.5971339677
H         22.7885017624       31.5662737943       16.1933736447
H         17.8012147074       31.8660193599       13.3020076494
H         19.4327677403       34.5874385202       16.2242660352
H         23.2236634441       33.2548363409       13.6990879145
H         24.3765015613       32.1922609131       14.5398983777
H         17.4029438445       33.7668823225       11.7471087102
H         22.5911885120       35.2895502641       16.7597554374
H         23.2831050130       33.8571700456       17.5808205859
H         24.0531108351       35.0249554331       14.9325669704
H         24.9758505571       33.9443519774       16.0019626667
H         18.0282190448       36.0810503716       12.4244795718
H         20.8041406944       36.6420572145       15.8976178558
H         20.0083960334       38.2331876215       15.8955534300
H         19.2637790397       36.8767108757       16.7714578734
    81
VM2 Rank=2      G=216.793           E=123.387           -TS=93.406              
C         18.1209544511       26.5290229479        6.0439673851
C         18.2247622613       27.6155134578        6.9274818607
C         18.9245270734       25.3957178319        6.2368848774
C         19.1315742582       27.5631116632        7.9996100746
F         18.8273723355       24.3523120147        5.3873267239
C         19.8297670166       25.3408663410        7.3073056946
C         19.9375210116       26.4245310735        8.2002061285
N         20.8520091694       26.3725604379        9.2884796698
C         21.7300674325       27.4941544958        9.6022585130
C         21.0472818424       25.3051603390       10.1444000807
C         22.5145919221       27.0089470168       10.8335796976
O         22.0175189029       25.6600940720       11.0340414938
O         20.4721261685       24.2306850876       10.1308029382
C         22.2851676541       27.9172146572       12.0567743648
N         21.4391272969       27.4168961448       13.0219688445
O         22.7453834748       29.0438106697       12.1358644381
C         20.6451705462       28.2851270422       13.9003537102
C         19.2781274389       27.6184492058       14.1938194738
C         21.4539470838       28.6601686299       15.1760133858
C         18.5015961026       27.3302418112       12.9160878929
C         20.7370401750       29.6911673005       16.0792379298
O         21.7383643250       27.4895656031       15.9392514379
C         18.4403761053       26.0248037863       12.3946037969
C         17.8556858936       28.3780420307       12.2351133802
N         20.2943141364       30.9170256940       15.3671444938
C         17.7382558386       25.7699293267       11.2049454402
C         17.1535157698       28.1240242287       11.0452735069
S         18.9973494748       31.7522490810       16.1070322769
C         21.3432719837       31.6737523076       14.6268105544
C         17.0936801095       26.8189752693       10.5307379292
O         17.8595083492       30.8436141648       15.9208800369
O         19.4337487602       32.1833780110       17.4398641001
C         18.6774313245       33.1677281906       15.0261675954
C         22.4298610649       32.3037944610       15.5278807476
C         18.0718649588       32.9705417331       13.7693229942
C         19.0432094760       34.4680523587       15.4261094075
O         21.8990184504       33.4273225710       16.2434809114
C         23.5885484787       32.9374119309       14.7424627115
C         17.8374657209       34.0628957940       12.9194185904
C         18.8159075276       35.5639868322       14.5709070075
C         22.9880988094       34.2330924266       16.7242608281
C         24.0502055415       34.1147715939       15.6166719447
C         18.2103392227       35.3556937311       13.3216656788
O         19.1686548519       36.8538066435       14.9089944258
C         19.9316902090       37.1767899900       16.0875350259
H         17.4219856334       26.5628713109        5.2131937588
H         17.6022307877       28.4953492997        6.7840446018
H         19.1923169380       28.4057042784        8.6829121100
H         20.4443830662       24.4551356056        7.4380300450
H         21.1460917089       28.3934712639        9.8367496102
H         22.4060099486       27.6976656777        8.7621468272
H         23.5909603472       26.9932913034       10.6227528029
H         21.1036115163       26.4756500922       12.8592314106
H         20.4404690381       29.2131841103       13.3489163914
H         19.4289016903       26.6946605583       14.7666669692
H         18.6744799201       28.2751917504       14.8319065724
H         22.4048581640       29.1010783109       14.8480565984
H         19.8678355574       29.1945621774       16.5300453257
H         21.4015043761       29.9600568204       16.9102727821
H         22.1031095045       26.8444498952       15.2966545130
H         18.9391922389       25.2067725437       12.9074395488
H         17.9000122975       29.3899443648       12.6288304468
H         17.6993974168       24.7604534053       10.8028381994
H         16.6572411806       28.9374609777       10.5221703632
H         21.8462528123       31.0064639574       13.9162480288
H         20.8962294083       32.4657606675       14.0145694981
H         16.5543460302       26.6216708273        9.6076259367
H         22.8337478233       31.5642515476       16.2323309950
H         17.7860600769       31.9700308727       13.4530592935
H         19.5094517503       34.6116233435       16.3958014366
H         23.2363681419       33.3073251361       13.7702857120
H         24.3951292853       32.2146947746       14.5630633607
H         17.3702317078       33.9082882420       11.9497452175
H         22.6836424290       35.2744907104       16.8904840794
H         23.3776349346       33.8164218581       17.6631494560
H         24.1063828911       35.0402141265       15.0284260124
H         25.0398196179       33.9263116440       16.0534591919
H         18.0329176843       36.2012191996       12.6628522434
H         20.8992928559       36.6591155249       16.0731205563
H         20.1194079151       38.2571138735       16.1295214951
H         19.3864635189       36.8878722214       16.9953046836
    81
VM2 Rank=3      G=217.205           E=123.301           -TS=93.904              
C         19.3092373231       28.1792269909        5.1762099362
C         18.8779362219       27.0943123454        5.9569778059
C         20.1266781048       29.1664219698        5.7463928076
C         19.2670731623       27.0017458790        7.3042445842
F         20.5413001230       30.2089273484        4.9973599095
C         20.5163893344       29.0762804753        7.0912692109
C         20.0902789940       27.9898376097        7.8792451219
N         20.4754664232       27.8993716778        9.2442315553
C         20.3473711767       29.0354587418       10.1479589354
C         20.9608793998       26.7765588248        9.8881447974
C         20.6910006079       28.4317883108       11.5208965773
O         21.1650614695       27.1049358387       11.1947191298
O         21.1883274387       25.6849655799        9.3948167071
C         19.4788788144       28.3623125930       12.4687459933
N         19.7461587036       28.6860517064       13.7802239098
O         18.3561715388       28.0689714816       12.0932685574
C         18.7461489240       28.7799594207       14.8540727959
C         19.2631137843       28.0480728338       16.1158117349
C         18.3241575811       30.2553015976       15.1309357326
C         19.5789521939       26.5829954582       15.8462707620
C         19.4299145275       31.1625640063       15.7491471145
O         17.8271067825       30.8306896225       13.9269503429
C         20.9140223726       26.1589803344       15.7122113308
C         18.5389655996       25.6453875713       15.7123702029
N         20.6664696628       31.2968887747       14.9288825864
C         21.2070427736       24.8116348859       15.4443121552
C         18.8304977458       24.2970497572       15.4457571583
S         20.6712751378       32.3099331406       13.5393919150
C         21.9375776990       31.0509718711       15.6595458379
C         20.1648008352       23.8799581012       15.3111359357
O         20.2642749193       31.4809810150       12.3973937937
O         21.9792751007       32.9767214575       13.5521213339
C         19.5066358278       33.6497783736       13.8916625653
C         23.0279327814       30.3599620531       14.8026257234
C         19.7905932130       34.5809183470       14.9104678043
C         18.3211753697       33.7799393123       13.1419556726
O         22.5501784580       29.0928154906       14.3268746079
C         24.2867011379       29.9653829538       15.5923385539
C         18.8901658812       35.6219252461       15.1868768436
C         17.4121743889       34.8180683719       13.4243093811
C         23.6704422729       28.2879512112       13.9239152360
C         24.7652171025       28.6570750401       14.9397036933
C         17.7031837373       35.7367427736       14.4451078627
O         16.2290400493       34.9746440739       12.7327060980
C         15.7407553042       34.0065395314       11.7834396867
H         19.0120793378       28.2570564953        4.1342685873
H         18.2427986188       26.3274666746        5.5199562855
H         18.9244341534       26.1605818944        7.9020054029
H         21.1523340911       29.8486999649        7.5126410796
H         19.3281739200       29.4432804799       10.1233515260
H         21.0672219590       29.8208134042        9.8860927894
H         21.4795714511       29.0232989062       12.0002777543
H         20.7096039386       28.9133138431       14.0128001404
H         17.8408807105       28.2502436742       14.5249596804
H         20.1611613247       28.5489296344       16.4954548930
H         18.5110778749       28.1199753152       16.9115372551
H         17.5017464688       30.2233885688       15.8584213520
H         18.9966443741       32.1486461597       15.9544635954
H         19.6742514201       30.7469639333       16.7338960683
H         18.4566324737       30.5466910462       13.2267045625
H         21.7244822921       26.8757800101       15.8105050072
H         17.5044101776       25.9635414322       15.8091709798
H         22.2402967333       24.4908042179       15.3388893594
H         18.0227950796       23.5770199775       15.3409000668
H         21.7536510252       30.4028974140       16.5252523861
H         22.3331723467       31.9994198812       16.0458745657
H         20.3905655970       22.8370477132       15.1030484140
H         23.3238523011       30.9849032391       13.9502268029
H         20.7087212295       34.4940623335       15.4870372107
H         18.1134793332       33.0650191530       12.3522517824
H         24.0444189090       29.7913355451       16.6489555262
H         25.0502062257       30.7523703847       15.5414964851
H         19.1103724188       36.3377378771       15.9752973679
H         23.4330111398       27.2158467463       13.9450363982
H         23.9899580491       28.5676656797       12.9107807798
H         24.8769688897       27.8655191244       15.6924131625
H         25.7316387951       28.7879853245       14.4352992013
H         17.0036449576       36.5394629106       14.6612228500
H         14.7637733236       34.3204789407       11.3948399767
H         16.4317420847       33.9102532378       10.9360964971
H         15.6231129610       33.0240304653       12.2597199965
    81
VM2 Rank=4      G=217.219           E=123.811           -TS=93.408              
C         18.2206074714       26.4103677555        6.1299742188
C         19.0187717459       25.2677373796        6.3025233906
C         18.3425878263       27.4859303778        7.0218848242
C         19.9333733723       25.2055527639        7.3677757007
F         17.5718871900       28.5813996035        6.8619008441
C         19.2572839822       27.4273741810        8.0836588169
C         20.0569483068       26.2827426485        8.2672619019
N         20.9784892784       26.2165017877        9.3479693479
C         21.8838591886       27.3197531268        9.6482005338
C         21.1502506853       25.1529556221       10.2133632493
C         22.6343766543       26.8415171896       10.9031604745
O         22.1264944438       25.4962030594       11.1011265596
O         20.5528987826       24.0906316963       10.2086276319
C         22.3713104157       27.7608253835       12.1114504397
N         21.4950466789       27.2725742035       13.0559542962
O         22.8337205550       28.8862442039       12.1942263701
C         20.6878993408       28.1512879955       13.9117124760
C         19.3160156158       27.4888568749       14.1922360093
C         21.4761575513       28.5392345211       15.1966167714
C         18.5461329299       27.2082661914       12.9089426596
C         20.7496378436       29.5876880197       16.0718077834
O         21.7394589023       27.3778804371       15.9813348566
C         18.4923023734       25.9072362672       12.3758337260
C         17.8939501243       28.2583729417       12.2375282871
N         20.3204783230       30.8016545185       15.3317631447
C         17.7906479474       25.6587948562       11.1845065769
C         17.1921064417       28.0108058808       11.0460733252
S         19.0011319591       31.6411920515       16.0268209876
C         21.3858945402       31.5507581359       14.6083501662
C         17.1383911876       26.7098124163       10.5207621941
O         17.8684113873       30.7381486563       15.7894863514
O         19.3871919729       32.0592902845       17.3793985316
C         18.7223748268       33.0683601391       14.9496110109
C         22.4245445775       32.2288019024       15.5303325464
C         18.2211254636       32.8803186661       13.6465582244
C         19.0081762703       34.3719140851       15.3999216518
O         21.8384910063       33.3604945728       16.1863384321
C         23.5972681447       32.8653040853       14.7691461120
C         18.0193992660       33.9833476288       12.8017064061
C         18.8119807965       35.4770854819       14.5581988525
C         22.8790825764       34.2285179456       16.6664652638
C         24.0039244511       34.0741735766       15.6268120606
C         18.3154765408       35.2800768214       13.2539079983
O         19.1217283484       36.7253784632       15.0567675516
C         18.9987127133       37.9356356004       14.2850014422
H         17.5095466321       26.4638157972        5.3105576424
H         18.9282153636       24.4314008857        5.6135508840
H         20.5462732768       24.3162969163        7.4926444754
H         19.3249508386       28.2657469506        8.7697307338
H         21.3252836009       28.2429050949        9.8494921748
H         22.5789098150       27.4798245896        8.8143086850
H         23.7163412802       26.8225723729       10.7236082953
H         21.1600337258       26.3311606848       12.8938097779
H         20.4933808711       29.0734564415       13.3467950846
H         19.4586067006       26.5627772867       14.7634769560
H         18.7100042804       28.1455381013       14.8279880989
H         22.4355971117       28.9698575415       14.8802139489
H         19.8725758840       29.1014066861       16.5186394133
H         21.4030350186       29.8694057089       16.9073320340
H         22.1133000326       26.7220037091       15.3551129383
H         18.9953520379       25.0873825605       12.8815665074
H         17.9317160533       29.2667392217       12.6409949066
H         17.7571980388       24.6526319299       10.7736857612
H         16.6908310329       28.8258437428       10.5301031778
H         21.9264623268       30.8712401407       13.9382289161
H         20.9492845044       32.3159616156       13.9558315273
H         16.5980963955       26.5175721148        9.5971514036
H         22.8154928877       31.5207345399       16.2733863236
H         17.9931945765       31.8784637460       13.2901587960
H         19.3955316213       34.5295216110       16.4029288649
H         23.2707572157       33.2033484506       13.7766076360
H         24.4241667311       32.1557998400       14.6354242932
H         17.6349175540       33.8337690239       11.7955684793
H         22.5337478971       35.2681597046       16.7437681719
H         23.2286003680       33.8889795723       17.6509651214
H         24.0968326156       34.9788232182       15.0115097668
H         24.9652186813       33.9020101405       16.1287215050
H         18.1548242357       36.1202261634       12.5857544045
H         19.3078897177       38.7987475059       14.8879556338
H         19.6374508360       37.8928488572       13.3932865403
H         17.9584961977       38.0911719097       13.9708893828
    81
VM2 Rank=5      G=217.223           E=123.366           -TS=93.857              
C         19.3360467747       27.4108400407        5.0968801241
C         19.0602247520       26.3412402829        5.9643756684
C         20.0029347469       28.5461467291        5.5808485240
C         19.4535427996       26.4121677010        7.3117419121
F         20.2682372488       29.5740052765        4.7484409547
C         20.3964515524       28.6193742887        6.9256470499
C         20.1259054226       27.5495957622        7.8003890743
N         20.5152258018       27.6232223142        9.1651870579
C         20.2214299451       28.7965578462        9.9781985698
C         21.1555811174       26.6361153011        9.8907811784
C         20.6483742740       28.3601259880       11.3905602828
O         21.3064682444       27.0920275629       11.1658632613
O         21.5392853712       25.5532223477        9.4823858626
C         19.4606218025       28.1968897813       12.3575889330
N         19.6907967203       28.6428620373       13.6398036458
O         18.3852017109       27.7312524729       12.0195604101
C         18.6947477503       28.6790035170       14.7204658227
C         19.3005166116       28.0757549186       16.0104021235
C         18.1108181886       30.1098968468       14.9266660815
C         19.7768108730       26.6432930382       15.8102940884
C         19.1122112055       31.1666344031       15.4814242407
O         17.5426398555       30.5628066198       13.7018543518
C         21.1491358322       26.3662343120       15.6683991206
C         18.8483912148       25.5884417192       15.7478946813
N         20.3157909903       31.3990787647       14.6344908710
C         21.5893990283       25.0482038090       15.4636593454
C         19.2873166810       24.2693071859       15.5446082357
S         20.1873162007       32.3225536811       13.1894128351
C         21.6149381889       31.3422531533       15.3550545527
C         20.6580931897       23.9989719896       15.4019250660
O         19.8697568257       31.3888234331       12.1011254575
O         21.4081500709       33.1368464862       13.1448813630
C         18.8820290612       33.5405463967       13.4851694799
C         22.7686427701       30.7353931117       14.5175229756
C         17.7009927047       33.5279975100       12.7178561579
C         19.0571934193       34.5267965152       14.4767836148
O         22.4331540551       29.3996976709       14.1134352716
C         24.0715859382       30.5264463310       15.3064520832
C         16.6969264258       34.4807301437       12.9523650189
C         18.0501235410       35.4827908070       14.7136615158
C         23.6333438581       28.7066243252       13.7335660530
C         24.6896143438       29.2494249395       14.7115300316
C         16.8728297568       35.4536554045       13.9497202979
O         18.1687672713       36.4625103924       15.6774660157
C         19.3184358630       36.5906368418       16.5366607379
H         19.0347752471       27.3626644690        4.0543260993
H         18.5420668978       25.4597693412        5.5942896935
H         19.2317393310       25.5810639246        7.9768378262
H         20.9148121297       29.5051348399        7.2796860208
H         19.1535327966       29.0477849398        9.9321097897
H         20.8189045583       29.6552909587        9.6478168584
H         21.3457875395       29.0940432330       11.8108698573
H         20.6184938499       29.0068280526       13.8421006674
H         17.8524751794       28.0347047273       14.4308974503
H         20.1397487586       28.6927318303       16.3518965004
H         18.5515250775       28.1041648113       16.8117203001
H         17.3032624734       30.0240410377       15.6663458209
H         18.5708584085       32.1058319666       15.6452343137
H         19.4134996401       30.8317860862       16.4810547534
H         18.1997011540       30.3281885824       13.0083899551
H         21.8740068504       27.1743484472       15.7111520082
H         17.7860195827       25.7924930916       15.8509665512
H         22.6506084279       24.8409815162       15.3516397144
H         18.5653279382       23.4580876977       15.4948586502
H         21.5169198905       30.7259396159       16.2572156225
H         21.9021535490       32.3497866745       15.6831225436
H         20.9978144592       22.9785943688       15.2427125947
H         22.9836391426       31.3448119816       13.6303392520
H         17.5591416000       32.7755625860       11.9455435048
H         19.9761687713       34.5358920799       15.0545382278
H         23.8607239895       30.3795376721       16.3738706259
H         24.7400330817       31.3912356486       15.2055038958
H         15.7832022213       34.4644150170       12.3631284273
H         23.5193536549       27.6171320004       13.8126339384
H         23.9083769015       28.9674197391       12.7024948421
H         24.8996059459       28.5152550258       15.5005260794
H         25.6290762790       29.4635969762       14.1851527652
H         16.0953410432       36.1903394778       14.1320319800
H         19.1831955410       37.4378039539       17.2209306092
H         19.4564265718       35.6826046155       17.1378300103
H         20.2263643530       36.7685246052       15.9458649674
    81
VM2 Rank=6      G=217.259           E=124.235           -TS=93.024              
C         18.5498796030       26.7451319099        5.6697449860
C         17.9265980285       26.4287840281        6.8878782492
C         19.9430345186       26.9019156940        5.6203886818
C         18.7003697396       26.2706209015        8.0501012938
F         20.5427868468       27.2052085441        4.4507248689
C         20.7172961455       26.7449893460        6.7800532782
C         20.0995106523       26.4258169244        8.0045940050
N         20.8772613021       26.2759134968        9.1849738888
C         21.8777867302       27.2651168628        9.5671921900
C         20.7727191330       25.2558484141       10.1109362461
C         22.3790538061       26.7646807112       10.9338785287
O         21.6572288878       25.5175776162       11.1147226615
O         20.0377497294       24.2848415512       10.0601266635
C         22.1133748238       27.7743699395       12.0686357003
N         21.3874058265       27.2951070244       13.1368942202
O         22.4682512059       28.9401563578       12.0127746333
C         20.6630956647       28.1711514152       14.0668600652
C         19.3930984383       27.4488205678       14.5811825641
C         21.6088046271       28.6649377810       15.2006636893
C         18.4262729526       27.1311787538       13.4495727267
C         20.9652660263       29.7309192862       16.1187409557
O         22.0413400803       27.5631477386       15.9962800537
C         18.3937724676       25.8488117241       12.8714262890
C         17.5656757024       28.1318521505       12.9631695775
N         20.3787509524       30.8825368953       15.3872547470
C         17.5070684544       25.5699332666       11.8183045406
C         16.6795854744       27.8543336563       11.9091389049
S         19.1187765104       31.6973089872       16.2090577302
C         21.2947657987       31.6351549564       14.4845910165
C         16.6492092193       26.5723170012       11.3372914738
O         18.0164802565       30.7281615117       16.1816669101
O         19.6606922899       32.2208380390       17.4680746503
C         18.6237952886       33.0383096119       15.0991614588
C         22.4417874780       32.3725063782       15.2127042153
C         17.9062699479       32.7487037245       13.9216084437
C         18.9623296193       34.3730067615       15.3970939026
O         21.9328246848       33.4956490130       15.9446198416
C         23.4504399273       33.0338980284       14.2606578297
C         17.5342983301       33.7832922945       13.0488461398
C         18.5960833791       35.4113332564       14.5184837836
C         23.0192228707       34.3865424668       16.2484864307
C         23.9358556038       34.2815301310       15.0166690906
C         17.8803588824       35.1108066081       13.3488434759
O         18.9148542313       36.7318693361       14.7571982022
C         19.7649178624       37.1520693366       15.8417311957
H         17.9582394169       26.8688397193        4.7671780985
H         16.8469715286       26.3070633179        6.9319780270
H         18.2094837649       26.0285957135        8.9883644607
H         21.7942885418       26.8666166954        6.7191412213
H         21.4208057352       28.2608336532        9.6429428245
H         22.6998916082       27.2871579210        8.8413410671
H         23.4591565482       26.5763155231       10.9026228804
H         21.1092698647       26.3233584497       13.0748574589
H         20.3299915584       29.0516025172       13.5000064211
H         19.6736785996       26.5324823670       15.1158856127
H         18.8768285725       28.0795886728       15.3145298058
H         22.4889713321       29.1178303020       14.7249753499
H         20.1852029580       29.2369331168       16.7124729964
H         21.7164534840       30.0853959381       16.8359480576
H         22.3550565527       26.8886203751       15.3572279363
H         19.0560037793       25.0678190567       13.2352012333
H         17.5850741952       29.1252262851       13.4037219355
H         17.4883623554       24.5778968467       11.3734163561
H         16.0167284504       28.6315022674       11.5370787566
H         21.7483447202       30.9450361933       13.7626576460
H         20.7398690206       32.3629292670       13.8811464048
H         15.9628526350       26.3563282475       10.5223497309
H         22.9772103329       31.6932430673       15.8896297198
H         17.6405374991       31.7213738486       13.6840035168
H         19.5154466671       34.5880559239       16.3060082373
H         22.9583869177       33.3299681240       13.3246030194
H         24.2756517259       32.3532130900       14.0141745638
H         16.9810713623       33.5572005867       12.1403841877
H         22.6713009579       35.4142864356       16.4141696726
H         23.5523389312       34.0370760148       17.1432093726
H         23.8491673394       35.1776270608       14.3880690566
H         24.9844756147       34.1808307592       15.3263181182
H         17.5960044613       35.9118018072       12.6721051846
H         19.9001695274       38.2406475124       15.8133439587
H         19.3204434134       36.8867275782       16.8096370908
H         20.7523445275       36.6799479761       15.7616430125
    81
VM2 Rank=7      G=217.265           E=124.154           -TS=93.111              
C         18.9893489886       26.8153677495        5.5633275475
C         20.3892394343       26.9256313079        5.5968375172
C         18.2864718026       26.5123185080        6.7387755641
C         21.0796981573       26.7329909799        6.8059229223
F         16.9417899124       26.4079536364        6.7098445583
C         18.9740602867       26.3189596405        7.9458163779
C         20.3769419846       26.4266880779        7.9881114689
N         21.0735480889       26.2434087680        9.2138127086
C         22.0890139783       27.1894608438        9.6605337304
C         20.8661041841       25.2307629705       10.1306674353
C         22.4724760308       26.6759673952       11.0600633387
O         21.6938217972       25.4570825687       11.1899323242
O         20.0951128916       24.2919089221       10.0319640423
C         22.1624103533       27.6995876352       12.1708667028
N         21.3318162783       27.2571611114       13.1771048788
O         22.5736756632       28.8477451208       12.1446689667
C         20.5798183506       28.1680733151       14.0499290872
C         19.2425051711       27.5064175560       14.4659551874
C         21.4583127108       28.6207133978       15.2529460939
C         18.3518530867       27.2261039700       13.2641185542
C         20.7961033615       29.7161735574       16.1217134367
O         21.7793215421       27.5018958976       16.0771090609
C         18.2975392065       25.9404935712       12.6949299759
C         17.5848865212       28.2639354784       12.7044051301
N         20.3191742969       30.8921963050       15.3504546832
C         17.4815381747       25.6952419405       11.5782029842
C         16.7700514369       28.0201200871       11.5864636659
S         19.0420297015       31.7666449057       16.0791820381
C         21.3332994609       31.5998558113       14.5190933990
C         16.7170434832       26.7347437561       11.0239353478
O         17.9007390742       30.8497131781       15.9709130521
O         19.5147112732       32.2675256522       17.3747764222
C         18.6919952454       33.1263307248       14.9373216655
C         22.4567617163       32.2840886306       15.3309810733
C         18.0489743735       32.8674056302       13.7106117113
C         19.0700882843       34.4445473471       15.2600076006
O         21.9486649622       33.4320569527       16.0239358503
C         23.5634317996       32.8944861288       14.4569795539
C         17.7900420764       33.9159117870       12.8139250534
C         18.8175130304       35.4964910639       14.3578854083
C         23.0504897133       34.2713749369       16.4084203048
C         24.0502379800       34.1195263756       15.2482124135
C         18.1751773756       35.2266088746       13.1391957950
O         19.1796424767       36.8013066424       14.6200427305
C         19.9685242821       37.1840212901       15.7631026367
H         18.4498213779       26.9637404328        4.6322656426
H         20.9384075693       27.1598158663        4.6879763788
H         22.1630957812       26.8172127243        6.8182859797
H         18.4134585249       26.0875218166        8.8451369423
H         21.6738678073       28.2053599862        9.7009364591
H         22.9589813955       27.1691920051        8.9927373459
H         23.5444639029       26.4486165576       11.1072497944
H         21.0152210904       26.2989279346       13.0930149867
H         20.3317559007       29.0613741913       13.4600768871
H         19.4393895547       26.5814383124       15.0226858967
H         18.7004036664       28.1638809511       15.1559491327
H         22.3915152518       29.0326025192       14.8460628498
H         19.9518955984       29.2588933649       16.6539331477
H         21.5062964540       30.0373443643       16.8942506929
H         22.1089988754       26.8125673142       15.4623510307
H         18.8880356543       25.1308191721       13.1151464353
H         17.6218072959       29.2600489838       13.1375409084
H         17.4458808232       24.7004422023       11.1405845579
H         16.1798247720       28.8259999315       11.1575342565
H         21.8061673708       30.8881947447       13.8312655886
H         20.8588899755       32.3517412688       13.8777439374
H         16.0864645693       26.5450935031       10.1586837277
H         22.9077485919       31.5821234339       16.0452350091
H         17.7533666459       31.8529747757       13.4536425276
H         19.5652590051       34.6359616590       16.2068306318
H         23.1566401281       33.2112793087       13.4873737316
H         24.3713513946       32.1747988832       14.2715600019
H         17.2941395375       33.7134887476       11.8675707638
H         22.7403418913       35.3149166277       16.5483936510
H         23.4983670976       33.8996511004       17.3401368928
H         24.0535513425       35.0170838023       14.6157405765
H         25.0668626800       33.9696929471       15.6350602137
H         17.9784239393       36.0382042068       12.4441945897
H         20.9359295830       36.6659771473       15.7536685557
H         20.1563455756       38.2649970902       15.7453668513
H         19.4438559508       36.9422630001       16.6964196719
    81
VM2 Rank=8      G=217.275           E=123.732           -TS=93.544              
C         19.8902026068       26.9717203611        5.5299966167
C         21.1440055297       26.4543338645        5.8950640273
C         18.9309439471       27.2352013926        6.5189307473
C         21.4329183824       26.2034490051        7.2475862033
F         17.7267104470       27.7339088393        6.1711192034
C         19.2175897592       26.9848102527        7.8688523317
C         20.4710225793       26.4654749637        8.2432629495
N         20.7658839121       26.2229040746        9.6126258334
C         22.0090368696       26.6869782261       10.2165406021
C         19.9460288652       25.5903090455       10.5275671025
C         21.8549118735       26.3085794943       11.7005362720
O         20.5795270931       25.6147463618       11.7345680983
O         18.8570899549       25.0851984391       10.3164599271
C         21.8883620081       27.5368421680       12.6320457611
N         20.8009078805       27.6844444884       13.4643614485
O         22.7840096150       28.3646254954       12.6037062218
C         20.4170502192       28.9742121192       14.0522302245
C         18.8780949149       29.0202454214       14.2286305726
C         21.2083622883       29.2293603473       15.3682738517
C         18.1367482324       28.7608731361       12.9233011169
C         20.9675983494       30.6314076636       15.9755061634
O         20.8752961625       28.2415089109       16.3412035455
C         17.3882523681       27.5820889320       12.7511078462
C         18.2044654758       29.6945225516       11.8732145915
N         21.2430139651       31.7608322504       15.0470626123
C         16.7048483785       27.3461430614       11.5467911722
C         17.5220787589       29.4596219871       10.6683842458
S         20.5322193854       33.2567404616       15.4769168658
C         22.5971433652       31.7892819582       14.4300618340
C         16.7666172473       28.2875911403       10.5072937981
O         20.8838916050       33.5336539776       16.8747674286
O         20.8791972053       34.1867070598       14.3947319008
C         18.7743039504       32.8915076818       15.2759719686
C         23.7529345632       31.9996440243       15.4356178613
C         17.9645071623       32.6330511342       16.3990174011
C         18.2161185081       32.8137478543       13.9852681329
O         23.7776690423       33.3605480596       15.8897281307
C         25.1474014800       31.8423203537       14.8116944417
C         16.6128834102       32.2920218010       16.2294963089
C         16.8685559430       32.4649621114       13.8117383877
C         25.0680219899       33.6480408314       16.4568485262
C         26.0413677141       32.7879589669       15.6294854957
C         16.0649781409       32.2038774913       14.9387952196
O         16.3859036604       32.3851468377       12.5235121210
C         15.1973251903       31.6458554019       12.1831248886
H         19.6609191630       27.1682963094        4.4865583351
H         21.8905100204       26.2478580127        5.1318137991
H         22.4050110399       25.7992503568        7.5170785008
H         18.4647228166       27.1964566950        8.6204211430
H         22.1160166482       27.7718289999       10.0837645875
H         22.8714436313       26.1713750664        9.7765924103
H         22.6615317039       25.6335091090       12.0114927369
H         20.0905896744       26.9662538839       13.3838095043
H         20.6927084240       29.7615664310       13.3369082923
H         18.5715639240       28.2911404920       14.9892162959
H         18.5769762579       29.9995862346       14.6148949532
H         22.2779500660       29.1386928502       15.1369443861
H         19.9265722293       30.6690246487       16.3172905861
H         21.5858106790       30.7337346417       16.8767338771
H         20.9490923675       27.3826341450       15.8733376528
H         17.3337903241       26.8475002169       13.5499474616
H         18.7805837482       30.6074512480       11.9926880407
H         16.1303258382       26.4322501739       11.4184511114
H         17.5738732211       30.1887523130        9.8638742665
H         22.7803311272       30.8522656638       13.8900298946
H         22.6475541488       32.5838836776       13.6741085906
H         16.2351642918       28.1059643037        9.5764577260
H         23.6624786325       31.3164080922       16.2906523735
H         18.3854201484       32.6865549430       17.4005469692
H         18.8335870919       33.0052109261       13.1118822495
H         25.1322128017       32.1566414920       13.7595421146
H         25.4951995015       30.8019803831       14.8549436171
H         15.9904942504       32.0903310548       17.0980879380
H         25.3097537647       34.7171891671       16.3901311007
H         25.0947780585       33.3367741411       17.5100539279
H         26.6584960660       33.4135761329       14.9711534702
H         26.7115410559       32.2268832038       16.2941739055
H         15.0190882409       31.9371101519       14.8252807423
H         15.0507822631       31.6528655916       11.0958116697
H         15.2877030794       30.6014848454       12.5103649783
H         14.3108652209       32.0920674843       12.6510989399
    81
VM2 Rank=9      G=217.333           E=123.775           -TS=93.558              
C         18.1790971777       26.9378454803        6.1915045857
C         18.9139114277       25.7477686675        6.3185961912
C         18.3560486169       27.9684208272        7.1262640087
C         19.8203155921       25.5933630048        7.3814710192
F         17.6462773753       29.1095774031        7.0096738983
C         19.2627597511       27.8177739462        8.1858106014
C         19.9988335661       26.6250423921        8.3241193194
N         20.9121063829       26.4656439247        9.4023018668
C         21.8702830772       27.5082034614        9.7516425734
C         21.0285351190       25.3577192546       10.2200677013
C         22.5963921133       26.9363392764       10.9815203995
O         22.0183072723       25.6124136619       11.1225658500
O         20.3794459644       24.3274837304       10.1681186072
C         22.3852567319       27.8145868043       12.2298005665
N         21.4868968845       27.3323578833       13.1564484122
O         22.9057320308       28.9099221412       12.3586290737
C         20.7238487121       28.2158421981       14.0470157635
C         19.3197643249       27.6132058195       14.3014115548
C         21.5288819894       28.5131670079       15.3457675006
C         18.5417774798       27.4165466695       13.0072581178
C         20.8537487084       29.5594431362       16.2639340510
O         21.7351005883       27.3095622084       16.0823866928
C         18.4133729634       26.1370191021       12.4362335679
C         17.9582569444       28.5227511208       12.3632634284
N         20.4735068073       30.8172176975       15.5715496843
C         17.7054970341       25.9656031184       11.2350259267
C         17.2504269512       28.3523639769       11.1619431054
S         19.1999456036       31.6920824442       16.3061043497
C         21.5653401569       31.5454870094       14.8667198883
C         17.1219305746       27.0725846565       10.5988902769
O         18.0354658858       30.8218558710       16.1021452868
O         19.6337172155       32.0995219705       17.6473188829
C         18.9290209486       33.1180160352       15.2264998717
C         22.6206083216       32.1698394843       15.8071755145
C         19.2395767758       34.4208616690       15.6613061699
C         18.4081584439       32.9254855364       13.9319676711
O         22.0896511608       33.3448957129       16.4341711347
C         23.8485793165       32.7245229424       15.0698162159
C         19.0389765974       35.5163370186       14.8060860147
C         18.2067591867       34.0164543834       13.0735512443
C         23.1718475178       34.1460701169       16.9386688820
C         24.3128523235       33.9086856626       15.9325963296
C         18.5245420277       35.3169728514       13.5138986958
O         17.7014619152       33.7566260639       11.8168170008
C         17.4631844414       34.7835166568       10.8349425023
H         17.4746895724       27.0626433437        5.3741062074
H         18.7807086704       24.9460292528        5.5962310708
H         20.3840051054       24.6680003502        7.4706597503
H         19.3733752651       28.6231811164        8.9049802231
H         21.3570912512       28.4468989338        9.9970737858
H         22.5724206366       27.6732359881        8.9246817061
H         23.6754259115       26.8677020584       10.7965266654
H         21.1031273857       26.4174240908       12.9551679605
H         20.5767438496       29.1679469354       13.5186808892
H         19.4143051418       26.6616392194       14.8397849142
H         18.7450959601       28.2765084473       14.9590817194
H         22.5082834985       28.9091996450       15.0457245010
H         19.9588857045       29.0947907599       16.6983838675
H         21.5235001231       29.7812067396       17.1044943607
H         22.0756494602       26.6619717570       15.4290993585
H         18.8633854645       25.2742253112       12.9200225660
H         18.0543519649       29.5150991439       12.7951058189
H         17.6144352055       24.9755243823       10.7949302618
H         16.8028662684       29.2109137253       10.6674630432
H         22.0858630720       30.8633168598       14.1836739973
H         21.1561973297       32.3389633898       14.2300188059
H         16.5771935411       26.9398354006        9.6674618365
H         22.9491805797       31.4489159397       16.5678454108
H         19.6447091481       34.5817113743       16.6578464273
H         18.1630547206       31.9246238468       13.5880673365
H         23.5659485994       33.0779834199       14.0691860389
H         24.6306085479       31.9624489488       14.9570140633
H         19.2849649626       36.5202650450       15.1437164952
H         22.8950385200       35.2069601973       16.9998886199
H         23.4701173883       33.7919831476       17.9348674790
H         24.4856097028       34.8005289273       15.3158567012
H         25.2451469415       33.6741877900       16.4631675365
H         18.3780313748       36.1760280722       12.8668506509
H         18.3959469480       35.3064302282       10.5870390645
H         17.0641454251       34.3380847593        9.9148920028
H         16.7334902804       35.5140866304       11.2074157283
    81
VM2 Rank=10     G=217.427           E=121.258           -TS=96.169              
C         19.0604596600       28.5572356425        6.5666618455
C         19.3272652294       27.1789991296        6.6071001047
C         19.4379779297       29.3705960843        7.6448910984
C         19.9663734745       26.6203790756        7.7273389527
F         19.1781233682       30.6939443437        7.6128276469
C         20.0801345677       28.8157739482        8.7611907386
C         20.3429867574       27.4328726377        8.8153364894
N         20.9816645527       26.8683740229        9.9549276216
C         22.1309581698       27.5130835632       10.5799378203
C         20.6345619338       25.6930934185       10.5959896635
C         22.4764891723       26.5827270321       11.7546410370
O         21.4873985929       25.5270978589       11.6471647738
O         19.7383956816       24.9226578556       10.2983458866
C         22.4235728431       27.3279039940       13.1002027323
N         21.2969611466       27.1115702523       13.8647878197
O         23.2661881394       28.1481522730       13.4223493077
C         20.6899370261       28.1981123273       14.6436412291
C         19.1547034173       28.0101550204       14.7060142200
C         21.3643031424       28.3339127577       16.0418492030
C         18.5245733458       27.9631253813       13.3196967033
C         20.9465043236       29.6130689817       16.8148286512
O         21.0780277321       27.1857277315       16.8382442150
C         17.9946377071       26.7611779807       12.8159976805
C         18.4765066901       29.1232313428       12.5257479832
N         20.9495408820       30.8635170704       16.0029750167
C         17.4177415615       26.7230509742       11.5355143264
C         17.8962301242       29.0875240069       11.2480147893
S         20.1127991129       32.2067794961       16.6703621042
C         22.2485496336       31.1571673334       15.3281440652
C         17.3687751831       27.8858171452       10.7505008843
O         19.0550111148       31.6284812389       17.5085215388
O         21.1144493487       33.0832614347       17.2897747131
C         19.2652382238       32.9805437032       15.2756963489
C         22.1165776957       32.0366699964       14.0629350497
C         19.5881668699       34.2917669930       14.8749413128
C         18.2835915403       32.2610542876       14.5687603178
O         21.0878268730       31.5160208574       13.2068372742
C         23.3473752401       32.0181275987       13.1422226418
C         18.9525005821       34.8644198303       13.7614738713
C         17.6534981040       32.8250872695       13.4497518397
C         21.2450292716       32.0691212377       11.8915670381
C         22.7711630199       32.1821353236       11.7249748008
C         17.9908011127       34.1321219557       13.0452589494
O         16.7225115031       32.0562135063       12.7842562237
C         16.1299183995       32.4451460851       11.5308034696
H         18.5635705505       28.9947260337        5.7055144654
H         19.0379807459       26.5440773655        5.7731391312
H         20.1673854790       25.5522056153        7.7465914735
H         20.3518427792       29.4638052602        9.5876114880
H         21.8676551757       28.5161867719       10.9403045083
H         22.9669087945       27.5788532317        9.8721698064
H         23.4870149111       26.1731132106       11.6349038463
H         20.6708003031       26.4000447469       13.5079927064
H         20.8764386242       29.1261986963       14.0888040502
H         18.9150648932       27.0970480469       15.2652885209
H         18.7077140082       28.8360266980       15.2718706396
H         22.4498184544       28.3768010604       15.8851496172
H         19.9398693626       29.4263642715       17.2094940623
H         21.6091794680       29.7322721657       17.6818358209
H         21.2839546555       26.4168936535       16.2646078843
H         18.0297789618       25.8547909946       13.4143278532
H         18.8883972660       30.0553875724       12.8987033218
H         17.0168224003       25.7896773707       11.1483490570
H         17.8597610182       29.9898055116       10.6432977909
H         22.9380836910       31.6416444847       16.0320819394
H         22.7352144640       30.2323610878       15.0047475336
H         16.9279212490       27.8544224286        9.7573667499
H         21.8903747766       33.0748924058       14.3353485494
H         20.3390538466       34.8604567725       15.4185276530
H         18.0234988582       31.2522680718       14.8757014493
H         24.0518955935       32.8202912082       13.3966878504
H         23.8756202818       31.0581943065       13.2199233914
H         19.2086194602       35.8741245326       13.4496474595
H         20.7926565344       31.4276865250       11.1241247602
H         20.7857879240       33.0661930776       11.8476295600
H         23.1486765101       31.3954857687       11.0584842583
H         23.0389291149       33.1550721086       11.2924279745
H         17.5134956015       34.5889949530       12.1842640956
H         15.4513160294       31.6583818649       11.1778541288
H         15.5523292296       33.3713389708       11.6451212059
H         16.9047025041       32.5992373328       10.7686717467
    81
VM2 Rank=11     G=217.429           E=123.530           -TS=93.899              
C         19.2339377403       27.4760478452        5.1075693975
C         18.9778782216       26.3944386312        5.9661894458
C         19.9099316933       28.6055523290        5.5924769668
C         19.3999522496       26.4476178321        7.3056506180
F         20.1562601725       29.6449404542        4.7685971427
C         20.3321528540       28.6610628112        6.9293922798
C         20.0815044237       27.5791936443        7.7951511367
N         20.4998202943       27.6349362149        9.1521971508
C         20.2223609130       28.7968897898        9.9869501072
C         21.1563867681       26.6390009514        9.8507225637
C         20.6798361697       28.3422987709       11.3839079366
O         21.3341555717       27.0780914168       11.1282662667
O         21.5322030109       25.5620755819        9.4198192449
C         19.5125216243       28.1647726882       12.3730151949
N         19.7633090416       28.6071693963       13.6526428080
O         18.4347480896       27.6917304786       12.0532195571
C         18.7866308900       28.6328962241       14.7511973517
C         19.4197629973       28.0300956152       16.0281594232
C         18.1962487032       30.0589266251       14.9725978938
C         19.9031470773       26.6018800684       15.8151162071
C         19.1997494973       31.1208821021       15.5134433451
O         17.6032843420       30.5119592712       13.7595965503
C         18.9815246693       25.5405016408       15.7635481048
C         21.2750506513       26.3353167569       15.6508045595
N         20.3867415909       31.3642362350       14.6464864355
C         19.4267411547       24.2253135275       15.5486983203
C         21.7215774083       25.0212427838       15.4345155675
S         20.2264316479       32.2934887174       13.2083327416
C         21.6983608069       31.3149606325       15.3445808923
C         20.7970372684       23.9654646354       15.3836635686
O         19.8945042594       31.3614939649       12.1227764391
O         21.4419543989       33.1143828645       13.1433559898
C         18.9184297886       33.5014491860       13.5315388820
C         22.8417819081       30.7186263653       14.4856668936
C         17.7229024686       33.4833476561       12.7875042774
C         19.1026652393       34.4871506931       14.5212496294
O         22.5085569771       29.3819060554       14.0828945164
C         24.1593563554       30.5162494678       15.2517283413
C         16.7171176749       34.4287881541       13.0444690405
C         18.1003998203       35.4337255045       14.7819846798
C         23.7069050605       28.6982467043       13.6808101784
C         24.7754690971       29.2447156686       14.6432242356
C         16.9023558954       35.4019495984       14.0405538476
O         18.3410902806       36.3658053246       15.7697662391
C         17.3932632327       37.3861791207       16.1389680316
H         18.9103826089       27.4416204926        4.0711668414
H         18.4527610680       25.5174016398        5.5953798475
H         19.1932724749       25.6073163712        7.9640264006
H         20.8570848174       29.5426292650        7.2842210039
H         19.1534368115       29.0472517145        9.9672875998
H         20.8116248842       29.6608322853        9.6554005893
H         21.3852699107       29.0714296119       11.7990922361
H         20.6915472169       28.9781532231       13.8391471082
H         17.9438874563       27.9834811556       14.4747454702
H         20.2603053811       28.6523090569       16.3566735160
H         18.6849776151       28.0504016151       16.8427661821
H         17.4025067305       29.9647721322       15.7260867650
H         18.6551255262       32.0559464429       15.6898055625
H         19.5206369072       30.7850033271       16.5065997285
H         18.2518308608       30.2889823716       13.0543460873
H         17.9194571992       25.7364382940       15.8840301304
H         21.9946540553       27.1485266823       15.6851770871
H         18.7099502960       23.4090280841       15.5073662058
H         22.7823770936       24.8221445623       15.3051983636
H         21.6202742904       30.6955682642       16.2465659795
H         21.9837411818       32.3237308316       15.6705504680
H         21.1415876586       22.9481539434       15.2154526404
H         23.0374940618       31.3322929795       13.5969574824
H         17.5710184928       32.7321852890       12.0158675963
H         20.0262251607       34.5170724256       15.0930756670
H         24.8203227666       31.3856387910       15.1414605234
H         23.9677769012       30.3655373423       16.3222456922
H         15.7927740765       34.4065270316       12.4722020575
H         23.6015484347       27.6077394243       13.7578120912
H         23.9631875344       28.9645487675       12.6463190016
H         25.0024491318       28.5096106847       15.4266263260
H         25.7050843885       29.4660424343       14.1025203273
H         16.1128186209       36.1235265394       14.2251498057
H         17.8040145273       38.0065324014       16.9455655180
H         17.1720061543       38.0375362527       15.2835380355
H         16.4576247151       36.9356059703       16.4947154764
    81
VM2 Rank=12     G=217.438           E=124.448           -TS=92.990              
C         18.1949843004       26.1750419571        6.1598087969
C         19.0674072856       25.0894081681        6.3415563039
C         18.2666530772       27.2783136263        7.0230720938
C         20.0063128027       25.1119431548        7.3870520908
F         17.4239999389       28.3181255816        6.8547446213
C         19.2052686890       27.3043756876        8.0651444009
C         20.0802014176       26.2178854203        8.2561023008
N         21.0253412306       26.2361459832        9.3169369285
C         21.9004257190       27.3805003727        9.5427927580
C         21.2456769438       25.2248247387       10.2317096904
C         22.6390301262       27.0159881916       10.8427260599
O         22.2236484920       25.6455694261       11.0832197651
O         20.6851239826       24.1440715214       10.2884439178
C         22.2555539610       27.9626714343       11.9978232557
N         21.5140498701       27.4022003141       13.0137193536
O         22.5235536921       29.1526338618       11.9868576723
C         20.6750532618       28.1877285253       13.9265058452
C         19.3501327802       27.4357734275       14.2051279488
C         21.4647801261       28.5767815445       15.2114352712
C         18.5410203424       27.2200455568       12.9337871589
C         20.7324389783       29.6400504374       16.0666573522
O         21.7156489683       27.4253563182       16.0217285510
C         17.7841490978       28.2769683287       12.3964303062
C         18.5540097465       25.9752233994       12.2782888564
N         20.3196260234       30.8467837177       15.3066081506
C         17.0467945711       28.0920822741       11.2150430625
C         17.8172944511       25.7892301582       11.0967448493
S         18.9523372075       31.6682482313       15.9246890737
C         21.3993651992       31.6002934699       14.6099722507
C         17.0614870268       26.8468968733       10.5662998698
O         17.8503789653       30.7361045017       15.6566980481
O         19.2712422458       32.1240627710       17.2823974169
C         18.6977493861       33.0660033390       14.8037761854
C         22.4151267389       32.2773065240       15.5581220346
C         18.2016343012       32.8441898541       13.5037459333
C         19.0046196208       34.3774179990       15.2170365266
O         21.8081756103       33.3852462345       16.2365617248
C         23.5894131411       32.9460611900       14.8265500380
C         18.0177790547       33.9228780522       12.6245169033
C         18.8272755765       35.4599416949       14.3333244871
C         22.8418801004       34.2341663582       16.7628340491
C         23.9576657584       34.1521554564       15.7060690222
C         18.3313251868       35.2268593403       13.0408985251
O         19.1248148119       36.7602545979       14.6841846704
C         19.7655501927       37.1131903849       15.9252558791
H         17.4648252232       26.1628209660        5.3556753710
H         19.0153035308       24.2316847119        5.6752633938
H         20.6765913660       24.2664539848        7.5211740054
H         19.2341968291       28.1614220394        8.7309033954
H         21.3214163694       28.3057107237        9.6589683481
H         22.6068905054       27.4863666084        8.7098992023
H         23.7257763882       27.0750026064       10.7064865645
H         21.3636014362       26.4032114036       12.9619357432
H         20.4098754338       29.1167375606       13.4039411731
H         19.5646776453       26.4759428735       14.6921571929
H         18.7422509941       28.0067388190       14.9169428496
H         22.4260838991       28.9996867264       14.8900862104
H         19.8451230391       29.1637854406       16.5040969468
H         21.3716102003       29.9317905068       16.9095437176
H         22.3781830183       27.6809186483       16.6960496072
H         17.7687027710       29.2418410192       12.8965230561
H         19.1380819319       25.1518723514       12.6807716615
H         16.4645376196       28.9124077886       10.8030305742
H         17.8364955441       24.8270117878       10.5906783923
H         21.9564591248       30.9212943125       13.9530278416
H         20.9781846063       32.3648781986       13.9468446564
H         16.4930996399       26.7035291034        9.6506828766
H         22.8081467745       31.5582356989       16.2892947102
H         17.9622851264       31.8351729625       13.1764408107
H         19.3870036935       34.5400273496       16.2198654135
H         23.2771813597       33.2887863216       13.8310284092
H         24.4318338568       32.2533234262       14.7023589105
H         17.6354656300       33.7490712087       11.6214676875
H         22.4907314788       35.2637392812       16.9091930168
H         23.2031082333       33.8361159792       17.7209238057
H         23.9981066903       35.0729045645       15.1092139999
H         24.9341187813       34.0141272861       16.1888860709
H         18.1926567880       36.0619471033       12.3598544703
H         19.9265175441       38.1977081148       15.9701225155
H         19.1423099060       36.8231599086       16.7809790038
H         20.7404011891       36.6163935319       16.0098072970
    81
VM2 Rank=13     G=217.442           E=124.062           -TS=93.381              
C         18.1051894653       26.6044516375        6.0409503707
C         18.2246355785       27.6776138748        6.9386776017
C         18.8953631151       25.4589295348        6.2163304511
C         19.1336422590       27.5997515380        8.0073960322
F         18.7830963754       24.4282773353        5.3531766089
C         19.8027896567       25.3786691820        7.2832929464
C         19.9262177729       26.4488884084        8.1902324962
N         20.8428747866       26.3711066848        9.2750520085
C         21.7376493139       27.4763076405        9.5994909993
C         21.0248319494       25.2911633994       10.1180087253
C         22.5159099530       26.9667645737       10.8249615740
O         22.0017988178       25.6220165997       11.0095603077
O         20.4344475470       24.2251866960       10.0931736749
C         22.2974940085       27.8634368878       12.0587188715
N         21.4470059323       27.3614561806       13.0191504699
O         22.7701354260       28.9839391399       12.1501193721
C         20.6643382625       28.2282439754       13.9090250113
C         19.2898630108       27.5741688374       14.1961377159
C         21.4786248673       28.5782527202       15.1882906570
C         18.5052442354       27.3179849360       12.9166032960
C         20.7758042916       29.6089895930       16.1029110110
O         21.7473934956       27.3955998190       15.9385667438
C         18.4303547896       26.0237900166       12.3695212974
C         17.8649001370       28.3845951963       12.2600343205
N         20.3429284958       30.8451601500       15.4028216159
C         17.7204547899       25.7987191219       11.1784642819
C         17.1550205415       28.1604038374       11.0687663388
S         19.0482796869       31.6794724616       16.1488133911
C         21.4001574995       31.6028405069       14.6762615640
C         17.0816452820       26.8664673041       10.5285432453
O         17.9013984148       30.7933526499       15.9156832885
O         19.4692847714       32.0599533464       17.5020719778
C         18.7590684125       33.1355257405       15.1139017516
C         22.4648288123       32.2470061219       15.5928514030
C         18.2269748103       32.9845909407       13.8182804549
C         19.0671168835       34.4248063685       15.5898905990
O         21.9049901884       33.3688397059       16.2875502091
C         23.6290639929       32.8890238189       14.8233275845
C         18.0166276327       34.1101981297       13.0059247282
C         18.8623412022       35.5524216470       14.7806098598
C         22.9648281810       34.2136245925       16.7670615791
C         24.0668971475       34.0719722138       15.7015265663
C         18.3348406846       35.3925422941       13.4834261820
O         19.1947522002       36.7850586123       15.3029679238
C         19.0648953232       38.0154360289       14.5648728918
H         17.4044080056       26.6579708267        5.2127426634
H         17.6124539319       28.5667831995        6.8089041995
H         19.2064440466       28.4321553542        8.7019362932
H         20.4068610083       24.4838333013        7.4004974816
H         21.1673996801       28.3818425957        9.8436279345
H         22.4158789584       27.6782237476        8.7608413173
H         23.5920625949       26.9401742262       10.6141389939
H         21.1010806827       26.4258267498       12.8462961837
H         20.4702327133       29.1654074003       13.3692100469
H         19.4306144112       26.6389183529       14.7527009066
H         18.6968133636       28.2275172144       14.8474544039
H         22.4353229104       29.0097949675       14.8648168474
H         19.9029504923       29.1175466611       16.5523938085
H         21.4460394817       29.8639818196       16.9336854065
H         22.1044118870       26.7530687162       15.2890912419
H         18.9244682336       25.1914569173       12.8635498519
H         17.9193044437       29.3879022087       12.6740765271
H         17.6709697986       24.7978339128       10.7565286424
H         16.6630685287       28.9882862928       10.5645835641
H         21.9196318214       30.9359976125       13.9773265667
H         20.9573606741       32.3888085031       14.0532366282
H         16.5361879598       26.6922116550        9.6043937546
H         22.8626730315       31.5169859269       16.3105723314
H         17.9817032804       31.9939885587       13.4424024071
H         19.4783245977       34.5537989032       16.5874773151
H         23.2863074147       33.2548605431       13.8462397802
H         24.4448869915       32.1739897597       14.6553996082
H         17.6082386583       33.9892927086       12.0053706675
H         22.6330178678       35.2548342690       16.8760094637
H         23.3299937146       33.8467657755       17.7359574061
H         24.1582733013       34.9902336571       15.1064923016
H         25.0358594975       33.8767384586       16.1796861435
H         18.1670266941       36.2505711379       12.8402179950
H         19.3955021723       38.8604063468       15.1819884960
H         19.6826223479       37.9898976047       13.6578274323
H         18.0191824823       38.1875462344       14.2789157942
    81
VM2 Rank=14     G=217.462           E=124.268           -TS=93.194              
C         18.0161782644       24.8474802021        6.5004399494
C         18.8068212926       25.9622521104        6.1794209622
C         18.2486059088       24.1518807517        7.6953631238
C         19.8240926765       26.3772974662        7.0557172391
F         17.4846082559       23.0857562815        8.0104040773
C         19.2640811499       24.5637414746        8.5710109337
C         20.0618105313       25.6827970773        8.2597536550
N         21.0777987186       26.1195722821        9.1582427085
C         21.2927730988       27.5361936823        9.4361182619
C         21.9224354143       25.3148687088        9.9025082455
C         22.4620369095       27.5346844358       10.4367483860
O         22.6892044388       26.1270366691       10.6839569387
O         21.9859018783       24.0975095722        9.8915209272
C         22.1654947887       28.3212642809       11.7244519364
N         21.1813598871       27.7932955718       12.5330985007
O         22.7048372333       29.3832862004       11.9863881792
C         20.4033753746       28.6221172804       13.4637114559
C         18.9599997953       28.0697035359       13.5825959041
C         21.1407084634       28.7546791531       14.8282094662
C         18.2999269653       27.8648366827       12.2242276908
C         20.4315680777       29.7029348704       15.8232927541
O         21.2888738867       27.4717777542       15.4332907031
C         17.9243636900       26.5755033631       11.8045027550
C         18.0765138212       28.9612606994       11.3704257095
N         20.1351527283       31.0512659174       15.2752752390
C         17.3310289531       26.3849440595       10.5460016871
C         17.4973190804       28.7689781386       10.1050126051
S         18.8764786797       31.8895217062       16.0757005701
C         21.2866176247       31.8084204663       14.7075633697
C         17.1258473974       27.4797135203        9.6916160767
O         17.6778949652       31.1175862597       15.7257781298
O         19.2810007136       32.0972161822       17.4706997052
C         18.7254278069       33.4585258225       15.1875270513
C         22.3592519889       32.2103501339       15.7456018525
C         18.1799194228       33.4818753369       13.8886628989
C         19.1636294256       34.6589961098       15.7802626501
O         21.8857033734       33.2892762732       16.5629044300
C         23.6261414568       32.8120729611       15.1183765438
C         18.0766197611       34.6940428828       13.1882345846
C         19.0679611290       35.8747727144       15.0754285472
C         23.0071802590       33.9170750421       17.2070964436
C         24.1350045204       33.8170634750       16.1644461478
C         18.5211100932       35.8863141205       13.7825326809
O         19.4960952348       37.0742600717       15.6049136874
C         20.2072448644       37.1729986996       16.8539646358
H         17.2265175978       24.5231499273        5.8287891548
H         18.6315230162       26.5049173522        5.2536335983
H         20.4275442454       27.2402821392        6.7894048266
H         19.4146024186       24.0173054529        9.4970401124
H         20.3855397235       27.9769094109        9.8701380673
H         21.5710335082       28.0809547378        8.5259913112
H         23.3494006780       27.9793319557        9.9690273687
H         20.7777199192       26.9152643202       12.2347867662
H         20.3306898922       29.6268374797       13.0256577493
H         18.9728725895       27.1264990071       14.1431489520
H         18.3482506147       28.7640868818       14.1717102681
H         22.1413332779       29.1601243296       14.6271701558
H         19.4957896461       29.2205722517       16.1352530607
H         21.0468708402       29.7938742916       16.7275512826
H         21.6494483523       26.8940420003       14.7273158606
H         18.0878331977       25.7197758698       12.4540582534
H         18.3591221211       29.9623226646       11.6844173149
H         17.0341104786       25.3879460405       10.2311516790
H         17.3347018445       29.6184922713        9.4465777785
H         21.7798922977       31.2052824026       13.9355985340
H         20.9438873210       32.7140036439       14.1931500098
H         16.6769791880       27.3290274143        8.7129577644
H         22.6395774860       31.3544648634       16.3742307895
H         17.8392866863       32.5592608527       13.4239886746
H         19.5831860211       34.6322641216       16.7810497430
H         23.3803427376       33.3348311846       14.1843942233
H         24.3704933569       32.0374000932       14.8927258511
H         17.6555478130       34.7097851952       12.1857722164
H         22.7915031639       34.9586323894       17.4782793486
H         23.2822903968       33.3577909233       18.1117347343
H         24.3314327270       34.7947860812       15.7049911363
H         25.0628367928       33.4684195675       16.6369089684
H         18.4452275634       36.8243132922       13.2395503351
H         21.1320029997       36.5830396504       16.8179523738
H         20.4731415969       38.2187271372       17.0535917860
H         19.5867021164       36.8123334034       17.6844155722
    81
VM2 Rank=15     G=217.508           E=122.626           -TS=94.882              
C         18.8270171323       26.8894024330        5.9505607207
C         18.9806235060       25.5884649316        6.4563892702
C         19.2739643167       27.9853958127        6.7027114666
C         19.5770192852       25.3904805819        7.7134529531
F         19.1238533136       29.2363239556        6.2207762603
C         19.8728562391       27.7896878444        7.9558470431
C         20.0229179438       26.4889270766        8.4754832670
N         20.6221370440       26.2882486139        9.7506827825
C         21.8310656219       27.0026128733       10.1465817167
C         20.1876062257       25.4198899952       10.7349274625
C         22.1178183987       26.4783810861       11.5641612478
O         21.0521816833       25.5180983725       11.7846657641
O         19.2154334224       24.6855964582       10.6995212877
C         22.1260288960       27.6110212033       12.6086436943
N         21.0078262599       27.6905306666       13.4084592633
O         23.0156399048       28.4426512675       12.6733892128
C         20.5397032041       28.9559566392       13.9867607555
C         18.9902942802       28.9612214828       14.0167809092
C         21.2027974793       29.1994854193       15.3729963281
C         18.3874175066       28.6978533249       12.6424578089
C         20.8691283219       30.5800804445       15.9851997120
O         20.8106690174       28.1805928413       16.2901993269
C         18.5055021593       29.6589565521       11.6222028670
C         17.7268602177       27.4848970930       12.3742136899
N         21.2015193233       31.7379953844       15.1121640864
C         17.9605772534       29.4161624582       10.3508637844
C         17.1840181714       27.2396973366       11.1020490294
S         20.4132928033       33.2050959486       15.5049606666
C         22.6072222356       31.8145562717       14.6290970477
C         17.2984673601       28.2060979244       10.0906000430
O         20.6166934672       33.4521301798       16.9374329387
O         20.8427336988       34.1721035617       14.4867057541
C         18.6942830207       32.8047678070       15.1194107162
C         23.6556727327       32.0266106385       15.7459055248
C         17.7837929430       32.4947149634       16.1483134896
C         18.2694535963       32.7520881790       13.7776788598
O         23.5974446239       33.3740032436       16.2358312738
C         25.1071828474       31.9243204494       15.2547249029
C         16.4650480035       32.1276277030       15.8350849303
C         16.9552757442       32.3777929056       13.4606244612
C         24.8190573481       33.6790924172       16.9314180630
C         25.8913424884       32.8695154088       16.1788016414
C         16.0506527269       32.0650054488       14.4940865598
O         16.6057842030       32.3248329819       12.1286757790
C         15.4701240291       31.5780318191       11.6515056376
H         18.3644600246       27.0497772493        4.9809084560
H         18.6375500889       24.7350242003        5.8764984350
H         19.6915618558       24.3783264457        8.0932350765
H         20.2015300416       28.6542102390        8.5233979578
H         21.6570259613       28.0863019533       10.1571831436
H         22.6578714456       26.7644342770        9.4655739812
H         23.0944662191       25.9802176711       11.5993456358
H         20.3235098094       26.9573147643       13.2677120719
H         20.8585487973       29.7669383629       13.3170790873
H         18.6317042460       28.2147406528       14.7366999134
H         18.6281922459       29.9278570756       14.3823683572
H         22.2907907475       29.1407296251       15.2361455539
H         19.7996593119       30.5843982765       16.2265959252
H         21.3961828522       30.6753146175       16.9433330134
H         20.9577480205       27.3350432173       15.8153037140
H         19.0154778486       30.5981815569       11.8154889128
H         17.6354836233       26.7287664701       13.1492769311
H         18.0511470957       30.1655457661        9.5686720088
H         16.6809298606       26.2976173630       10.8987758328
H         22.8655631034       30.8963498192       14.0873971645
H         22.7088235245       32.6292740613       13.9001927077
H         16.8812731730       28.0145835478        9.1051874842
H         23.5042553868       31.3169107396       16.5702177973
H         18.1014565683       32.5285037996       17.1880428782
H         18.9655823603       32.9833951931       12.9760236037
H         25.1830533223       32.2681805320       14.2145064769
H         25.4795432400       30.8928019972       15.3041476629
H         15.7648179167       31.8860067580       16.6311941746
H         25.0347166776       34.7557661706       16.9163713284
H         24.7546210176       33.3382151076       17.9737687479
H         26.5495597379       33.5301286159       15.5991588157
H         26.5115632982       32.3076137266       16.8896765177
H         15.0285466049       31.7774098614       14.2693063860
H         15.4330588241       31.6127087227       10.5555118870
H         15.5449606967       30.5265158402       11.9591862065
H         14.5338367548       31.9985465902       12.0394167861
    81
VM2 Rank=16     G=217.518           E=119.868           -TS=97.649              
C         18.7683238451       29.7496025407        7.0586052449
C         19.9304656849       30.4826397459        7.3511193036
C         18.4061858823       28.6640866122        7.8703175812
C         20.7246368544       30.1266507099        8.4546898380
F         17.2877073203       27.9625380753        7.5941449851
C         19.1973360169       28.3072885736        8.9720680316
C         20.3636070817       29.0366584556        9.2700861430
N         21.1684708579       28.6723487709       10.3815521758
C         20.5958200278       28.4873034193       11.7069232938
C         22.5325545288       28.4568510379       10.3669033162
C         21.8090166765       28.0865675649       12.5665758573
O         22.9132410596       28.1247811438       11.6313040341
O         23.2810195345       28.5475371787        9.4092601681
C         21.6394568867       26.6993460070       13.2224856803
N         20.9455666203       26.6080358087       14.4120717093
O         22.0921002195       25.6800447397       12.7343972521
C         20.1624829748       27.6760640532       15.0632736728
C         18.6868001558       27.2270944448       15.2284879924
C         20.8564237955       28.1242100998       16.3841471744
C         17.9752765534       27.0775342994       13.8876410780
C         20.4120701836       29.5319025178       16.8571905077
O         20.6064254461       27.1866736633       17.4306278449
C         17.1683464789       28.1191523826       13.3947800599
C         18.1314318822       25.9083578925       13.1189501311
N         20.6514117412       30.6218965776       15.8672650270
C         16.5525971819       28.0093385310       12.1372275177
C         17.5125632506       25.7944219247       11.8628100634
S         19.6867346515       32.0327322152       16.0588630612
C         22.1005870700       30.8438203637       15.5843639837
C         16.7266887726       26.8477457189       11.3688838315
O         18.4134484538       31.5647364220       16.6197558887
O         20.4748976453       33.0212907723       16.8046208638
C         19.2953005860       32.5615988288       14.3784103264
C         22.4062960278       31.7585990763       14.3735657862
C         19.5767043488       33.8706673961       13.9424855381
C         18.7233799147       31.6400714092       13.4834015217
O         21.7530925714       31.2600874608       13.1978156648
C         23.8845688055       31.7759283941       13.9474063504
C         19.2937003657       34.2453221280       12.6183687067
C         18.4410160683       32.0071067855       12.1611361869
C         22.3566104258       31.8646020196       12.0448455480
C         23.8486141399       31.9020830621       12.4136013055
C         18.7289760396       33.3164384437       11.7269656301
O         17.8911225753       31.0483342885       11.3378870497
C         17.4029227968       31.3369084444       10.0157170736
H         18.1495414566       30.0198458781        6.2077792611
H         20.2152720276       31.3244220336        6.7246132363
H         21.6228955264       30.6983152752        8.6734062183
H         18.9044657445       27.4608705629        9.5846594340
H         19.8363163802       27.6958576379       11.6942185242
H         20.1490474951       29.4243873221       12.0629888735
H         21.9835039695       28.8198363032       13.3594077714
H         20.8695166699       25.6687069602       14.7773463315
H         20.1317371746       28.5541087292       14.4089992761
H         18.6439411705       26.2808573901       15.7825788474
H         18.1495161404       27.9575199141       15.8454323532
H         21.9379290533       28.1485196172       16.2046326894
H         19.3453023417       29.4555859639       17.0978836553
H         20.9270341167       29.7696013991       17.7973991337
H         20.9396962697       26.3215241255       17.1146606848
H         17.0150124180       29.0164773506       13.9857900327
H         18.7438652178       25.0909667335       13.4894956687
H         15.9421950055       28.8255437547       11.7589129265
H         17.6451757335       24.8918028311       11.2717030597
H         22.5832090065       31.2768225505       16.4708649904
H         22.5998774258       29.8909162573       15.3857655257
H         16.2515218631       26.7634814407       10.3945307111
H         22.0847679527       32.7892424332       14.5739067354
H         20.0204783605       34.5912260110       14.6254734156
H         18.5211247288       30.6276553717       13.8110224887
H         24.3895153180       30.8450338969       14.2367582701
H         24.4192966734       32.6138220139       14.4131746984
H         19.5154324011       35.2548646065       12.2808805834
H         22.1699284071       31.2884941869       11.1302149352
H         21.9735398706       32.8859575687       11.9138071279
H         24.3795184484       31.0631660781       11.9440472568
H         24.3120944417       32.8365784415       12.0710482233
H         18.5226079848       33.6218424212       10.7062047715
H         16.6264218099       32.1116382086       10.0507719341
H         18.2199005295       31.6792195757        9.3683935990
H         16.9671744104       30.4328838738        9.5730910698
    81
VM2 Rank=17     G=217.526           E=124.103           -TS=93.423              
C         18.2779318120       26.4337906696        6.1618270083
C         19.1078156367       25.3155470420        6.3440819507
C         18.3685128870       27.5192649825        7.0454031121
C         20.0224862406       25.2874535040        7.4107169120
F         17.5675135866       28.5913441564        6.8760679140
C         19.2832126968       27.4947849206        8.1084975765
C         20.1145131840       26.3745456632        8.3021049963
N         21.0362396776       26.3427353410        9.3843863879
C         21.9054858272       27.4758117358        9.6806011529
C         21.2417286029       25.2888548136       10.2543726256
C         22.6715722045       27.0266159485       10.9368495905
O         22.2060987043       25.6670005924       11.1409694541
O         20.6791754143       24.2076908654       10.2539057474
C         22.3808192705       27.9421890020       12.1415671682
N         21.5125982327       27.4347375439       13.0832310238
O         22.8145554769       29.0788742008       12.2235839795
C         20.6746718658       28.2951949608       13.9280344167
C         19.3263296691       27.5882116119       14.2134564371
C         21.4465421288       28.7239023982       15.2096877563
C         18.5722865923       27.2627844961       12.9313037165
C         20.6702444909       29.7294052440       16.0925681509
O         21.7760788079       27.5773495350       15.9908052396
C         17.9022782190       28.2832608873       12.2321417151
C         18.5519689778       25.9496961291       12.4262256459
N         20.1446310365       30.9044355001       15.3530250881
C         17.2151041506       27.9940310014       11.0415434802
C         17.8652896302       25.6597408575       11.2355698619
S         18.8018762340       31.6743313489       16.0817674548
C         21.1415843126       31.7364676985       14.6228292897
C         17.1945915457       26.6810581594       10.5444433761
O         17.7201994538       30.6862304163       15.9981172903
O         19.2799560147       32.2184840179       17.3579142183
C         18.3845821312       33.0119413327       14.9372403596
C         22.0371460674       32.6031309808       15.5421069992
C         17.5518304516       32.7665353915       13.8275607602
C         18.9239768386       34.2992617128       15.1318517042
O         22.5263937512       33.7224333078       14.7899614584
C         23.3332515872       31.9314850560       16.0266933806
C         17.2574768806       33.8005671520       12.9245973162
C         18.6432320470       35.3322195078       14.2171618309
C         23.6556671351       34.2925636168       15.4745843214
C         24.3496788585       33.0807404384       16.1224440737
C         17.8037218854       35.0795289965       13.1209058344
O         19.1718152789       36.5988758076       14.3496830489
C         20.2633345031       36.9018914552       15.2406091749
H         17.5666624050       26.4607995290        5.3412949310
H         19.0417813986       24.4716852148        5.6615307792
H         20.6600914505       24.4168278340        7.5428790459
H         19.3263987026       28.3402076516        8.7878150173
H         21.3172921112       28.3809673012        9.8792159518
H         22.5946771585       27.6557010739        8.8458830480
H         23.7534460157       27.0407055257       10.7562838909
H         21.2025987720       26.4845883459       12.9218983525
H         20.4506397327       29.2044127319       13.3530054930
H         19.5005105928       26.6759750541       14.7981102122
H         18.6942559636       28.2309872773       14.8379043516
H         22.3789789386       29.2044785753       14.8867046240
H         19.8364590059       29.1873767420       16.5579811130
H         21.3173187988       30.0591883187       16.9143417824
H         22.1695632582       26.9389805638       15.3585099881
H         17.9156205864       29.3011879320       12.6125026831
H         19.0697496896       25.1526321675       12.9530859168
H         16.7001750761       28.7862455832       10.5039102063
H         17.8580125560       24.6445231231       10.8463232747
H         21.7839824153       31.1105499305       13.9915713303
H         20.6255388338       32.4046288309       13.9230195911
H         16.6662396683       26.4567444585        9.6211598040
H         21.4735537042       32.9791355607       16.4054722547
H         17.1353245306       31.7751255690       13.6647102126
H         19.5676915688       34.4816473674       15.9862467697
H         23.6809014368       31.1871919530       15.2986402642
H         23.1932788344       31.4311803980       16.9931265469
H         16.6128329966       33.6099230318       12.0698349634
H         24.3233001380       34.8249286279       14.7839639516
H         23.3129527667       34.9874024405       16.2534303366
H         25.2752519489       32.8293011201       15.5878023508
H         24.6082580818       33.3008883388       17.1666784104
H         17.5837094869       35.8775474628       12.4171887493
H         20.5581389694       37.9529766808       15.1292451500
H         19.9709123806       36.7381485550       16.2856810759
H         21.1339889248       36.2733338312       15.0110762867
    81
VM2 Rank=18     G=217.531           E=123.555           -TS=93.977              
C         19.9399906829       26.5361777679        5.2131135440
C         21.1826378063       26.2423385413        5.7985527937
C         18.9491451125       27.1823118732        5.9675662832
C         21.4286033754       26.5972443109        7.1359899483
F         17.7546470936       27.4621393871        5.4066317036
C         19.1924697794       27.5379972519        7.3028289009
C         20.4359541901       27.2468285706        7.8947693679
N         20.6881585029       27.6084947598        9.2442172876
C         20.5000438589       28.9747020929        9.7186086238
C         21.1535239396       26.7721716395       10.2409337978
C         20.7071141398       28.8409287430       11.2385280889
O         21.2770428281       27.5182917782       11.3731628146
O         21.4306605527       25.5891609961       10.1410104806
C         19.3985310030       28.9316910169       12.0456316809
N         19.5651009619       29.2764926457       13.3680059170
O         18.2998182757       28.6898965623       11.5731520252
C         18.5187422770       29.1840334268       14.3970197619
C         18.8772980784       28.0732613323       15.4133680854
C         18.2177658517       30.5694654431       15.0402363937
C         19.1183981664       26.7349564591       14.7258287955
C         19.3501066646       31.1502862002       15.9379800614
O         17.8912905068       31.4856244137       14.0004735880
C         20.4295370267       26.2547923167       14.5515321599
C         18.0378782262       25.9944021997       14.2132272569
N         20.6596625800       31.3422795501       15.2541926277
C         20.6597185831       25.0518188990       13.8641984057
C         18.2661457460       24.7887934774       13.5287770014
S         20.8847407972       32.6557709944       14.1672397693
C         21.8317039222       30.7753262863       15.9701552055
C         19.5775773103       24.3187343730       13.3515249712
O         20.5170527666       32.1777832878       12.8276987425
O         22.2375706329       33.1570005152       14.4401917955
C         19.8171116039       33.9909983835       14.7627003616
C         22.9310500293       30.2212728888       15.0299329998
C         20.0769800884       34.5984664874       16.0073931802
C         18.7369672635       34.4447126813       13.9803950845
O         22.3783981867       29.2249288619       14.1567809541
C         24.0428380168       29.4501982678       15.7594397689
C         19.2542807492       35.6365555787       16.4725032196
C         17.9048837800       35.4797199897       14.4497673477
C         23.4469628981       28.4241665147       13.6225429558
C         24.4649653143       28.3487323045       14.7734981776
C         18.1698455070       36.0729084510       15.6941770015
O         16.8232196595       35.9440633893       13.7307083463
C         16.3498656641       35.3090790895       12.5268127231
H         19.7430652517       26.2642739494        4.1800147217
H         21.9532533252       25.7410367185        5.2177870859
H         22.3931178260       26.3673721090        7.5822784103
H         18.4114471995       28.0309718958        7.8740483928
H         19.5008022655       29.3546307105        9.4711831790
H         21.2639257714       29.6298136195        9.2812807157
H         21.3948562510       29.6125132400       11.6074911076
H         20.5202444871       29.4325657322       13.6825221639
H         17.5862794714       28.8705556301       13.9068823299
H         19.7723439626       28.3593381780       15.9775595856
H         18.0672955566       27.9731683833       16.1465516487
H         17.3354647920       30.4456069907       15.6827288485
H         19.0016148749       32.0951714564       16.3715934232
H         19.4658965071       30.4684228450       16.7889035964
H         18.5567458365       31.3115845072       13.2956062697
H         21.2717482648       26.8237645783       14.9344325346
H         17.0222101414       26.3618313933       14.3319987225
H         21.6757735277       24.6930567879       13.7215663806
H         17.4278233005       24.2242177597       13.1286608596
H         21.5115593220       29.9454559195       16.6120309163
H         22.2721269928       31.5382076828       16.6253434596
H         19.7555440609       23.3905316315       12.8143734635
H         23.3871131568       31.0204198161       14.4317079537
H         20.9161607874       34.2626482684       16.6123184768
H         18.5489345877       33.9797382866       13.0179277246
H         23.6601906282       28.9987510870       16.6841826475
H         24.8798823214       30.1102096579       16.0213131107
H         19.4553696994       36.1015808472       17.4346845526
H         23.0986675821       27.4276299683       13.3200552632
H         23.8969667647       28.9274520742       12.7561268763
H         24.4344239217       27.3622555994       15.2546549244
H         25.4831855446       28.5142929415       14.3975666922
H         17.5300362404       36.8733855757       16.0551433466
H         15.4547223394       35.8246216200       12.1566748091
H         17.1156106551       35.3453300034       11.7412958405
H         16.0885622734       34.2602049081       12.7205946765
    81
VM2 Rank=19     G=217.536           E=124.617           -TS=92.919              
C         18.0571209071       26.3883648993        6.0970909588
C         18.1395289796       27.4885831072        6.9659704182
C         18.9156358845       25.2935707713        6.2762356348
C         19.0806207197       27.4887073412        8.0094815111
F         18.8378272641       24.2366426380        5.4415401152
C         19.8553624454       25.2912045069        7.3179752407
C         19.9428337260       26.3897841704        8.1941448106
N         20.8906168184       26.3898400764        9.2534826489
C         21.7664354872       27.5302086459        9.4968320719
C         21.1187439798       25.3601699079       10.1458132026
C         22.5280386953       27.1334372275       10.7739333299
O         22.1041793701       25.7628178254       10.9973697104
O         20.5587727909       24.2783050384       10.1849579680
C         22.1817271512       28.0615959035       11.9554265052
N         21.4657453373       27.4865650827       12.9813541859
O         22.4552945634       29.2503609653       11.9579150227
C         20.6491798209       28.2592235907       13.9249697211
C         19.3215302029       27.5138302838       14.2080677455
C         21.4633486042       28.6135665185       15.2045181038
C         18.4974164289       27.3225376041       12.9424233894
C         20.7534884929       29.6622042849       16.0959402974
O         21.7191901019       27.4423190338       15.9842566344
C         18.4892692445       26.0852245551       12.2727846799
C         17.7502722869       28.3952056194       12.4229661396
N         20.3366885675       30.8891403590       15.3711619196
C         17.7417570001       25.9224934765       11.0946368218
C         17.0022528647       28.2335841846       11.2448758373
S         18.9918782938       31.7100143574       16.0375217129
C         21.4090649661       31.6480757762       14.6689361996
C         16.9968338110       26.9960983973       10.5813197937
O         17.8748521274       30.7944424234       15.7747861859
O         19.3456656178       32.1331959834       17.3971490489
C         18.7262737158       33.1339546974       14.9527409072
C         22.4515673102       32.2932806573       15.6102311396
C         18.1984467659       32.9449896482       13.6600381628
C         19.0560714490       34.4330910259       15.3865921031
O         21.8711491680       33.3928166929       16.3245976306
C         23.6181053555       32.9650003282       14.8690568153
C         18.0058135165       34.0440683948       12.8083674866
C         18.8699693415       35.5360199006       14.5303457307
C         22.9248833666       34.2188665375       16.8475482239
C         24.0180698628       34.1474273557       15.7666675995
C         18.3423007328       35.3356481917       13.2450128832
O         19.1890382058       36.8254653694       14.9017787462
C         19.8631386580       37.1450566450       16.1341850059
H         17.3316958095       26.3815924944        5.2886356373
H         17.4737820949       28.3380130984        6.8337401786
H         19.1248819941       28.3397509180        8.6838446572
H         20.5119752719       24.4348808910        7.4406345321
H         21.1859263944       28.4491934555        9.6491077498
H         22.4582639175       27.6628461017        8.6555333424
H         23.6120854838       27.1829779960       10.6144023418
H         21.3085704079       26.4894323101       12.9148941445
H         20.3840519531       29.2017843153       13.4272846184
H         19.5339462669       26.5453757375       14.6786680651
H         18.7263243670       28.0794628099       14.9347592837
H         22.4222273583       29.0367098340       14.8762864239
H         19.8701872283       29.1822128423       16.5374664366
H         21.4090781140       29.9300194741       16.9341643551
H         22.3948492702       27.6778117904       16.6528448125
H         19.0660102503       25.2499697395       12.6610774183
H         17.7513751862       29.3544946917       12.9338919526
H         17.7446561048       24.9660616741       10.5774032648
H         16.4275882584       29.0661043161       10.8470039092
H         21.9451944541       30.9790768196       13.9848119725
H         20.9816909471       32.4317600178       14.0325964751
H         16.4209203423       26.8702706696        9.6678809947
H         22.8513347833       31.5543293266       16.3175354917
H         17.9412238353       31.9456223584       13.3170298217
H         19.4627913930       34.5703616529       16.3836180529
H         23.2893614749       33.3328613114       13.8879250801
H         24.4498542661       32.2659869243       14.7123590805
H         17.5989579786       33.8956260386       11.8109158536
H         22.5884868007       35.2488310132       17.0229407417
H         23.3008702182       33.7963822931       17.7893575787
H         24.0572267042       35.0804619499       15.1891201405
H         25.0023839408       33.9879307119       16.2263544178
H         18.1968587157       36.1864884001       12.5852099441
H         20.8344707544       36.6368260091       16.1843725538
H         20.0365297639       38.2266876840       16.1983108815
H         19.2576770257       36.8428285899       16.9984090919
    81
VM2 Rank=20     G=217.538           E=124.007           -TS=93.531              
C         18.0675432679       27.1667125338        6.1235225962
C         18.2481074806       28.1894424893        7.0686400345
C         18.7902146920       25.9707899084        6.2453672556
C         19.1503617071       28.0109675643        8.1309864357
F         18.6193094480       24.9884940959        5.3366464833
C         19.6907522794       25.7900871703        7.3058648324
C         19.8750573358       26.8091615810        8.2601830986
N         20.7848858443       26.6296058162        9.3387632113
C         21.7392225623       27.6670431133        9.7133803820
C         20.9060420439       25.5027555442       10.1297532906
C         22.4875642656       27.0578045451       10.9116564290
O         21.8985825538       25.7369729568       11.0346573109
O         20.2581932066       24.4730726512       10.0554292320
C         22.3201543469       27.9070004756       12.1862564866
N         21.4441902715       27.4089091319       13.1256119084
O         22.8531456009       28.9948373076       12.3269975349
C         20.7056944182       28.2775887696       14.0506585318
C         19.2983485092       27.6849413497       14.3102011187
C         21.5341313651       28.5328035804       15.3433825861
C         18.5043674206       27.5235835748       13.0208897985
C         20.8842404657       29.5616018965       16.2987265255
O         21.7389625281       27.3084226147       16.0453097037
C         18.3537278142       26.2572291462       12.4263796526
C         17.9318139984       28.6500935968       12.4028471738
N         20.5074557019       30.8410559697       15.6452646901
C         17.6356493634       26.1191890294       11.2269516317
C         17.2139963237       28.5130762083       11.2032436556
S         19.2541356083       31.7093800666       16.4212591496
C         21.5966246439       31.5762842896       14.9435373108
C         17.0646617588       27.2465809712       10.6157649093
O         18.0774749093       30.8570616861       16.2116459279
O         19.7115405043       32.0766566068       17.7662197049
C         18.9830557777       33.1661291655       15.3836534991
C         22.6719941569       32.1649359358       15.8842653064
C         19.3132898149       34.4537393490       15.8483097785
C         18.4421931138       33.0133428811       14.0920097932
O         22.1624341881       33.3281404249       16.5499244601
C         23.8947019939       32.7267890683       15.1435809853
C         19.1122871280       35.5735424931       15.0253165523
C         18.2403207038       34.1287607093       13.2656942562
C         23.2600968316       34.1048637401       17.0591984623
C         24.3836398213       33.8831128165       16.0301779414
C         18.5778433056       35.4138248015       13.7357523586
O         17.7148895930       33.9076707208       12.0097818987
C         17.4731013319       34.9629416529       11.0593361153
H         17.3715912701       27.2980023456        5.2999341481
H         17.6883641615       29.1174166572        6.9804200054
H         19.2705102488       28.8055907020        8.8622272004
H         20.2421200330       24.8575199851        7.3811589277
H         21.2196983631       28.5900123600       10.0015031115
H         22.4279632660       27.8709186967        8.8838199766
H         23.5604792976       26.9805263997       10.6968584637
H         21.0480945238       26.5021315371       12.9114058478
H         20.5616752903       29.2446744829       13.5493657419
H         19.3889833064       26.7213351812       14.8274100478
H         18.7388628419       28.3406949483       14.9882508745
H         22.5128271434       28.9263517866       15.0377478688
H         19.9908553782       29.0950412629       16.7342049952
H         21.5687397678       29.7541154580       17.1346024914
H         22.0629239750       26.6747210340       15.3703063592
H         18.7952494731       25.3790913295       12.8899680134
H         18.0451741649       29.6324915256       12.8529219235
H         17.5275991667       25.1392654080       10.7683622806
H         16.7750118679       29.3873213480       10.7292080969
H         22.0998264074       30.9069630746       14.2352456856
H         21.1867341104       32.3903528378       14.3338920239
H         16.5131704766       27.1395504908        9.6849939718
H         23.0041975540       31.4208389186       16.6206587602
H         19.7339600306       34.5839194470       16.8428884789
H         18.1818694554       32.0244660073       13.7253034382
H         23.6011605844       33.1093285363       14.1568831891
H         24.6671651376       31.9602990437       14.9992234077
H         19.3734758211       36.5655947006       15.3858584860
H         22.9951244468       35.1664253624       17.1526609258
H         23.5693605015       33.7214181098       18.0410744782
H         24.5562651878       34.7892587755       15.4346131627
H         25.3212594679       33.6256021195       16.5403005524
H         18.4313911859       36.2912472912       13.1138228803
H         16.7562401022       35.6903025954       11.4618102685
H         18.4074981025       35.4832391754       10.8120662618
H         17.0565021081       34.5464560063       10.1335382007
    81
VM2 Rank=21     G=217.570           E=121.540           -TS=96.030              
C         19.0999828544       28.7410347649        6.4333548156
C         19.4606181864       29.5592678180        7.5157885613
C         19.3294624251       27.3590635603        6.4992730774
C         20.0474292510       28.9909986785        8.6589728827
F         18.9875667663       26.5723936656        5.4580407412
C         19.9141432976       26.7895403586        7.6403413143
C         20.2732006950       27.6013383501        8.7342255538
N         20.8640788159       27.0298564025        9.8968492178
C         21.9899833066       27.6677797515       10.5698542662
C         20.4972858557       25.8462780378       10.5118689767
C         22.3386193523       26.6894641085       11.7039978293
O         21.3241693443       25.6603285257       11.5801709161
O         19.6045530962       25.0848618138       10.1820459264
C         22.3378665650       27.3815951258       13.0782413622
N         21.2244489171       27.1604877396       13.8598148791
O         23.2071793129       28.1684729196       13.4124713340
C         20.6503877167       28.2365473991       14.6764600253
C         19.1100298749       28.0938744780       14.7286592679
C         21.3281139712       28.3041541498       16.0774714074
C         18.4887045207       28.1008626332       13.3374215834
C         20.9498471572       29.5697393795       16.8919970351
O         21.0052246575       27.1398725977       16.8355219032
C         17.9212870879       26.9299322595       12.8023370613
C         18.4936235567       29.2780084465       12.5674246002
N         20.9956152040       30.8450108969       16.1211468645
C         17.3601483027       26.9393114694       11.5143545195
C         17.9306442779       29.2894353220       11.2815535964
S         20.1948180773       32.1922197633       16.8234710858
C         22.3058606022       31.1201098381       15.4607187296
C         17.3655740246       28.1185850617       10.7527558886
O         19.1254724882       31.6211163019       17.6518393853
O         21.2197050688       33.0282027390       17.4606484157
C         19.3647034945       33.0191077968       15.4489784727
C         22.2053669444       32.0429483418       14.2238636683
C         19.7188187611       34.3311797009       15.0785286931
C         18.3646702654       32.3406405361       14.7274245004
O         21.1683069783       31.5768621428       13.3465657408
C         23.4413268211       32.0200816672       13.3102883621
C         19.0946222978       34.9456649294       13.9809589565
C         17.7450653526       32.9468601915       13.6248167127
C         21.3498629094       32.1611414891       12.0480652811
C         22.8794658289       32.2423430869       11.8953883633
C         18.1131297846       34.2546399718       13.2506827085
O         16.7931582301       32.2171415952       12.9449796518
C         16.1918577012       32.6586441940       11.7133658656
H         18.6461727167       29.1735914815        5.5463284858
H         19.2845547302       30.6312274505        7.4701235318
H         20.3123786894       29.6361182793        9.4915589992
H         20.0861361452       25.7177394930        7.6674412127
H         21.6936508063       28.6441676432       10.9755376230
H         22.8351816650       27.7902212013        9.8808260894
H         23.3349680443       26.2599773565       11.5422694370
H         20.5763866265       26.4764861196       13.4883183922
H         20.8658717867       29.1772268326       14.1544324084
H         18.8403585255       27.1740062724       15.2625958724
H         18.6854309063       28.9179735720       15.3138770334
H         22.4144384185       28.3176455049       15.9204762548
H         19.9364448131       29.4026534486       17.2780533458
H         21.6134376940       29.6389731221       17.7637122173
H         21.1886743649       26.3841705960       16.2373130361
H         17.9160502489       26.0106444006       13.3817107852
H         18.9344367030       30.1865604500       12.9650334847
H         16.9298194130       26.0296671054       11.1029874777
H         17.9351856041       30.2045132947       10.6955806812
H         23.0065746493       31.5610100446       16.1820423629
H         22.7656131199       30.1916443368       15.1094848635
H         16.9374014783       28.1238218088        9.7535921998
H         22.0049775614       33.0777427602       14.5278924702
H         20.4844946190       34.8683069592       15.6334640915
H         18.0807415587       31.3314105712       15.0106098126
H         23.9435328479       31.0445264888       13.3615200466
H         24.1650776606       32.7950482209       13.5934403397
H         19.3746031990       35.9560046128       13.6925816426
H         20.8891733943       31.5505932629       11.2605290722
H         20.9144234920       33.1695745063       12.0272696880
H         23.2430620035       31.4681851935       11.2068718717
H         23.1736353178       33.2216897659       11.4957145015
H         17.6447288256       34.7437082734       12.4025755371
H         16.9593614379       32.8237827821       10.9463279846
H         15.4938725782       31.8968524154       11.3438026074
H         15.6336617417       33.5911431796       11.8663702580
    81
VM2 Rank=22     G=217.629           E=126.580           -TS=91.049              
C         22.6079988152       27.0697087485        4.9423573475
C         21.5337415903       26.1686222532        5.0271463876
C         23.0279007731       27.7635951882        6.0871570310
C         20.8849932039       25.9653275576        6.2571894048
F         24.0578083126       28.6310358181        6.0058258211
C         22.3820846209       27.5620269603        7.3163717691
C         21.3050842697       26.6601353837        7.4078510310
N         20.6510166987       26.4493470950        8.6504718577
C         21.3921184647       26.0880658223        9.8526221589
C         19.2908569793       26.5242822582        8.8803340931
C         20.3075536302       26.0889226339       10.9451885947
O         19.0786934496       26.2325827094       10.1945675183
O         18.4201702790       26.7871222863        8.0681585596
C         20.4695550953       27.2542106981       11.9391484778
N         20.2801514399       26.9348136049       13.2673355227
O         20.7216377835       28.3959459897       11.5880008385
C         20.0987132538       27.9530007220       14.3125376646
C         19.2738240817       27.3642146470       15.4848896663
C         21.4746261794       28.5359492954       14.7538197791
C         17.8899920508       26.9146848723       15.0392036022
C         21.3551403510       29.7338778477       15.7254134215
O         22.2695712803       27.5202311489       15.3628610872
C         17.6162001528       25.5525038068       14.8169530154
C         16.8761131864       27.8676721823       14.8327480739
N         20.4628772154       30.8188716274       15.2434723493
C         16.3409557451       25.1478504625       14.3882457531
C         15.6005187138       27.4641253503       14.4046141358
S         19.8029089830       31.8090456703       16.4725771527
C         20.7784923802       31.3976671612       13.9068926528
C         15.3330174514       26.1036922827       14.1813542925
O         18.8617709995       30.9147379146       17.1578773866
O         20.9132942459       32.4557096720       17.1808731946
C         18.7834350198       33.0225458159       15.5992298977
C         22.1313192724       32.1422055452       13.8378900230
C         17.5605845926       32.6285214553       15.0207313640
C         19.2107778504       34.3596462258       15.4799586957
O         22.0577960922       33.3849530081       14.5494487704
C         22.5093509771       32.6003278855       12.4207835082
C         16.7744312806       33.5619702135       14.3270746614
C         18.4267563182       35.2954402642       14.7773068045
C         23.1411371345       34.2302155830       14.1270921621
C         23.3061369489       33.8978427247       12.6333818723
C         17.2093548882       34.8918010393       14.2066397340
O         18.8072126287       36.6117784394       14.6196525515
C         20.0983253201       37.1101721295       15.0197503140
H         23.1136146846       27.2319071018        3.9946997107
H         21.2046130683       25.6289262044        4.1423529607
H         20.0550340014       25.2652660067        6.3152406529
H         22.7162762087       28.1131745873        8.1902071494
H         22.1829467358       26.8182976185       10.0671212924
H         21.8293198266       25.0881008522        9.7384528109
H         20.3196503022       25.1427919289       11.5003636444
H         20.0249058985       25.9804450614       13.4828646530
H         19.5091677592       28.7710925894       13.8760591121
H         19.8188510323       26.5296500097       15.9439101026
H         19.1578664167       28.1180812757       16.2727541896
H         21.9927740862       28.8879035107       13.8519276977
H         20.9843584892       29.3528751864       16.6858532115
H         22.3579081462       30.1341334521       15.9221942402
H         22.2408918803       26.7596687001       14.7449332759
H         18.3908510767       24.8070044454       14.9749077094
H         17.0792359370       28.9217869846       15.0025139327
H         16.1342396993       24.0944109850       14.2165264541
H         14.8208919664       28.2048539672       14.2451905394
H         20.8009317255       30.5984588817       13.1561699265
H         19.9869379130       32.0813670595       13.5786061328
H         14.3461984404       25.7905971044       13.8493710986
H         22.9418698019       31.5224144721       14.2442684998
H         17.2231629111       31.5983922776       15.1080979643
H         20.1541820295       34.6553540511       15.9281112795
H         21.6067849867       32.8065183404       11.8301530415
H         23.0963826291       31.8361826574       11.8948654205
H         15.8311980197       33.2554819298       13.8811374377
H         22.9175481502       35.2926722053       14.2883335519
H         24.0574668743       33.9671413385       14.6729815054
H         22.9091291345       34.7074428186       12.0068326708
H         24.3672472413       33.7623998634       12.3857372525
H         16.6034412526       35.6140060191       13.6665301647
H         20.8981314085       36.5653112643       14.5022076890
H         20.1858499727       38.1740866074       14.7657361599
H         20.2378446411       37.0036349928       16.1032501005
    81
VM2 Rank=23     G=217.633           E=123.743           -TS=93.890              
C         19.9451949405       25.8987120508        5.2672732632
C         21.2356456376       25.8086029814        5.8148728767
C         18.9078952597       26.4727296669        6.0175881163
C         21.4825831188       26.2941549525        7.1104246627
F         17.6678519473       26.5569191384        5.4932005645
C         19.1520394402       26.9585635219        7.3110355136
C         20.4432083330       26.8716808202        7.8649008476
N         20.6959491149       27.3657209177        9.1716120036
C         20.3516492159       28.7303445187        9.5539574680
C         21.3009442477       26.6742087876       10.2037035118
C         20.6316172116       28.7428907962       11.0680171145
O         21.3695404459       27.5156148764       11.2719726462
O         21.7233270811       25.5308797821       10.1772181038
C         19.3537269053       28.7345858101       11.9276470446
N         19.5240090208       29.2064663519       13.2097038873
O         18.2785606118       28.3179538166       11.5284893767
C         18.5353006829       29.0755372458       14.2901830248
C         19.0636300648       28.1015863581       15.3706675348
C         18.0931989434       30.4634693630       14.8398171734
C         19.4274114466       26.7454176501       14.7789704095
C         19.1800974641       31.2441892696       15.6357704477
O         17.6179336579       31.2489815701       13.7515337448
C         18.4183957831       25.8407426662       14.4020444001
C         20.7754829741       26.4084818394       14.5572490817
N         20.4272575222       31.5371881006       14.8757337440
C         18.7534682294       24.6137529269       13.8051123637
C         21.1119723073       25.1842782008       13.9567080410
S         20.4433344281       32.7701481046       13.6767069216
C         21.6883257716       31.1794036248       15.5751889725
C         20.1004545901       24.2865156629       13.5796691516
O         21.7300991449       33.4564416808       13.8475666830
O         20.0944399980       32.1386940345       12.3970305620
C         19.2396053159       34.0128483155       14.2085628787
C         22.8099802111       30.6860144714       14.6276603672
C         18.1085781168       34.3024077126       13.4209659802
C         19.4467271183       34.7218611726       15.4084219434
O         22.3523304200       29.5593445278       13.8648896261
C         24.0383142622       30.1209017843       15.3587844491
C         17.1859864618       35.2742179103       13.8404393655
C         18.5274481890       35.6934178686       15.8321131184
C         23.4910443242       28.8534320544       13.3418347137
C         24.5561524347       29.0005917196       14.4421443128
C         17.3916932650       35.9682603527       15.0443863627
O         18.7851301390       36.3437650492       17.0208509984
C         17.9184642012       37.3550799731       17.5703766263
H         19.7472926788       25.5250043255        4.2666825229
H         22.0424619496       25.3638707486        5.2372036588
H         22.4841518988       26.2218237654        7.5274747437
H         18.3356378691       27.3930850236        7.8802318421
H         19.3031022814       28.9612220955        9.3274658832
H         21.0075676002       29.4400670186        9.0343303892
H         21.2295504424       29.6201545678       11.3461420906
H         20.4622156016       29.5065650511       13.4652376203
H         17.6299695057       28.6156222092       13.8696176387
H         19.9433010872       28.5324576423       15.8626036870
H         18.3032116835       27.9738088274       16.1511418866
H         17.2580048519       30.2885466802       15.5315307032
H         18.7353235383       32.1715446274       16.0155338256
H         19.4130387101       30.6501407129       16.5275459009
H         18.2713575733       31.1014374233       13.0295640590
H         17.3737578165       26.0957821089       14.5582330449
H         21.5618735841       27.1041129020       14.8352523538
H         17.9692871710       23.9213004413       13.5098015320
H         22.1546150780       24.9357858338       13.7761329052
H         21.5003626817       30.3737738580       16.2955132399
H         22.0553397729       32.0427308043       16.1454752419
H         20.3600236618       23.3411469933       13.1099113536
H         23.1375020417       31.4813630342       13.9459789811
H         17.9413101687       33.7684473966       12.4884355885
H         20.3232435210       34.5157918202       16.0167741292
H         23.7527752049       29.7051978279       16.3339952789
H         24.7952430232       30.8980407795       15.5259735640
H         16.3101934637       35.4888025572       13.2327166935
H         23.8385001703       29.3333165974       12.4169178464
H         23.2595547218       27.7998159908       13.1364460851
H         24.6701745931       28.0618312557       15.0000945858
H         25.5291857076       29.2577303197       14.0032862683
H         16.6667170053       36.7150744158       15.3522642035
H         17.8277767290       38.2043367055       16.8808013984
H         16.9186556115       36.9452790581       17.7638625701
H         18.3272497185       37.7253446430       18.5190339117
    81
VM2 Rank=24     G=217.640           E=122.880           -TS=94.761              
C         18.8087245451       27.2547672972        5.8409518923
C         19.2044120537       28.3322687274        6.6495992356
C         19.0254724730       25.9400673772        6.2786399056
C         19.8139503879       28.0895429928        7.8921704491
F         18.6491497516       24.9039258107        5.5010187288
C         19.6327533774       25.6955458160        7.5194700059
C         20.0279363091       26.7701739104        8.3398957303
N         20.6421138130       26.5276939892        9.6007817811
C         21.8154910000       27.2780372023       10.0349253252
C         20.2576677606       25.5822388090       10.5334356492
C         22.1467072653       26.6749300534       11.4108452134
O         21.1224285416       25.6616537044       11.5845581849
O         19.3223946010       24.8043500569       10.4577207917
C         22.1332945528       27.7365377383       12.5271043531
N         21.0207279832       27.7320956730       13.3387255103
O         22.9996329340       28.5875131527       12.6387992017
C         20.5210153169       28.9450675204       13.9974249492
C         18.9723624426       28.9037615273       14.0427364973
C         21.1911696891       29.1239064997       15.3897541193
C         18.3636865101       28.7003808875       12.6615002241
C         20.8316526204       30.4604923370       16.0792738567
O         20.8297736015       28.0468084253       16.2513904059
C         17.7838489485       27.4674772223       12.3102681227
C         18.3989305028       29.7408637964       11.7164163325
N         21.1432404453       31.6714753750       15.2732680809
C         17.2395885409       27.2804598517       11.0288451432
C         17.8516003306       29.5566847891       10.4362978048
S         20.3252587767       33.0974440433       15.7483380770
C         22.5507237712       31.8022296932       14.8064645358
C         17.2716265084       28.3254046875       10.0921076552
O         20.4705258676       33.2249922219       17.2033735141
O         20.7880993125       34.1508413118       14.8358300886
C         18.6263589786       32.7196745212       15.2609246228
C         23.5899686986       31.9510903524       15.9422836610
C         17.6979004442       32.2566609509       16.2137226976
C         18.2342454147       32.8551886843       13.9140063260
O         23.4833972486       33.2455612902       16.5520143690
C         25.0448508625       31.9436330480       15.4504909236
C         16.3925330928       31.9215396246       15.8204283519
C         16.9223250796       32.5274070135       13.5202668451
C         24.6929961734       33.5295082123       17.2768879036
C         25.7939561297       32.8301935455       16.4580356174
C         16.0093912019       32.0545518620       14.4757994551
O         16.4890326015       32.6439975727       12.2161301073
C         17.2430835394       33.3183608224       11.1900777545
H         18.3371210693       27.4352180058        4.8792272025
H         19.0375171005       29.3534930280        6.3157280452
H         20.1050775081       28.9333596988        8.5113091643
H         19.7939662549       24.6697705628        7.8373095249
H         21.5820206755       28.3470369063       10.1218132389
H         22.6460138445       27.1335540524        9.3324479724
H         23.1414172741       26.2127217991       11.3969350376
H         20.3567573399       26.9894158611       13.1566529746
H         20.8086996194       29.8042181437       13.3752680340
H         18.6415635702       28.1082075603       14.7223043849
H         18.5870325435       29.8388232129       14.4640736485
H         22.2789360160       29.0973522613       15.2418915966
H         19.7622857790       30.4323539594       16.3189428483
H         21.3561677553       30.5110511158       17.0422136184
H         20.9946883632       27.2322556092       15.7304298274
H         17.7569225782       26.6514486499       13.0273719564
H         18.8516859109       30.6926690812       11.9758548263
H         16.7989949336       26.3234844861       10.7603169341
H         17.8784437338       30.3658853223        9.7113536187
H         22.8258345956       30.9273016426       14.2046456480
H         22.6447082943       32.6661608748       14.1356354727
H         16.8536499211       28.1789627144        9.0992911743
H         23.4627928439       31.1652870526       16.6988832564
H         17.9917111451       32.1475035764       17.2552954300
H         18.9568483120       33.2076697020       13.1846822606
H         25.4532577589       30.9254422583       15.4103434439
H         25.1101755988       32.3805627560       14.4450847873
H         15.6785861808       31.5579936209       16.5556601047
H         24.8700379382       34.6100885099       17.3603379642
H         24.6403009972       33.0933795278       18.2837920318
H         26.4272814279       33.5637633242       15.9418755843
H         26.4346552196       32.2299456368       17.1175483273
H         14.9994180267       31.7950174281       14.1709244863
H         17.4389385454       34.3598374962       11.4763055245
H         18.2000376333       32.8128546556       11.0108461921
H         16.6770008428       33.3202550727       10.2500941788
    81
VM2 Rank=25     G=217.655           E=123.955           -TS=93.700              
C         19.3133795250       26.9111174291        5.5118360745
C         18.3996285102       27.0053666029        6.5739953417
C         20.6576274112       26.6089495732        5.7749372754
C         18.8356313381       26.7970713439        7.8934522138
F         21.5361728065       26.5167445383        4.7553912922
C         21.0948508921       26.4013255891        7.0920044334
C         20.1844364063       26.4932042021        8.1628730450
N         20.6236346038       26.2949074371        9.5012042894
C         21.8358708269       26.9295668074       10.0061541212
C         19.9820161969       25.5512422921       10.4737923619
C         21.8854542446       26.4973740291       11.4821800444
O         20.7085227412       25.6586700267       11.6223223701
O         18.9570935879       24.9027601188       10.3522068877
C         21.8865476385       27.6946371922       12.4531367378
N         20.8494369864       27.7285364188       13.3586126901
O         22.7129771532       28.5901418981       12.3980694960
C         20.4193826379       28.9578074954       14.0370220013
C         18.8927215930       28.8961799079       14.2953873539
C         21.2659290940       29.1902888434       15.3219609716
C         18.1029159861       28.6757697432       13.0124010081
C         20.9786059924       30.5409084052       16.0180921399
O         21.0441676046       28.1346061973       16.2546308396
C         17.9450610682       29.7290889327       12.0945201738
C         17.5410654419       27.4182542814       12.7246731607
N         21.1467440881       31.7338757371       15.1452832481
C         17.2205544818       29.5344806056       10.9073014712
C         16.8193182632       27.2207690098       11.5358191038
S         20.3949164281       33.1635251921       15.7103490035
C         22.4651804366       31.8674147695       14.4669385165
C         16.6536758412       28.2806300736       10.6297713407
O         20.7699577300       33.3304855506       17.1195919814
O         20.6903110880       34.1968045965       14.7095365664
C         18.6447031645       32.7571053389       15.5136824352
C         23.6626889719       32.0565544805       15.4273300717
C         17.8911608375       32.3017506447       16.6132943233
C         18.0352204990       32.8640846835       14.2475085392
O         23.6388611534       33.3700219487       16.0043862533
C         25.0264516361       32.0380257544       14.7214046283
C         16.5437496588       31.9452314221       16.4450312679
C         16.6811835835       32.5147813514       14.0797035414
C         24.9417233955       33.6816133088       16.5285201778
C         25.9120980067       32.9587866733       15.5758366320
C         15.9437006678       32.0493778755       15.1795086517
O         16.0387601954       32.6027417129       12.8624937562
C         16.6019095858       33.2744199649       11.7188521670
H         18.9837008826       27.0706473209        4.4891786380
H         17.3563831615       27.2394138798        6.3759957507
H         18.1214873094       26.8731618795        8.7080974231
H         22.1386935504       26.1639343663        7.2714705598
H         21.7625854458       28.0209011278        9.9079185343
H         22.7212095715       26.5660945061        9.4703621903
H         22.7909904453       25.9101327115       11.6778331902
H         20.1933446357       26.9589825310       13.2986683386
H         20.6052517205       29.7987188422       13.3542013886
H         18.6691608758       28.1017353337       15.0186247628
H         18.5554520017       29.8294583556       14.7600827586
H         22.3245291090       29.1762844760       15.0304511496
H         19.9551820120       30.5010830387       16.4087065783
H         21.6334820044       30.6287776761       16.8947011530
H         21.1485807350       27.3069064339       15.7390337434
H         18.3844487873       30.6993698080       12.3033381880
H         17.6630489151       26.5926846539       13.4206351092
H         17.0970154629       30.3544731845       10.2047238655
H         16.3900221581       26.2461077334       11.3170558614
H         22.6585322449       30.9801660731       13.8515505113
H         22.4438217626       32.7146044774       13.7690305653
H         16.0905939744       28.1294039436        9.7123083129
H         23.6579109281       31.2954785824       16.2190620724
H         18.3530011379       32.2152065563       17.5942836465
H         18.6234788196       33.2113736854       13.4039109032
H         24.9353666075       32.4428206156       13.7046100856
H         25.4322037637       31.0203734208       14.6514548628
H         15.9649615143       31.5876115304       17.2933098382
H         25.1206238444       34.7649111659       16.5491014175
H         25.0451304398       33.2791387004       17.5454569489
H         26.4552064422       33.6766848356       14.9471055701
H         26.6490644448       32.3818739926       16.1501187311
H         14.9010482943       31.7734317237       15.0487598095
H         15.8899289783       33.2527304329       10.8841982142
H         16.8218903464       34.3232305040       11.9567220895
H         17.5262812203       32.7826693875       11.3914522050
    81
VM2 Rank=26     G=217.666           E=122.790           -TS=94.876              
C         18.9192617240       27.1631066070        5.8147447133
C         19.3773194824       28.2398240268        6.5907907156
C         19.0085374433       25.8564876761        6.3163759538
C         19.9211611595       28.0045220612        7.8648794584
F         18.5726833051       24.8206148938        5.5701072208
C         19.5499975218       25.6195371232        7.5887348041
C         20.0064680872       26.6939936335        8.3771529975
N         20.5546523579       26.4594438358        9.6698845867
C         21.7650229931       27.1383765666       10.1201843151
C         20.0683545378       25.5827038727       10.6221235459
C         22.0093048854       26.5586194657       11.5240602776
O         20.9020609697       25.6370102368       11.6995894340
O         19.0795425365       24.8746177396       10.5414500164
C         22.0530778815       27.6544136338       12.6061430697
N         20.9346144816       27.7457920032       13.4040240524
O         22.9704789416       28.4522121355       12.7017094879
C         20.5004703577       29.0106100495       14.0093512568
C         18.9520523395       29.0727192629       14.0051654988
C         21.1418580630       29.1911015584       15.4150211339
C         18.3738761781       28.8666911365       12.6105478959
C         20.8461701945       30.5664413581       16.0578508977
O         20.6920491107       28.1634041354       16.2951526074
C         18.5638100256       29.8421780202       11.6150949353
C         17.6679723875       27.6904884482       12.2978139682
N         21.2412445244       31.7337387058       15.2242927175
C         18.0468800844       29.6494680499       10.3237324874
C         17.1523663311       27.4956660660       11.0057554254
S         20.4968734364       33.2181381502       15.6371365443
C         22.6599389968       31.7709806089       14.7758596177
C         17.3403234075       28.4755941438       10.0185828611
O         20.6731462485       33.4205841281       17.0801617232
O         20.9861925671       34.1947201771       14.6556929807
C         18.7748370127       32.8911527462       15.1995141747
C         23.6882813230       31.9154749939       15.9217781211
C         17.8277612319       32.5900114569       16.1975720567
C         18.3828097017       32.8865398892       13.8467998206
O         23.6658310069       33.2505401050       16.4471223106
C         25.1466217516       31.7743273409       15.4613856057
C         16.5050328462       32.2793578042       15.8428264015
C         17.0645287512       32.5684048060       13.4881723243
C         24.8804721702       33.4929943614       17.1786310514
C         25.9412861365       32.6661473833       16.4285473152
C         16.1230695110       32.2643079782       14.4908626853
O         16.7474972986       32.5600758048       12.1471204026
C         15.6002086975       31.8638658200       11.6235005299
H         18.4979825052       27.3378241980        4.8289031063
H         19.3097209761       29.2549452517        6.2071292204
H         20.2625896689       28.8487769976        8.4570725392
H         19.6128011196       24.5994059841        7.9555623217
H         21.6052505801       28.2233270826       10.1675243461
H         22.6047004064       26.9136681150        9.4504367057
H         22.9628639116       26.0172271453       11.5536513881
H         20.2273745498       27.0407457804       13.2349469229
H         20.8634398154       29.8279119456       13.3705366604
H         18.5498662595       28.3216228137       14.6966833140
H         18.6169263622       30.0423875439       14.3879042042
H         22.2296076455       29.0948873015       15.2988670007
H         19.7723507344       30.6048388149       16.2758682212
H         21.3544435850       30.6160400699       17.0294788733
H         20.8193696935       27.3258234439       15.8008083524
H         19.1090044160       30.7534878195       11.8428809131
H         17.5210163615       26.9234940771       13.0534105787
H         18.1934483389       30.4097967876        9.5610383324
H         16.6141864789       26.5814540533       10.7680338182
H         22.8977676503       30.8582097634       14.2158708058
H         22.8083508394       32.5999776549       14.0715003931
H         16.9453226471       28.3223718223        9.0174335545
H         23.4922891301       31.1899502039       16.7225865170
H         18.1197888946       32.5869266267       17.2453320552
H         19.1071361496       33.1112387380       13.0685920912
H         25.2593568004       32.1425540671       14.4329158509
H         25.4812172672       30.7292105437       15.4912768737
H         15.7764064240       32.0445141176       16.6151261774
H         25.1340814884       34.5612905449       17.1983724854
H         24.7793066391       33.1267202686       18.2093861280
H         26.6355958488       33.3181732502       15.8822476618
H         26.5246408021       32.0638724184       17.1375714189
H         15.0973300528       32.0199508655       14.2337876709
H         15.6321440364       30.8033096292       11.9066342433
H         14.6687789075       32.3063585446       11.9984285568
H         15.5923820952       31.9261336089       10.5281318568
    81
VM2 Rank=27     G=217.673           E=123.461           -TS=94.212              
C         18.7945795829       26.3077747965        6.0622744929
C         18.8788991488       25.0530779754        6.6872981297
C         19.2925688793       27.4449023425        6.7147788639
C         19.4577272839       24.9424948520        7.9631646900
F         19.2082750446       28.6519533427        6.1185033703
C         19.8740088807       27.3361220525        7.9865644369
C         19.9552061690       26.0829555147        8.6247030781
N         20.5362694947       25.9711444971        9.9186929997
C         21.7856309731       26.6450921840       10.2551052615
C         20.0438539253       25.2325007893       10.9784376759
C         22.0232122541       26.2605878745       11.7255984843
O         20.9060518739       25.3833750132       12.0238670324
O         19.0290813447       24.5578862132       11.0037047765
C         22.0717107294       27.4969795250       12.6437551760
N         20.9428445737       27.7218033315       13.4000550553
O         23.0051603653       28.2817399861       12.6443589275
C         20.5400832547       29.0634915399       13.8390431889
C         18.9932205755       29.1577522863       13.8443692860
C         21.2004258116       29.4107230179       15.2044070236
C         18.3905684399       28.8027772631       12.4910405293
C         20.9386939013       30.8633929889       15.6658556274
O         20.7404801903       28.5150873185       16.2141004596
C         18.5421681487       29.6762910504       11.3988078478
C         17.6960921796       27.5917886839       12.3153438649
N         21.3425075688       31.9031875275       14.6814506900
C         17.9971751209       29.3485868993       10.1465316174
C         17.1536745069       27.2614015529       11.0624538747
S         20.6249666069       33.4411061073       14.9002670618
C         22.7578688732       31.8572837224       14.2230624352
C         17.3017007508       28.1406848253        9.9784120245
O         20.8015483473       33.8159843971       16.3083583841
O         21.1377295194       34.2806609774       13.8099860505
C         18.8974616312       33.0951231057       14.4983156462
C         23.7985431800       32.1314981412       15.3337456839
C         18.4938955035       32.9771115177       13.1541339972
C         17.9540235949       32.8979497183       15.5253582471
O         23.7943584870       33.5213175359       15.6904657331
C         25.2509569679       31.9182293785       14.8824954629
C         17.1626558918       32.6585589914       12.8421508748
C         16.6232425592       32.5757883456       15.2181402391
C         25.0183568319       33.8387812911       16.3762293818
C         26.0636491119       32.9139739189       15.7252731960
C         16.2281218528       32.4548931931       13.8706886753
O         15.7525623470       32.3813593098       16.2698112698
C         14.3741877215       32.0018251044       16.0918391763
H         18.3458782202       26.4008205377        5.0774294417
H         18.4956923870       24.1680224928        6.1851345205
H         19.5182547439       23.9656109968        8.4363496972
H         20.2423578266       28.2318191022        8.4761483570
H         21.6848359925       27.7324721978       10.1447891888
H         22.6010645633       26.2800012129        9.6180132430
H         22.9728220454       25.7223971408       11.8344323354
H         20.2209256059       27.0161008218       13.3207407088
H         20.9112043615       29.7828182200       13.0956020951
H         18.5847223671       28.5028243859       14.6243669062
H         18.6826389076       30.1730059335       14.1131698713
H         22.2848387734       29.2783550281       15.0929692245
H         19.8691773421       30.9510029656       15.8901008227
H         21.4614970830       31.0295442528       16.6165883017
H         20.8459110825       27.6181068467       15.8315263542
H         19.0853687429       30.6087170963       11.5200759788
H         17.5782177016       26.9029854819       13.1475334044
H         18.1172847082       30.0273859635        9.3059671503
H         16.6244325406       26.3208615760       10.9308215822
H         22.9759191803       30.8752656838       13.7855596910
H         22.9138634514       32.5845971875       13.4155888762
H         16.8851549254       27.8827044214        9.0079443790
H         23.6030981149       31.5127244164       16.2197396442
H         19.2151659543       33.1227321520       12.3532533372
H         18.2548248608       32.9817586405       16.5662843928
H         25.3576839622       32.1550559969       13.8154626078
H         25.5752779307       30.8811752448       15.0388781734
H         16.8561041937       32.5614584533       11.8033255787
H         25.2827342215       34.8984736627       16.2616862286
H         24.9235082325       33.6037317737       17.4451537743
H         26.7590195324       33.4858599030       15.0967418508
H         26.6478900611       32.3975711130       16.4984090973
H         15.2049969463       32.2036532551       13.6096888666
H         14.3019953357       31.0404854176       15.5667812701
H         13.8839982715       31.8978343758       17.0680641204
H         13.8334892891       32.7637515691       15.5156145895
    81
VM2 Rank=28     G=217.674           E=120.118           -TS=97.556              
C         18.8034109611       26.5534049185        6.1603619534
C         17.6428646105       27.2316821190        6.5679407195
C         19.9433640340       26.5704640102        6.9776037313
C         17.6274525429       27.9235815069        7.7913361459
F         21.0581241414       25.9171987645        6.5897636702
C         19.9302463685       27.2612709783        8.1981399991
C         18.7715790761       27.9448827808        8.6133072857
N         18.7528876557       28.6332149968        9.8568683868
C         17.6421039264       28.4948281253       10.7902148191
C         19.7488436549       29.4478598188       10.3578372299
C         18.1636166582       29.1789566658       12.0685181387
O         19.3662009151       29.8418601367       11.6050206764
O         20.7750754140       29.7877380744        9.7955741666
C         18.4609771274       28.1758943540       13.2014275131
N         19.5976262300       28.4247945210       13.9406888479
O         17.7478104597       27.2126045671       13.4270583879
C         20.1242329867       27.5230217321       14.9767495597
C         21.6437643937       27.3234472398       14.7631985244
C         19.7493511771       27.9698200295       16.4236175375
C         21.9601039050       26.8141040802       13.3617921953
C         20.4595657604       29.2549759870       16.9340442820
O         18.3361356126       28.0935464482       16.5573733537
C         21.5890699191       25.5131592668       12.9752449371
C         22.5939735628       27.6555060785       12.4299455176
N         20.3561632994       30.4576040508       16.0575226582
C         21.8451609644       25.0608084618       11.6698498733
C         22.8475199296       27.2069819809       11.1233799785
S         18.8506929461       31.2939483861       16.0887480949
C         21.6247319659       31.2390122260       16.0205052542
C         22.4741142286       25.9078841913       10.7431981484
O         18.5905427736       31.5986417637       17.5006752171
O         17.9161674628       30.5138900802       15.2670721580
C         19.0954396597       32.8538119842       15.2057497107
C         21.9807248968       31.8452513271       14.6386434313
C         19.4450163722       34.0227116041       15.9112779935
C         18.9389102315       32.9071185999       13.8048553840
O         21.5545540628       30.9879616160       13.5673792839
C         23.4863534477       31.9838153243       14.3667971182
C         19.6479965882       35.2284552662       15.2217242671
C         19.1461883522       34.1159065798       13.1123055146
C         22.2124212228       31.4172036631       12.3613339929
C         23.5978228473       31.8916023509       12.8370077389
C         19.4994964644       35.2716902557       13.8260133338
O         19.0170345578       34.2205185772       11.7429664888
C         18.7605666328       33.0943645105       10.8823667809
H         18.8213617695       26.0160445600        5.2164856963
H         16.7568663488       27.2211124509        5.9375844206
H         16.7245279049       28.4467619718        8.0948333449
H         20.8209346754       27.2611663307        8.8183491404
H         17.4029527083       27.4356878505       10.9529136656
H         16.7581030081       29.0209968490       10.4093872636
H         17.4409635727       29.9083397872       12.4543422471
H         20.1369486436       29.2511081490       13.6950591924
H         19.6562667029       26.5390158670       14.8341015039
H         22.1682263500       28.2708774314       14.9381904936
H         22.0275474407       26.6145251086       15.5073299755
H         20.0716186463       27.1598690164       17.0919306459
H         20.0785759687       29.4930031596       17.9361475888
H         21.5103559737       28.9760946214       17.0759877680
H         18.0557077652       28.7059723546       15.8353066143
H         21.0933959478       24.8557783150       13.6843555844
H         22.8847681506       28.6603001758       12.7188669440
H         21.5528118221       24.0558724303       11.3760358710
H         23.3298894787       27.8669533191       10.4066791749
H         22.4635788503       30.5862394055       16.2889183857
H         21.6044600154       32.0351684000       16.7761850206
H         22.6699570234       25.5587712467        9.7323026920
H         21.5274620823       32.8357726952       14.5202154213
H         19.5634501239       33.9952435626       16.9920826527
H         18.6757214572       32.0029644825       13.2665603483
H         24.0438731104       31.1591126196       14.8295020031
H         23.8829693963       32.9309786924       14.7545699732
H         19.9204377186       36.1286852384       15.7675293187
H         22.2926285763       30.6062649642       11.6275968299
H         21.6649653224       32.2563882063       11.9122610664
H         24.3797285977       31.1795076260       12.5420049281
H         23.8383510399       32.8671486059       12.3942899612
H         19.6582390711       36.2047230696       13.2924329353
H         18.6912725999       33.4273987289        9.8391649480
H         19.5741144395       32.3628358889       10.9542348772
H         17.8151640161       32.6057098527       11.1505229152
    81
VM2 Rank=29     G=217.678           E=124.309           -TS=93.368              
C         18.1488894326       26.6315970199        6.0774778273
C         18.2368775074       27.7126525164        6.9693237993
C         18.9736039767       25.5115032881        6.2578794966
C         19.1490376947       27.6680210027        8.0372568183
F         18.8916559970       24.4733710049        5.4002937963
C         19.8842580395       25.4644258796        7.3240708513
C         19.9762338584       26.5426055479        8.2253603102
N         20.8960399812       26.4983783274        9.3095434372
C         21.7538081948       27.6337323104        9.6300468264
C         21.1154161841       25.4272090259       10.1548912992
C         22.5514742781       27.1531751623       10.8547242235
O         22.0823176728       25.7927568872       11.0438930717
O         20.5612047117       24.3419087729       10.1337297470
C         22.3065857133       28.0450678957       12.0869265524
N         21.4673749293       27.5216232727       13.0456810817
O         22.7486350967       29.1778386240       12.1782806945
C         20.6540193902       28.3681499441       13.9276387126
C         19.3047844594       27.6660297203       14.2206056305
C         21.4544662492       28.7592837427       15.2034822917
C         18.5315891038       27.3690512968       12.9429288363
C         20.7028586240       29.7470531410       16.1267780681
O         21.7913332653       27.5912218561       15.9487646623
C         18.4931280949       26.0649096950       12.4161307733
C         17.8661198849       28.4080007155       12.2671093641
N         20.1728418396       30.9450178375       15.4283108666
C         17.7939183489       25.8023856031       11.2264249049
C         17.1666643342       28.1462313151       11.0773707853
S         18.8502133587       31.7055419513       16.2023339322
C         21.1623854144       31.7885727492       14.7012345021
C         17.1294600331       26.8424234691       10.5575739759
O         17.7593237230       30.7280568099       16.1136680131
O         19.3564976177       32.2125986640       17.4828774453
C         18.4220743974       33.0755873918       15.1009954938
C         22.0808082225       32.6256078843       15.6254374563
C         17.5680010858       32.8649549119       14.0004161690
C         18.9740322262       34.3537241506       15.3194521460
O         22.5675057071       33.7580623664       14.8915493331
C         23.3786567936       31.9317467703       16.0726670881
C         17.2650297721       33.9242810982       13.1302137801
C         18.6844924155       35.4121761911       14.4372296781
C         23.7129368140       34.3022582873       15.5703722583
C         24.4072193713       33.0694241640       16.1769303607
C         17.8238315192       35.1939654549       13.3500080372
O         19.2244714105       36.6713279684       14.5932313165
C         20.3339232552       36.9434883125       15.4718842858
H         17.4458667419       26.6594753121        5.2499095467
H         17.5979715116       28.5822193307        6.8356069892
H         19.1973852005       28.5060558229        8.7271058310
H         20.5153050374       24.5889200676        7.4449936672
H         21.1538727374       28.5199426103        9.8739471054
H         22.4230046288       27.8569257972        8.7895322877
H         23.6273869301       27.1615156148       10.6411605999
H         21.1480595445       26.5764895584       12.8730219121
H         20.4270489848       29.2931761112       13.3795780553
H         19.4806985126       26.7421113649       14.7860803150
H         18.6866185597       28.3022356387       14.8654261071
H         22.3836325726       29.2414538192       14.8734459085
H         19.8735591711       29.1991195537       16.5933196469
H         21.3676869514       30.0502230557       16.9446077949
H         22.1679330029       26.9666000592       15.2928737352
H         19.0074558491       25.2538902265       12.9247648413
H         17.8935756890       29.4192169722       12.6642690598
H         17.7728072801       24.7940911553       10.8200645069
H         16.6553388414       28.9528106636       10.5581601638
H         21.7885817460       31.1746759483       14.0424885418
H         20.6384399283       32.4778775389       14.0283089686
H         16.5924935435       26.6393036303        9.6343460754
H         21.5349364736       32.9860784644       16.5066144816
H         17.1416750494       31.8809225987       13.8192029087
H         19.6340660774       34.5093545701       16.1666510710
H         23.2502542484       31.4111481115       17.0299474588
H         23.7070973230       31.2009225007       15.3224180690
H         16.6039483648       33.7604526439       12.2824765899
H         24.3734377186       34.8457586767       14.8815697197
H         23.3892812153       34.9807559946       16.3714629294
H         25.3206274655       32.8225548164       15.6197116746
H         24.6866274470       33.2625101047       17.2211538303
H         17.5970805254       36.0116288690       12.6714294148
H         21.1957273259       36.3152069825       15.2104042823
H         20.6343564476       37.9950864870       15.3825863359
H         20.0590309675       36.7545035341       16.5174546969
    81
VM2 Rank=30     G=217.684           E=123.795           -TS=93.890              
C         19.5116111777       27.0577644906        5.5249081928
C         18.5901263209       27.3246694629        6.5506125504
C         20.7772054284       26.5425817451        5.8424141746
C         18.9396515912       27.0745174139        7.8884281272
F         21.6628010131       26.2851607413        4.8579006706
C         21.1281387964       26.2927456676        7.1778475293
C         20.2086303465       26.5562011560        8.2113339607
N         20.5611702533       26.3151486352        9.5670524933
C         21.8216694690       26.7939945350       10.1212793178
C         19.7888067251       25.6662389620       10.5112704816
C         21.7411315421       26.3933825452       11.6053368948
O         20.4717433579       25.6929046401       11.6910464412
O         18.6993867577       25.1466241326       10.3420653260
C         21.8165792482       27.6066621903       12.5538116610
N         20.7818230620       27.7240309388       13.4550922878
O         22.6958984940       28.4492702138       12.4825375650
C         20.4075863726       29.0023697790       14.0733203352
C         18.8806509001       29.0167930903       14.3378382049
C         21.2684890124       29.2665099963       15.3429462241
C         18.0718509638       28.7383508408       13.0772406085
C         21.0359938712       30.6610261799       15.9703795116
O         21.0109204393       28.2679951630       16.3278044325
C         18.0675500769       29.6655826139       12.0192937287
C         17.3345134479       27.5465958959       12.9531286456
N         21.2391764939       31.7992155265       15.0340579764
C         17.3263560762       29.4105284512       10.8539567507
C         16.5920425504       27.2907015706       11.7885870277
S         20.5222293862       33.2789027641       15.5075373174
C         22.5575229371       31.8568973507       14.3457414322
C         16.5837002564       28.2247349258       10.7406951756
O         20.9397016569       33.5571365011       16.8869024347
O         20.7948229018       34.2201543335       14.4138728563
C         18.7639366624       32.8794103340       15.3947069190
C         23.7611889649       32.0852913609       15.2893046717
C         18.0173052973       32.6025902371       16.5564649551
C         18.1427938949       32.7932485278       14.1336162822
O         23.7818820743       33.4433730596       15.7519848442
C         25.1230369120       31.9617541702       14.5902438855
C         16.6657740153       32.2353379305       16.4544522856
C         16.7952206091       32.4184544163       14.0273680498
C         25.0946137891       33.7545032937       16.2512031676
C         26.0397502982       32.9209118447       15.3660421508
C         16.0550226625       32.1392109485       15.1928540507
O         16.2497507662       32.3317776561       12.7648758856
C         15.0562431272       31.5757437674       12.4836425158
H         19.2485176920       27.2484707344        4.4883853892
H         17.6080203343       27.7247213504        6.3102437537
H         18.2220535370       27.2859119393        8.6758179235
H         22.1110540117       25.8899388241        7.4014904971
H         21.9019599195       27.8824105699        9.9993891024
H         22.6731830186       26.3014129948        9.6360752910
H         22.5639835242       25.7164367263       11.8655547646
H         20.0792100782       26.9953922062       13.4062371683
H         20.6259678831       29.7990728582       13.3486156502
H         18.6336736883       28.2829382679       15.1153270802
H         18.5817678157       29.9904172114       14.7398642965
H         22.3244791385       29.1974834699       15.0499321377
H         20.0147900590       30.6778831331       16.3689694757
H         21.7008809377       30.7709143171       16.8368121989
H         21.0739674924       27.4128796247       15.8514958651
H         18.6339224099       30.5886643516       12.1019782535
H         17.3352051476       26.8169191586       13.7583034099
H         17.3232069326       30.1345929333       10.0432636304
H         16.0267956492       26.3666798336       11.6969196969
H         22.7295049365       30.9260649133       13.7915041570
H         22.5520961982       32.6556865804       13.5925533269
H         16.0068261587       28.0270000154        9.8408701914
H         23.7312030584       31.3946814857       16.1426736968
H         18.4872674716       32.6622450743       17.5355813977
H         18.7114657696       32.9984757676       13.2307123822
H         25.0446799490       32.2824706461       13.5428414111
H         25.4943605620       30.9288071962       14.6068752339
H         16.0922456563       32.0195140689       17.3527760770
H         25.3099838727       34.8289820805       16.1799714859
H         25.1845817984       33.4368347204       17.2989806863
H         26.6071596949       33.5639282877       14.6803150451
H         26.7564716125       32.3699539867       15.9893443570
H         15.0101689519       31.8520321025       15.1316505703
H         15.1778994767       30.5325065910       12.8042966663
H         14.1882461974       32.0088227057       12.9964386262
H         14.8549604697       31.5815798452       11.4051157209
