    84
VM2 Rank=1      G=210.972           E=112.056           -TS=98.916              
C         19.0922116465       25.1846364980        5.3152427774
C         18.3921518266       26.3081936590        5.8049297354
C         20.1905850492       24.7025755795        6.0563699492
C         18.6955751967       24.4968069343        4.0301488244
C         18.7815639305       26.9283967067        7.0036940362
C         20.5782587822       25.3222710131        7.2557534710
O         19.3091868913       23.5271727068        3.6131374160
C         17.5054806681       25.0214252055        3.2346274687
C         19.8735023315       26.4377201497        7.7430204119
N         20.2653667906       27.0678699996        8.9576120498
C         20.6474035253       26.4355324659       10.1263108980
C         20.3261065421       28.5200652358        9.0776118536
O         20.6878763120       25.2361065016       10.3403007724
O         20.9800198139       27.4003512462       11.0300416976
C         20.8679845697       28.7462990653       10.4995630470
C         19.9534309221       29.6522512516       11.3464456813
N         19.4721416808       29.0914667078       12.5095110151
O         19.6251396945       30.7705189876       10.9888505522
C         18.2332814171       29.5325569908       13.1712099655
C         17.2850109034       28.3151685030       13.3111526539
C         18.5308750200       30.2324656262       14.5273960318
C         17.0630244068       27.5831200263       11.9919420600
C         19.3642870373       31.5296944488       14.3326303627
O         17.3061172431       30.5534379090       15.1906606926
C         16.3562550561       28.2056403907       10.9466675710
C         17.5764495827       26.2867600139       11.8012415800
N         20.0212899095       32.0425487922       15.5650168989
C         16.1613774853       27.5388806696        9.7255575382
C         17.3788645337       25.6177271502       10.5819729470
C         21.0072798216       31.1400874999       16.2190599256
S         19.0801935012       33.0308970764       16.5917853625
C         16.6699521573       26.2428728484        9.5444053168
C         22.1272122548       30.6184390666       15.2812754384
O         18.5665077861       34.0899843071       15.7151732724
O         18.1850429447       32.1441899501       17.3465258728
C         20.3064444852       33.8323979075       17.6490800956
C         22.9444185150       31.7821748084       14.6746070645
C         23.0646393084       29.6676623536       16.0545897525
C         21.2634336204       34.6942861329       17.0784367827
C         20.3346617352       33.5751956001       19.0334674818
C         22.2460939855       35.2974883268       17.8873238944
C         21.3097091842       34.1814318465       19.8416235527
C         22.2618655561       35.0397576918       19.2673398865
O         23.2125951925       36.1389115466       17.3769461670
C         23.3551311833       36.4145626021       15.9697401748
H         17.5405133320       26.7122079644        5.2658153281
H         20.7497952167       23.8403170355        5.7013085325
H         18.2193584254       27.7867155265        7.3607234286
H         21.4315271194       24.9310015952        7.8038625487
H         16.5976320620       24.9785107493        3.8468576102
H         17.6864221478       26.0584430442        2.9301657811
H         17.3557269738       24.4103410057        2.3368855582
H         21.0032574349       28.9435608120        8.3251538723
H         19.3246405965       28.9560790602        8.9673689652
H         21.8585837417       29.2155805976       10.4583873222
H         19.8017825977       28.1529285085       12.6996514705
H         17.7305538565       30.2681399922       12.5274702282
H         17.6895358644       27.6275335452       14.0644485180
H         16.3157661095       28.6512715614       13.7008621103
H         19.1043118152       29.5214629095       15.1355074994
H         20.1358832146       31.3472589281       13.5774664756
H         18.7126350639       32.3007012499       13.9004096958
H         17.5366144076       30.9286100268       16.0737835008
H         15.9596482133       29.2084474521       11.0809860186
H         18.1319327714       25.7963487708       12.5961135429
H         15.6145782011       28.0253797915        8.9218391416
H         17.7812666947       24.6176783041       10.4396824124
H         21.5025299511       31.6615990821       17.0475689312
H         20.4835907740       30.2844317052       16.6656014266
H         16.5191800478       25.7250789231        8.6004609473
H         21.6778363982       30.0382763982       14.4638425081
H         23.4104523623       32.3893112426       15.4613870870
H         23.7410959516       31.4019625218       14.0226908141
H         22.3095929770       32.4421863962       14.0703617486
H         22.5070796274       28.8172169300       16.4676633221
H         23.8444101276       29.2655718398       15.3950289436
H         23.5590875474       30.1865407564       16.8860774418
H         21.2359350213       34.8776962393       16.0086544407
H         19.6037885259       32.9053069621       19.4808511238
H         21.3306625449       33.9836616998       20.9107481854
H         23.0190679966       35.5053651816       19.8921185591
H         23.5438399206       35.4886742379       15.4108669494
H         22.4492167219       36.8914836342       15.5737674520
H         24.2005208242       37.0942602834       15.8039495757
    84
VM2 Rank=2      G=210.980           E=112.217           -TS=98.763              
C         18.2958454453       24.3712924263        5.4252893487
C         18.1395677750       23.5361641744        6.5524981530
C         18.8924233352       25.6361403847        5.6044801026
C         17.8444110094       23.9443400024        4.0483882223
C         18.5662212912       23.9592781916        7.8224791590
C         19.3198592972       26.0577521357        6.8740828972
O         17.9846660811       24.6738184877        3.0794702162
C         17.1989489144       22.5759016062        3.8609789290
C         19.1549634537       25.2250983748        7.9958838621
N         19.5872332029       25.6515612084        9.2832061005
C         18.9036567805       25.4912111405       10.4737547801
C         20.8728998305       26.3116991867        9.4772678533
O         17.8053568928       24.9868246826       10.6335640007
O         19.6859379162       25.9903238975       11.4714896162
C         20.9270890466       26.5709524716       10.9948311139
C         21.0432416342       28.0671654462       11.3520378083
N         20.2743063931       28.4819282155       12.4179958604
O         21.7281764026       28.8485935561       10.7129321928
C         19.8856865706       29.8787444249       12.6581616903
C         18.4199007398       30.1061021304       12.2007433793
C         20.1408844093       30.2554531994       14.1447362152
C         18.1607271149       29.6534035751       10.7682318395
C         19.8755860067       31.7597909430       14.4205191044
O         19.3365360337       29.4410250552       15.0045062251
C         18.7408485265       30.3449309713        9.6891121154
C         17.3465427030       28.5342988950       10.5125662857
N         20.4459128940       32.2728181460       15.6956095735
C         18.5078793352       29.9243374525        8.3690493313
C         17.1096091670       28.1151150641        9.1929519273
C         21.9245689226       32.2037608666       15.8438224843
S         19.5194975120       32.0385869914       17.1118840912
C         17.6883879229       28.8117498720        8.1206221502
C         22.7162516584       32.9182800066       14.7186668261
O         18.1957193653       32.5781683133       16.7794988387
O         19.7072681338       30.6430007643       17.5289302672
C         20.2362186978       33.2117602937       18.2839362738
C         22.3509665876       34.4184367972       14.6371132742
C         24.2326199035       32.7609378036       14.9573317151
C         20.1855449447       34.5922500587       18.0084575659
C         20.8763836840       32.7550830601       19.4522835464
C         20.7733290765       35.5143675860       18.8960695213
C         21.4559724653       33.6741587762       20.3415332780
C         21.4034047722       35.0496501976       20.0614705760
O         20.7633831578       36.8743740005       18.6662110555
C         20.2315649929       37.4673691663       17.4653506326
H         17.6877995876       22.5531256979        6.4589003572
H         19.0258710539       26.2998302324        4.7536127679
H         18.4378974112       23.2951147405        8.6734527552
H         19.7706759235       27.0403846410        6.9804174278
H         17.8982114817       21.7876813210        4.1619397403
H         16.2906040246       22.5038236006        4.4697225330
H         16.9316237088       22.4283326932        2.8081002007
H         21.6927068565       25.6539604936        9.1623219483
H         20.9120803742       27.2518795142        8.9124911836
H         21.7829777976       26.0530386351       11.4444105842
H         19.7482636273       27.7621825689       12.8989483429
H         20.5288276774       30.5265056553       12.0463090777
H         17.7426976157       29.5795689031       12.8852760562
H         18.1670123665       31.1693544454       12.2865368514
H         21.2015078719       30.0476598284       14.3357636346
H         20.2850894257       32.3399852051       13.5851204967
H         18.7918455125       31.9346002222       14.4033558353
H         19.5881378095       29.6513440962       15.9346481940
H         19.3776295937       31.2056599109        9.8743642923
H         16.8992135726       27.9850768566       11.3369084366
H         18.9604730262       30.4620752464        7.5398027672
H         16.4813677350       27.2482463485        9.0026317959
H         22.2298661810       32.6669610896       16.7903681100
H         22.2429807754       31.1545377465       15.9021231936
H         17.5040700161       28.4880054982        7.0993392206
H         22.4866434069       32.4451169554       13.7542762664
H         21.2867032804       34.5574549074       14.4097091908
H         22.5634247751       34.9286026447       15.5855556151
H         22.9258938760       34.9181806609       13.8471289367
H         24.5170372629       31.7012612192       14.9890576219
H         24.8066463071       33.2355848475       14.1511143298
H         24.5357787763       33.2230897799       15.9058263738
H         19.6962846721       34.9306906287       17.1002420560
H         20.9261993484       31.6902898782       19.6686773911
H         21.9492213641       33.3215370259       21.2442768493
H         21.8561916767       35.7604435824       20.7472171856
H         20.7614194693       37.0915377879       16.5803535161
H         19.1619712501       37.2431604886       17.3623056734
H         20.3511890510       38.5576167964       17.5001389917
    84
VM2 Rank=3      G=211.003           E=112.257           -TS=98.746              
C         18.2936559062       24.3557915015        5.4398908223
C         18.2278476000       23.5047260739        6.5621478143
C         18.8288186279       25.6509037403        5.6090300886
C         17.7971078306       23.8677934287        4.0992791721
C         18.6806386523       23.9349813744        7.8202028497
C         19.2828084225       26.0798810011        6.8673113841
O         17.3382524032       22.7447060664        3.9623720366
C         17.8691626303       24.7935325168        2.8900540207
C         19.2075186458       25.2286256543        7.9849763207
N         19.6675511200       25.6651724232        9.2591367836
C         19.0398642908       25.4596350825       10.4732534954
C         20.9250959375       26.3876276258        9.4106856430
O         17.9758294983       24.8980360324       10.6697869216
O         19.8340929853       25.9894234005       11.4454196354
C         21.0233515427       26.6391243997       10.9273491419
C         21.0724707600       28.1370674420       11.2928273636
N         20.3241462354       28.5025764840       12.3909879049
O         21.6892879765       28.9586077593       10.6349264700
C         19.8724726224       29.8750842374       12.6593062312
C         18.3795872458       30.0276923347       12.2626810926
C         20.1673515002       30.2543892680       14.1378283324
C         18.0879063103       29.5741343614       10.8367181845
C         19.8361262235       31.7410345153       14.4372170573
O         19.4412806955       29.3935473063       15.0216865441
C         18.5852000571       30.3062292416        9.7431093412
C         17.3264283857       28.4142389839       10.6012567647
N         20.4312365433       32.2746718772       15.6923686955
C         18.3221542585       29.8854418147        8.4287695072
C         17.0594592156       27.9945681036        9.2875415656
C         21.9163431736       32.2809966143       15.7797774180
S         19.5769482234       31.9835683857       17.1430258927
C         17.5552428459       28.7317434782        8.2008247710
C         22.6237343351       33.0411895674       14.6286892351
O         18.2149785720       32.4572370835       16.8697226012
O         19.8522537200       30.5965059470       17.5393986068
C         20.2809083495       33.1834728245       18.2955998689
C         22.1795085352       34.5211052260       14.5733592243
C         24.1546672192       32.9603556455       14.8041942166
C         20.1490083609       34.5614995208       18.0351005071
C         20.9910396263       32.7517882436       19.4325989387
C         20.7254110815       35.5060887598       18.9064001357
C         21.5594805179       33.6929105799       20.3058398929
C         21.4257607667       35.0658774783       20.0407904663
O         20.6370975481       36.8654114701       18.6896239077
C         20.0269130015       37.4390051243       17.5169331321
H         17.8227389890       22.5008291964        6.4603280789
H         18.8985693886       26.3384189472        4.7713940137
H         18.6211862431       23.2558137001        8.6668728552
H         19.6846849639       27.0840522353        6.9690964012
H         17.2791333336       25.6981764974        3.0753633227
H         18.9101341093       25.0754449618        2.6957670186
H         17.4692038701       24.2857596893        2.0046205661
H         21.7640898412       25.7736064902        9.0600248583
H         20.8964855099       27.3321970206        8.8526747911
H         21.9223752420       26.1652818390       11.3398155943
H         19.8563281787       27.7523813715       12.8853751893
H         20.4553882668       30.5603284488       12.0282487794
H         17.7592016486       29.4598431255       12.9677341430
H         18.0742456615       31.0751233798       12.3697795694
H         21.2440964239       30.1006123319       14.2846511382
H         20.1803278093       32.3472390529       13.5908991577
H         18.7450025894       31.8593098499       14.4657618556
H         19.7188933394       29.6103968804       15.9428930140
H         19.1809210313       31.1990416694        9.9124268930
H         16.9435289277       27.8338402490       11.4366132613
H         18.7106049379       30.4548260727        7.5882016860
H         16.4723097946       27.0961811082        9.1127963026
H         22.2361115633       32.7542452835       16.7165207918
H         22.2901189257       31.2492296866       15.8173010774
H         17.3474521483       28.4077194546        7.1841929932
H         22.3791321328       32.5621295835       13.6709167347
H         21.1010959673       34.6067197072       14.3906277325
H         22.4045512651       35.0363352749       15.5161438945
H         22.6952756173       35.0538792391       13.7643484034
H         24.4937144925       31.9164619629       14.8164031969
H         24.6701940655       33.4680631670       13.9788166425
H         24.4726116238       33.4323104876       15.7429711114
H         19.6061967399       34.8809711455       17.1507542858
H         21.1036616022       31.6894177745       19.6369944797
H         22.1067856861       33.3595225625       21.1844131536
H         21.8698415606       35.7939674457       20.7139704683
H         20.5382154336       37.0969457883       16.6076595120
H         18.9667129234       37.1612949330       17.4555412376
H         20.0924949115       38.5336600735       17.5567967954
    84
VM2 Rank=4      G=211.009           E=112.081           -TS=98.928              
C         19.0656246435       25.2079371163        5.3026144579
C         20.1685612573       24.7229446291        6.0379843123
C         18.3679061699       26.3279519682        5.7991625476
C         18.6225951857       24.5616355541        4.0111366970
C         20.5575751928       25.3413856160        7.2380232022
C         18.7583815581       26.9465308130        6.9979846705
O         17.6672868438       24.9888102798        3.3822459890
C         19.3804877019       23.3502752319        3.4795592124
C         19.8532277757       26.4545547332        7.7317324252
N         20.2486599376       27.0810630322        8.9470932409
C         20.6366319858       26.4452948983       10.1119817416
C         20.3064857132       28.5329329990        9.0723467190
O         20.6806105120       25.2451635072       10.3213209434
O         20.9708414615       27.4074952249       11.0179125813
C         20.8553870531       28.7550303758       10.4922512684
C         19.9449378241       29.6580651008       11.3466148094
N         19.4695050255       29.0934580966       12.5102442129
O         19.6145571060       30.7773628297       10.9941970526
C         18.2327231184       29.5311050986       13.1781004340
C         17.2867544285       28.3120256296       13.3189264741
C         18.5344787805       30.2283577907       14.5347214137
C         17.0612162214       27.5824046792       11.9989670450
C         19.3669130295       31.5261916647       14.3398594277
O         17.3116059361       30.5475097996       15.2023455449
C         16.3517054203       28.2068787533       10.9567181305
C         17.5743664766       26.2865079453       11.8043984554
N         20.0241209941       32.0393176225       15.5720101602
C         16.1540408006       27.5425894109        9.7347187758
C         17.3739106464       25.6199079243       10.5842627845
C         21.0101227770       31.1370301488       16.2262002627
S         19.0839675559       33.0289133160       16.5983952702
C         16.6624816327       26.2470874790        9.5496441498
C         22.1310131397       30.6169594785       15.2887198792
O         18.5694463917       34.0868911525       15.7209388684
O         18.1894775667       32.1433242830       17.3552145302
C         20.3113506829       33.8320009720       17.6531244726
C         22.9477732014       31.7818335633       14.6836256972
C         23.0686022384       29.6661914500       16.0618474515
C         21.2709649033       34.6888505473       17.0793205641
C         20.3379225853       33.5808829808       19.0386514876
C         22.2547426067       35.2929461166       17.8861606546
C         21.3139466677       34.1882401551       19.8447930610
C         22.2688004982       35.0414399625       19.2673442468
O         23.2240118213       36.1292342427       17.3726104289
C         23.3702769310       36.3954858269       15.9639742459
H         20.7356400024       23.8646195698        5.6902803987
H         17.5144721844       26.7228336924        5.2532951617
H         21.4131266055       24.9503391171        7.7828026861
H         18.1955868968       27.8029401114        7.3585070402
H         19.3405613167       22.5337897914        4.2093619518
H         18.9293692339       23.0079047777        2.5409079027
H         20.4270565852       23.6158789338        3.2925130590
H         20.9784398374       28.9611109543        8.3178823428
H         19.3032854396       28.9667159404        8.9692223598
H         21.8455981189       29.2247906476       10.4473919749
H         19.8004623191       28.1544553842       12.6957689579
H         17.7263274571       30.2674608400       12.5381301963
H         17.6950215051       27.6234402986       14.0693284768
H         16.3184197517       28.6458803979       13.7128101696
H         19.1101246793       29.5163889879       15.1396126891
H         20.1384015598       31.3442531616       13.5844464761
H         18.7146090575       32.2968082050       13.9079298443
H         17.5444530339       30.9232650648       16.0845884736
H         15.9552631956       29.2093477198       11.0940035617
H         18.1319356654       25.7946139479       12.5968878845
H         15.6053000740       28.0306268641        8.9332512120
H         17.7761771927       24.6202464331       10.4389323320
H         21.5044117747       31.6582174985       17.0554930858
H         20.4866599874       30.2807134339       16.6717331679
H         16.5097011373       25.7313507966        8.6048471583
H         21.6825519929       30.0372338651       14.4704590423
H         22.3128569025       32.4418471508       14.0794744209
H         23.4127904625       32.3886488737       15.4712556452
H         23.7452011871       31.4027729721       14.0319562729
H         22.5113719610       28.8149963328       16.4738204937
H         23.8491034914       29.2652277562       15.4024653997
H         23.5621199983       30.1847147374       16.8941097627
H         21.2446678189       34.8675547825       16.0087114280
H         19.6049959819       32.9148864548       19.4884799433
H         21.3336092133       33.9952321277       20.9148120657
H         23.0268203759       35.5078054751       19.8905632083
H         23.5577523814       35.4655339403       15.4114658398
H         22.4664785175       36.8722197795       15.5629808452
H         24.2177970477       37.0719000761       15.7956533757
    84
VM2 Rank=5      G=211.046           E=112.299           -TS=98.747              
C         18.9186182900       24.5764210264        5.5807838842
C         19.1732932475       23.6914648526        6.6485489373
C         19.0010289938       25.9643697887        5.8238722171
C         18.5683178370       24.0257168931        4.2184721304
C         19.4980251404       24.1777575154        7.9256180244
C         19.3275675450       26.4498553924        7.1009691301
O         18.5023228208       22.8233297289        4.0171943129
C         18.2911381507       24.9878756045        3.0687654090
C         19.5727466240       25.5618116656        8.1643752830
N         19.9017545135       26.0567515342        9.4575574830
C         19.4216484059       25.5848170791       10.6651413399
C         20.8467964709       27.1531252562        9.6363769032
O         18.6161337164       24.6871409602       10.8422230745
O         20.0112460493       26.3100205773       11.6575331069
C         20.9547006775       27.2961623921       11.1642608363
C         20.6411987175       28.7255320101       11.6470130416
N         19.5424873151       28.8496526520       12.4692377674
O         21.2781962706       29.6965654196       11.2760969651
C         18.7577739022       30.0886690805       12.5880036594
C         17.2612357347       29.7592005798       12.3650888501
C         19.0192945315       30.8102037258       13.9390003722
C         17.0123151815       29.0081943669       11.0617978923
C         20.5205002960       31.1572105637       14.1233314983
O         18.2471737784       32.0101673857       14.0151464554
C         17.1886449292       29.6575617333        9.8261762992
C         16.6215176122       27.6564003051       11.0812893250
N         20.8480410230       32.0277856883       15.2880842176
C         16.9736160807       28.9648996760        8.6230093529
C         16.4030818049       26.9638870818        9.8787915939
C         22.2347298661       32.5619889765       15.2204142196
S         20.2845109381       31.5048441170       16.8208887907
C         16.5778184846       27.6181374204        8.6494146780
C         22.4180718345       33.6798424938       14.1609187358
O         18.8380702291       31.7563474943       16.7838506657
O         20.8491421198       30.1719649356       17.0611927973
C         20.9393439316       32.7088675360       18.0011744115
C         21.4724483619       34.8730421013       14.4286013046
C         23.8833032110       34.1642608661       14.1503165392
C         20.4707118167       34.0372397701       17.9742561866
C         21.9348868517       32.3384447793       18.9264094950
C         20.9966942970       34.9935335650       18.8643481101
C         22.4553763375       33.2897213933       19.8183235723
C         21.9863817752       34.6133069781       19.7845612066
O         20.5814889060       36.3089103434       18.8697740386
C         19.6126053786       36.8349966945       17.9417958862
H         19.1193842063       22.6172354229        6.4891921722
H         18.8123424236       26.6810262952        5.0301808904
H         19.6927595953       23.4719195160        8.7290262436
H         19.3753650392       27.5232702783        7.2613863490
H         18.0530539764       24.4256248701        2.1582816500
H         17.4415807282       25.6337774860        3.3175988092
H         19.1735423930       25.6095316442        2.8797000181
H         20.4563463433       28.0742743184        9.1845171434
H         21.8192462881       26.9027736818        9.1939373869
H         21.9687515189       27.0446054629       11.4983314420
H         19.0871352092       27.9774082402       12.7091400332
H         19.0653051637       30.7757274093       11.7868159246
H         16.8875321848       29.1778519574       13.2173753246
H         16.6809816756       30.6907051323       12.3590919885
H         18.7153654495       30.1266051096       14.7435365071
H         21.0832254917       30.2183760490       14.2103952201
H         20.8491065399       31.6329715023       13.1927697365
H         18.2911593213       32.2865624989       14.9602677731
H         17.4946084839       30.7000087348        9.7992839875
H         16.4892092083       27.1390341008       12.0277164494
H         17.1118605730       29.4720858424        7.6715456713
H         16.1054227257       25.9183237480        9.9004492981
H         22.5442098202       32.9924996797       16.1785581464
H         22.9350628810       31.7411326583       15.0127346380
H         16.4115032323       27.0805033735        7.7192508002
H         22.1969419678       33.2802278676       13.1624785799
H         20.4207639767       34.5626639499       14.3781912672
H         21.6543193708       35.3070476201       15.4199498414
H         21.6191416901       35.6625164758       13.6806619832
H         24.1670933900       34.5935602479       15.1199965675
H         24.5685308614       33.3352015392       13.9314625370
H         24.0351780281       34.9334414045       13.3821910260
H         19.7076400505       34.3126304217       17.2527965413
H         22.3066890689       31.3166202453       18.9514765687
H         23.2239948878       33.0033502228       20.5323235208
H         22.3923348518       35.3502890502       20.4719819762
H         18.6506827621       36.3173329940       18.0499495533
H         19.4504118462       37.9031685659       18.1337715545
H         19.9640846775       36.7215201332       16.9081078898
    84
VM2 Rank=6      G=211.050           E=112.290           -TS=98.760              
C         18.9124922808       24.6255675011        5.5436872412
C         18.9530672504       26.0112895197        5.8005076890
C         19.2250200891       23.7375931942        6.5955105483
C         18.5408517523       24.1297160311        4.1660451552
C         19.2942594724       26.4984157335        7.0727350399
C         19.5646572653       24.2257074795        7.8684145880
O         18.2722585409       24.9059293049        3.2627478787
C         18.4979571071       22.6301218909        3.8944780496
C         19.5970776604       25.6093593068        8.1200550927
N         19.9411839091       26.1030049759        9.4098517909
C         19.5101851717       25.6016193402       10.6240962323
C         20.8495967804       27.2317691510        9.5765662706
O         18.7427384961       24.6732641301       10.8118148630
O         20.0987872186       26.3377544370       11.6090013098
C         20.9944415142       27.3610905036       11.1026091807
C         20.6466445101       28.7733439025       11.6114792159
N         19.5681380273       28.8505324683       12.4655771096
O         21.2395717777       29.7697244776       11.2347620634
C         18.7443895435       30.0600101736       12.6193762751
C         17.2547222104       29.6808634252       12.4322336253
C         19.0169783717       30.7761272418       13.9710418375
C         16.9975582459       28.9339464062       11.1281768015
C         20.5098265162       31.1728272316       14.1195920401
O         18.2064546461       31.9478263897       14.0808113583
C         17.1221194007       29.5997312425        9.8949881870
C         16.6513768344       27.5699932385       11.1440559931
N         20.8384592788       32.0426177941       15.2846381955
C         16.9002001165       28.9111217743        8.6907581601
C         16.4259154721       26.8814563142        9.9405676933
C         22.2039785170       32.6245288891       15.1864351156
S         20.3341892164       31.4855769827       16.8260534129
C         16.5491667769       27.5519470485        8.7136977368
C         22.3216889290       33.7575268692       14.1337074390
O         18.8794559780       31.6869466707       16.8296811438
O         20.9506510450       30.1708864254       17.0374498377
C         20.9780909969       32.7003168558       18.0013638194
C         21.3429725735       34.9149803885       14.4370175386
C         23.7687312715       34.2922315551       14.0907590645
C         20.4639090537       34.0120079197       18.0000154738
C         22.0094173421       32.3557130220       18.8969025580
C         20.9799716201       34.9774870775       18.8859872204
C         22.5202006051       33.3159700674       19.7847985843
C         22.0056450280       34.6229296682       19.7765653866
O         20.5204591206       36.2777267283       18.9154535475
C         19.5105424657       36.7788992522       18.0179326356
H         18.7167424833       26.7182246288        5.0089056447
H         19.2086659724       22.6629373115        6.4404601223
H         19.3082932209       27.5714482254        7.2416572710
H         19.8045917460       23.5204772426        8.6600970960
H         19.4850269521       22.1888881941        4.0729304112
H         17.7645074571       22.1511999236        4.5529155774
H         18.2113185788       22.4456937445        2.8525485294
H         21.8179994752       27.0232982670        9.1045264425
H         20.4126084727       28.1427477637        9.1472336239
H         22.0251678236       27.1401489845       11.4058769158
H         19.1497285597       27.9604778533       12.7073594410
H         19.0063064058       30.7658153384       11.8182776754
H         16.9240281125       29.0788321865       13.2879264863
H         16.6427455569       30.5916669403       12.4510557727
H         18.7582434443       30.0742062892       14.7756050340
H         21.1064238371       30.2531112238       14.1816147979
H         20.7969911126       31.6688153224       13.1858927047
H         18.2660293619       32.2158599405       15.0274893076
H         17.3933896136       30.6518020792        9.8707363831
H         16.5593974990       27.0401466784       12.0883533748
H         16.9985690991       29.4309239393        7.7411372057
H         16.1629883874       25.8265717263        9.9593044870
H         22.5235437127       33.0567208458       16.1405063335
H         22.9261075594       31.8299895809       14.9526821189
H         16.3778134070       27.0174693939        7.7825786073
H         22.0888597403       33.3595343676       13.1372822158
H         21.5352141006       35.3460129781       15.4277057221
H         21.4433788218       35.7157644828       13.6934672433
H         20.3015721221       34.5690296012       14.4101350597
H         24.4760952659       33.4892733768       13.8464868776
H         23.8744389021       35.0730304817       13.3266242390
H         24.0624423048       34.7223697989       15.0571075940
H         19.6733848452       34.2677258500       17.3012290421
H         22.4163575572       31.3470682040       18.9020094489
H         23.3164452571       33.0495370507       20.4758749708
H         22.4039907905       35.3669953478       20.4607987861
H         19.8388260681       36.6871983629       16.9745029987
H         18.5699231737       36.2275594631       18.1453172544
H         19.3170900132       37.8390410612       18.2248823826
    84
VM2 Rank=7      G=211.077           E=112.454           -TS=98.623              
C         18.9629620722       24.4855821022        5.6780398133
C         19.1896212498       23.6294642623        6.7752271878
C         19.0515716667       25.8792359092        5.8833943064
C         18.6350766523       23.8989874501        4.3251630961
C         19.4930551826       24.1494404284        8.0442368144
C         19.3568339814       26.3983928966        7.1524858151
O         18.5635665964       22.6918838107        4.1566674631
C         18.3880455601       24.8301118933        3.1434749095
C         19.5740551554       25.5391271305        8.2451995723
N         19.8813804432       26.0681484303        9.5301768934
C         19.3730973602       25.6347367896       10.7406539406
C         20.8322213022       27.1614193759        9.6969302978
O         18.5567821025       24.7487317662       10.9267805420
O         19.9487674046       26.3833151620       11.7238160478
C         20.9091232047       27.3485688567       11.2219146273
C         20.5950765629       28.7934650308       11.6554920354
N         19.4743809754       28.9498461034       12.4418030467
O         21.2513777661       29.7483402975       11.2763112643
C         18.6985924014       30.1985107580       12.5042389428
C         17.2040380172       29.8738971832       12.2617398429
C         18.9384895182       30.9627256481       13.8358701022
C         16.9751363616       29.0833822282       10.9783191016
C         20.4395292874       31.3018019178       14.0397089341
O         18.1796109189       32.1738228366       13.8499074385
C         16.5768868974       27.7347293768       11.0329893658
C         17.1780964326       29.6925657594        9.7264368248
N         20.7518841236       32.1788738930       15.2053242994
C         16.3774136680       27.0056157245        9.8489760647
C         16.9819513455       28.9632858348        8.5418247192
C         22.1635429396       32.6556112813       15.2264158870
S         20.0847871889       31.6839054836       16.7071358941
C         16.5786731941       27.6198813779        8.6031342001
C         22.6100482332       33.4618665415       13.9771085106
O         18.6862228764       32.1283127387       16.6460186193
O         20.4617653123       30.2776418578       16.8914203582
C         20.8866817692       32.7089361909       17.9646098105
C         21.6687635157       34.6576898737       13.7041908063
C         24.0560415751       33.9677457752       14.1663403505
C         20.5128274862       34.0598874528       18.1104528107
C         21.9006200901       32.1737182616       18.7834219014
C         21.1489891852       34.8726927671       19.0690608026
C         22.5327177845       32.9824256835       19.7412652856
C         22.1560535414       34.3281405135       19.8814548812
O         20.8261218634       36.2019350339       19.2468426819
C         19.8435192341       36.8896003110       18.4480238906
H         19.1303283570       22.5515675981        6.6452569232
H         18.8841305080       26.5744243503        5.0661920037
H         19.6663242307       23.4653206372        8.8710099840
H         19.4098820857       27.4755508750        7.2834672995
H         18.1632891749       24.2439905029        2.2447322940
H         17.5389691484       25.4891045698        3.3571475147
H         19.2788990153       25.4395832750        2.9543543181
H         20.4598907229       28.0721059802        9.2099458645
H         21.8115005482       26.8898644130        9.2829793790
H         21.9142588683       27.1009060652       11.5846161444
H         19.0047110539       28.0886844873       12.6937727512
H         19.0284032263       30.8559192260       11.6871637223
H         16.8083555254       29.3231128661       13.1243466436
H         16.6318912150       30.8092145962       12.2141470407
H         18.6077995616       30.3105580177       14.6558047331
H         20.9975119326       30.3615696277       14.1401275252
H         20.7732381100       31.7719439088       13.1087331203
H         18.2211117265       32.5020457362       14.7789965883
H         16.4241248597       27.2481331592       11.9925656964
H         17.4901245623       30.7321665896        9.6725457932
H         16.0738936367       25.9626614397        9.8979043110
H         17.1407311786       29.4394979030        7.5776447656
H         22.3283598752       33.3207716773       16.0811406132
H         22.8366892847       31.7970922383       15.3575266380
H         16.4269996252       27.0539320972        7.6873757523
H         22.6123079251       32.8050242994       13.0968561810
H         22.0080103656       35.2315350203       12.8325250124
H         20.6453111804       34.3187120827       13.4978918007
H         21.6329464105       35.3368199095       14.5655237087
H         24.1305165280       34.6484944772       15.0243521840
H         24.7453201078       33.1304539253       14.3355843737
H         24.4008938542       34.5079574915       13.2752653469
H         19.7347931844       34.4646118613       17.4704480333
H         22.2000118681       31.1336511233       18.6756486751
H         23.3151938338       32.5682085658       20.3727303322
H         22.6470546082       34.9545633142       20.6210699812
H         19.7659280937       37.9365983590       18.7673163231
H         20.1264395589       36.8741159439       17.3874471004
H         18.8563553228       36.4228113893       18.5603209960
    84
VM2 Rank=8      G=211.160           E=112.547           -TS=98.613              
C         18.9524753988       24.5418854293        5.6363918027
C         19.2424949745       23.6803879131        6.7163060292
C         18.9965988020       25.9336761646        5.8572881897
C         18.6006946343       24.0117609719        4.2663215891
C         19.5637232736       24.2001814826        7.9814211287
C         19.3193782553       26.4524550490        7.1217819668
O         18.3515286785       24.7652321631        3.3385335679
C         18.5535169790       22.5057589360        4.0337310601
C         19.5997119805       25.5898080256        8.1970720266
N         19.9249476082       26.1155358450        9.4790608630
C         19.4704373840       25.6488312890       10.6985395947
C         20.8372155348       27.2432437468        9.6314495863
O         18.6949526558       24.7295656971       10.8975718972
O         20.0463403527       26.4077306750       11.6736152822
C         20.9541789255       27.4144632993       11.1557586197
C         20.6004663739       28.8411105406       11.6182411879
N         19.5001196393       28.9455820143       12.4410503175
O         21.2084176254       29.8245845943       11.2316259873
C         18.6798653076       30.1628482598       12.5428274757
C         17.1919791437       29.7842304927       12.3409981641
C         18.9312167528       30.9201168821       13.8762905255
C         16.9545137837       28.9996609848       11.0554747856
C         20.4238312527       31.3141552810       14.0389416166
O         18.1275897976       32.1009066030       13.9287304415
C         17.0995391055       29.6289857507        9.8055014971
C         16.6064377372       27.6370236182       11.1057327325
N         20.7383663399       32.1894941366       15.2052735392
C         16.8959371716       28.9056122427        8.6185394455
C         16.3994010793       26.9137228973        9.9194484870
C         22.1308250108       32.7198553643       15.1888821078
S         20.1378568682       31.6524116747       16.7206439582
C         16.5429686839       27.5479427214        8.6756174431
C         22.5059877579       33.5589335720       13.9377365618
O         18.7213709220       32.0404712181       16.7069280639
O         20.5763958541       30.2607551028       16.8775436303
C         20.9354049359       32.6967433221       17.9649042461
C         21.5112015956       34.7206833096       13.7114154932
C         23.9367651017       34.1181356023       14.0886876881
C         20.5139872401       34.0308076262       18.1345365503
C         21.9924077032       32.1942693545       18.7492726990
C         21.1456060958       34.8593999295       19.0825679171
C         22.6200649776       33.0185990418       19.6966675423
C         22.1958905833       34.3473831900       19.8606686599
O         20.7769223633       36.1735066108       19.2823924610
C         19.7464677590       36.8295513746       18.5180155707
H         19.2226142931       22.6021109213        6.5893578895
H         18.7773549335       26.6206758951        5.0435305004
H         19.7864544247       23.5148756700        8.7953170705
H         19.3364867126       27.5294840078        7.2626469101
H         18.2829225982       22.2953668614        2.9924315388
H         19.5349388771       22.0640851644        4.2400630309
H         17.8065904204       22.0484009905        4.6923504225
H         21.8129755455       27.0157332771        9.1839924954
H         20.4145150349       28.1444572497        9.1685341977
H         21.9785328352       27.2000826445       11.4842809526
H         19.0711504622       28.0642655886       12.6959126329
H         18.9595097816       30.8419145321       11.7247581697
H         16.8436259374       29.2093462934       13.2082777180
H         16.5837696356       30.6975457894       12.3217587552
H         18.6509133691       30.2462377121       14.6974438043
H         21.0198873717       30.3949053344       14.1108159244
H         20.7108207408       31.8070937429       13.1041918410
H         18.1846554989       32.4192566692       14.8604226008
H         17.3725065815       30.6796774448        9.7548360187
H         16.4987603248       27.1351082108       12.0635331791
H         17.0100865504       29.3973091928        7.6558063683
H         16.1349839962       25.8600215963        9.9648219826
H         22.2975856979       33.3796247148       16.0473790140
H         22.8400074590       31.8862506689       15.2865198682
H         16.3859415301       26.9865509384        7.7579050068
H         22.5053907249       32.9141422676       13.0486232331
H         20.4955607301       34.3448153436       13.5321884635
H         21.4765231880       35.3865321936       14.5831018255
H         21.8003464167       35.3186932997       12.8379358550
H         24.2320273596       34.6828066090       13.1949687273
H         24.0123198240       34.7901270483       14.9534816388
H         24.6627581456       33.3061475998       14.2243916281
H         19.7028098275       34.4104850371       17.5208730008
H         22.3285463161       31.1676190816       18.6228269837
H         23.4357957494       32.6296641460       20.3015691706
H         22.6834050356       34.9859872454       20.5921272527
H         19.6377252882       37.8699471485       18.8495644810
H         19.9997473637       36.8342423593       17.4498693088
H         18.7815361963       36.3239548627       18.6531965241
    84
VM2 Rank=9      G=211.260           E=112.760           -TS=98.500              
C         18.4058166485       24.5904966708        5.2279578004
C         19.6288501262       25.2777183957        5.0868102843
C         17.5116420518       25.0102229479        6.2361889494
C         18.0842521561       23.4364111229        4.3078318972
C         19.9529339888       26.3526144091        5.9308495209
C         17.8359607511       26.0862835037        7.0790030997
O         18.8632477632       23.0823420162        3.4369572087
C         16.7607253313       22.6964715207        4.4664797560
C         19.0614645335       26.7631256360        6.9384577885
N         19.3880164317       27.8535996686        7.7931732679
C         20.6162524537       28.1006508957        8.3772580343
C         18.4081829194       28.8798784125        8.1294298042
O         21.6242641521       27.4198423051        8.2957083361
O         20.5177548265       29.2686698938        9.0719953356
C         19.1931858001       29.8584482311        9.0230580131
C         18.5771598921       30.0274586184       10.4269976227
N         19.4791193330       30.0579557791       11.4685672777
O         17.3736011707       30.0823866034       10.6184661268
C         19.1315420824       29.7702466511       12.8674097216
C         19.5834874340       28.3303033571       13.2337213175
C         19.7181013109       30.8748532585       13.7920114735
C         19.0999044340       27.2767641535       12.2430918966
C         19.2326260370       30.7606683586       15.2612944421
O         21.1482766194       30.8682287534       13.7497036121
C         17.7307572440       26.9674600047       12.1474394979
C         20.0173026534       26.6101863345       11.4095673040
N         19.8274544562       31.7416927228       16.2137274096
C         17.2836949616       26.0008149298       11.2312141734
C         19.5720895308       25.6402884349       10.4961394965
C         19.5312876211       31.4049771539       17.6325435376
S         19.7692346149       33.3969586746       15.7656779769
C         18.2052165271       25.3335461055       10.4086305491
C         20.3413898968       30.1943922889       18.1657188296
O         20.7887157627       33.5272138136       14.7165531630
O         18.3582728634       33.7342996572       15.5449704365
C         20.4347057314       34.3018465537       17.1836233829
C         21.8635768716       30.4374289674       18.0503450617
C         19.9656899013       29.9118504749       19.6356343526
C         21.7996840376       34.1795433146       17.5105894520
C         19.5950638915       35.1038717170       17.9812631524
C         22.3239004838       34.8514745111       18.6318191744
C         20.1181128253       35.7787858155       19.0958230930
C         21.4791113824       35.6503803151       19.4185255140
O         23.6492550352       34.7547786151       19.0016100200
C         24.6051154602       33.9305684323       18.3061618358
H         20.3354097713       24.9777931737        4.3166750124
H         16.5586835404       24.5095764943        6.3790341188
H         20.9012489094       26.8664498119        5.7956260056
H         17.1304485140       26.3838685110        7.8496458409
H         16.6893943248       21.8922830889        3.7248697838
H         16.6938858525       22.2594988958        5.4691958695
H         15.9244598304       23.3889906815        4.3184230483
H         18.0478552821       29.3796929967        7.2215409772
H         17.5625516876       28.4395078081        8.6731129072
H         19.2405553751       30.8504285856        8.5575992872
H         20.4585904228       30.0176863933       11.2134623747
H         18.0381029062       29.8115176209       12.9685085725
H         20.6785123272       28.3020935962       13.3008447459
H         19.2139966065       28.0671143912       14.2310694817
H         19.3540100400       31.8310523164       13.3916754122
H         18.1396531468       30.8677050505       15.2690528937
H         19.4556778544       29.7459056488       15.6019598859
H         21.4221160849       31.7403538713       14.1176049614
H         17.0120636395       27.4812120303       12.7800744108
H         21.0768516895       26.8455822997       11.4660239921
H         16.2242722157       25.7675853862       11.1614219037
H         20.2861150943       25.1304669267        9.8537978996
H         19.7586907085       32.2432425624       18.2991153957
H         18.4566472314       31.2067064022       17.7470189256
H         17.8610315940       24.5818523698        9.7028086296
H         20.0894802926       29.2978547074       17.5845258882
H         22.4262488658       29.5797355105       18.4402077534
H         22.1631411438       30.5799172520       17.0039664016
H         22.1659072165       31.3270367255       18.6172278743
H         18.8918122268       29.7070008587       19.7335080111
H         20.5077698684       29.0367061449       20.0164522114
H         20.2090197404       30.7670555070       20.2795049415
H         22.4360671681       33.5541140064       16.8921123929
H         18.5389715446       35.2007321885       17.7398767123
H         19.4694750900       36.3976041367       19.7113820281
H         21.8827886258       36.1694958765       20.2834266522
H         24.7070627425       34.2517729908       17.2614552229
H         25.5885773328       34.0094924812       18.7865047067
H         24.2966862035       32.8773114234       18.3266329834
    84
VM2 Rank=10     G=211.268           E=112.781           -TS=98.487              
C         18.3476910627       24.6006340498        5.2331994393
C         19.5285200542       25.3509370424        5.0458807279
C         17.4805128742       24.9648690963        6.2834993704
C         17.9967207567       23.4314720950        4.3433532272
C         19.8318115427       26.4324840893        5.8897951728
C         17.7837682816       26.0469890637        7.1257614300
O         16.9725198932       22.7890265014        4.5133282161
C         18.9386508768       23.0419356586        3.2096003375
C         18.9658164333       26.7869236293        6.9403106911
N         19.2739375528       27.8841064791        7.7933218209
C         20.5125898681       28.1881053094        8.3263250660
C         18.2588263268       28.8549306411        8.1850109707
O         21.5495774388       27.5613771963        8.1916848073
O         20.3854146054       29.3421927011        9.0394622765
C         19.0316192961       29.8634312280        9.0557093465
C         18.4702649823       29.9861553886       10.4871091166
N         19.4144151368       30.0517931203       11.4889184236
O         17.2750519106       29.9774943107       10.7312922063
C         19.1435513733       29.7312624472       12.8975651091
C         19.6867906160       28.3138957437       13.2259098996
C         19.7094842440       30.8560699246       13.8105661671
C         19.2181479550       27.2465539350       12.2428929975
C         19.2932561072       30.7007658351       15.2972225996
O         21.1349305525       30.9262390956       13.7086086838
C         17.8641196067       26.8669653845       12.1990742092
C         20.1337836965       26.6375471894       11.3645833674
N         19.8742395211       31.7026410711       16.2364163793
C         17.4304408606       25.8878374796       11.2896990783
C         19.7022395538       25.6551746033       10.4579533053
C         19.6549400992       31.3367681869       17.6619989218
S         19.7098631095       33.3567464374       15.8109680473
C         18.3506618179       25.2783066097       10.4220823166
C         20.5468789449       30.1639841586       18.1468894017
O         20.6776691815       33.5518060120       14.7236403786
O         18.2751658760       33.6199767224       15.6507230235
C         20.3828351713       34.2822097901       17.2119887504
C         22.0486256455       30.4851788303       17.9707439321
C         20.2484925047       29.8490093106       19.6279056331
C         21.7643803123       34.2297216858       17.4833204650
C         19.5345739605       35.0305945594       18.0515385188
C         22.2968197613       34.9178658943       18.5907611949
C         20.0654290456       35.7217256381       19.1523837952
C         21.4431533740       35.6630052958       19.4195251137
O         23.6391821934       34.8884501004       18.9067626762
C         24.6086360230       34.1228404589       18.1647133881
H         20.2226979073       25.1066807445        4.2473350107
H         16.5634854864       24.4049764503        6.4503933537
H         20.7456041770       26.9965226633        5.7208422815
H         17.0977420202       26.2991320382        7.9294350449
H         18.5362641211       22.1780544150        2.6677627611
H         19.0484221080       23.8781682127        2.5099554853
H         19.9225075048       22.7785670873        3.6139694841
H         17.8335169289       29.3448243119        7.3001228515
H         17.4617385984       28.3658706352        8.7595450793
H         19.0077263167       30.8612327954        8.6010209256
H         20.3824988198       30.0642956225       11.1910802902
H         18.0548610611       29.7125386436       13.0456437475
H         20.7836275515       28.3439053906       13.2465254149
H         19.3747669936       28.0206250121       14.2344419512
H         19.2786479636       31.7955288318       13.4378104263
H         18.1974192240       30.7485141757       15.3516972694
H         19.5845254377       29.6960633970       15.6154607210
H         21.3776343198       31.8078087557       14.0758853916
H         17.1463884300       27.3358101192       12.8667072418
H         21.1811073143       26.9275196390       11.3808503823
H         16.3825555683       25.6002600275       11.2599664636
H         20.4146568453       25.1901517751        9.7807816058
H         19.8672011418       32.1787848764       18.3288272010
H         18.5974393333       31.0826347321       17.8181264439
H         18.0170981103       24.5171440917        9.7212595174
H         20.3160382122       29.2612237602       17.5665862440
H         22.6698479545       29.6537398893       18.3271464234
H         22.2960993164       30.6521868333       16.9144196017
H         22.3293744549       31.3838789085       18.5343753498
H         20.4755457472       30.7093984763       20.2708164693
H         19.1913971547       29.5890028423       19.7682754004
H         20.8495670834       28.9989820034       19.9756335752
H         22.4076538273       33.6450644976       16.8329061399
H         18.4660083135       35.0732955426       17.8532330493
H         19.4101513545       36.2991295506       19.8003008558
H         21.8531346167       36.1945904991       20.2738215965
H         25.6049937013       34.2495087607       18.6067340336
H         24.3573367393       33.0545131464       18.1852650148
H         24.6515808915       34.4587794293       17.1205503774
    84
VM2 Rank=11     G=211.290           E=112.501           -TS=98.789              
C         18.2819119192       24.3072278592        5.4292144741
C         18.1892774221       23.4668609746        6.5595602795
C         18.8323726862       25.5948383090        5.5932981724
C         17.8109723725       23.8622716665        4.0646014252
C         18.6328280700       23.9069230254        7.8179398237
C         19.2767857695       26.0334178569        6.8512703109
O         17.8958093021       24.5965612858        3.0928844735
C         17.2159561641       22.4690615440        3.8934538434
C         19.1753831622       25.1951265016        7.9763871482
N         19.6250037798       25.6386995501        9.2518841218
C         18.9798716865       25.4531275701       10.4600705382
C         20.8892151399       26.3475589437        9.4119294539
O         17.9065123123       24.9067875719       10.6487995649
O         19.7685129900       25.9828325061       11.4368185927
C         20.9732664513       26.6105134304       10.9274866736
C         21.0407812969       28.1105798593       11.2809921036
N         20.2832980203       28.4972230085       12.3655497454
O         21.6791499022       28.9167216567       10.6246067198
C         19.8478174937       29.8785953680       12.6143970458
C         18.3619123256       30.0478733780       12.1989004171
C         20.1311780248       30.2698414137       14.0919942920
C         18.0804977404       29.5830723947       10.7744928253
C         19.8182541999       31.7645994352       14.3707714348
O         19.3821676682       29.4297322627       14.9764797061
C         18.6021562275       30.2953204188        9.6791238012
C         17.3045644282       28.4321072850       10.5424139670
N         20.4182905716       32.3090329183       15.6193419227
C         18.3490663378       29.8636721464        8.3663528118
C         17.0475088003       28.0016903439        9.2302008481
C         21.9030564936       32.2848522012       15.7140733012
S         19.5559812818       32.0436745946       17.0706586154
C         17.5677956030       28.7190045059        8.1416516720
C         22.6387441262       32.9651551234       14.5307359119
O         18.1997375125       32.5300498144       16.7905233726
O         19.8155377180       30.6555619826       17.4743852938
C         20.2770314263       33.2376282685       18.2195669053
C         22.2397494864       34.4527684307       14.3979645321
C         24.1656714938       32.8478815864       14.7203465018
C         20.0808239657       34.6169951131       18.0146181793
C         21.0611781061       32.8009587785       19.3047916827
C         20.6582049853       35.5559453007       18.8827328305
C         21.6389252848       33.7371129813       20.1774745854
C         21.4394641196       35.1121602825       19.9686957657
O         20.4319512750       36.8917408975       18.6241237142
C         20.9818248568       37.9546396539       19.4264405989
H         17.7745144607       22.4666440513        6.4773685577
H         18.9163902782       26.2630847608        4.7396846230
H         18.5538966254       23.2384844887        8.6715794192
H         19.6909136372       27.0332131716        6.9462937841
H         16.9265861809       22.3106479173        2.8480053113
H         17.9540134292       21.7095224548        4.1748983285
H         16.3278875085       22.3608555752        4.5262879175
H         21.7249193336       25.7210814861        9.0757436415
H         20.8777804956       27.2878286967        8.8460608459
H         21.8601474544       26.1267318960       11.3544518050
H         19.7973172008       27.7585972547       12.8598281878
H         20.4473924563       30.5488878743       11.9828962544
H         17.7255142210       29.4962901342       12.9025918633
H         18.0701985557       31.1005730204       12.2915312567
H         21.2037368305       30.1017229333       14.2532466720
H         20.1715669182       32.3547049745       13.5168348571
H         18.7286472695       31.8972493591       14.3949498751
H         19.6552741454       29.6509753310       15.8980915443
H         19.2091685366       31.1809711945        9.8459337580
H         16.9027845480       27.8668727806       11.3792971576
H         18.7564405808       30.4176149309        7.5244209578
H         16.4491414112       27.1102288750        9.0580798983
H         22.2285711996       32.7979392928       16.6275875452
H         22.2498834374       31.2469823328       15.8063380298
H         17.3678967261       28.3865083616        7.1261253689
H         22.3856192704       32.4460267796       13.5963341299
H         21.1649043209       34.5619143372       14.2069852860
H         22.4768795785       35.0085186303       15.3144251080
H         22.7737534744       34.9281016227       13.5653549293
H         24.4926192782       33.3563699861       15.6366869519
H         24.4733509943       31.7963275170       14.7865968884
H         24.7004896275       33.2984105433       13.8743037077
H         19.4835944231       34.9622581037       17.1748264105
H         21.2244782851       31.7382543057       19.4693497840
H         22.2438646513       33.3975511521       21.0149527810
H         21.8958881588       35.8202276652       20.6531705456
H         20.6295593385       37.8797743743       20.4633837270
H         22.0788940359       37.9176025579       19.4195123324
H         20.6686185514       38.9275108702       19.0269926548
    84
VM2 Rank=12     G=211.319           E=112.535           -TS=98.784              
C         18.2753411977       24.2896753282        5.4443047912
C         18.2701927726       23.4385778568        6.5684531131
C         18.7669677157       25.6037717545        5.5984953652
C         17.7620347446       23.7816747434        4.1175057697
C         18.7397678795       23.8871296686        7.8139026561
C         19.2377903235       26.0510926882        6.8441403885
O         17.3411857195       22.6423304895        3.9934201819
C         17.7684334481       24.7074774451        2.9062012268
C         19.2230713674       25.1994466349        7.9639469785
N         19.7001539786       25.6545586763        9.2252814619
C         19.1126681803       25.4279853126       10.4556670632
C         20.9338694687       26.4229182164        9.3431654892
O         18.0754976556       24.8280708051       10.6805427954
O         19.9122378519       25.9880861594       11.4062304689
C         21.0631381059       26.6796133227       10.8566193405
C         21.0680121166       28.1788099833       11.2201852559
N         20.3349350651       28.5189257983       12.3366301012
O         21.6383767169       29.0209368244       10.5465902346
C         19.8407246976       29.8746904701       12.6148481439
C         18.3331115276       29.9716718400       12.2586472264
C         20.1615156060       30.2689231893       14.0839882603
C         18.0200560959       29.5047769722       10.8415505572
C         19.7847995482       31.7437966504       14.3885962623
O         19.4908989137       29.3854075949       14.9888576769
C         18.4612800671       30.2518992590        9.7341278517
C         17.2949881998       28.3176363376       10.6279638781
N         20.4045997991       32.3086546981       15.6182973791
C         18.1786957558       29.8189706306        8.4278111039
C         17.0084543425       27.8856905478        9.3223749277
C         21.8912464030       32.3591505367       15.6557504861
S         19.6138708982       31.9887972703       17.0990895103
C         17.4481617659       28.6378511073        8.2218795066
C         22.5452647196       33.0846243726       14.4514729963
O         18.2246745494       32.4067182258       16.8756786544
O         19.9595379516       30.6129570867       17.4796203893
C         20.3169559381       33.2099083882       18.2304608655
C         22.0669369073       34.5510187336       14.3480099145
C         24.0823653018       33.0435612657       14.5812851388
C         20.0414168245       34.5786781610       18.0468703462
C         21.1649791384       32.8064399949       19.2799141128
C         20.6030064944       35.5397702404       18.9010018783
C         21.7273299858       33.7647293416       20.1385161598
C         21.4485680992       35.1290384923       19.9512165669
O         20.2974890442       36.8638607884       18.6646371351
C         20.8213971171       37.9476960971       19.4562503900
H         17.8995958098       22.4203656454        6.4779546518
H         18.7895115994       26.2920295095        4.7588710452
H         18.7274663573       23.2075921019        8.6622720399
H         19.6051584454       27.0694586808        6.9346836878
H         17.1507236097       25.5902207432        3.1063338427
H         18.7929344958       25.0269813298        2.6844860674
H         17.3642848458       24.1839803334        2.0318976956
H         21.7852691266       25.8398039329        8.9703465976
H         20.8556366684       27.3651837926        8.7860032715
H         21.9892697453       26.2389249598       11.2451750235
H         19.9068205887       27.7531567788       12.8429677095
H         20.3807925306       30.5790232829       11.9669135542
H         17.7532612719       29.3828629055       12.9808033078
H         17.9925346630       31.0074217605       12.3729903638
H         21.2466619586       30.1542384306       14.2021327877
H         20.0745608730       32.3573753425       13.5273065264
H         18.6916584327       31.8208845452       14.4558057255
H         19.7884651598       29.6132545187       15.9012404290
H         19.0286303292       31.1660170391        9.8863392941
H         16.9556974311       27.7256463272       11.4739691902
H         18.5237875623       30.4001320917        7.5764525158
H         16.4497023698       26.9663154178        9.1645028758
H         22.2256320595       32.8813255941       16.5608758658
H         22.2932715510       31.3395584379       15.7249363120
H         17.2252095688       28.3042716863        7.2115692248
H         22.2825912624       32.5602394277       13.5226573080
H         20.9813547178       34.6068974532       14.1994562855
H         22.3111332477       35.1112955852       15.2598476838
H         22.5435881385       35.0589680803       13.4999934681
H         24.4449934624       32.0085071952       14.6258599027
H         24.5605936285       33.5268819574       13.7196045250
H         24.4185477803       33.5611889947       15.4891280480
H         19.3943137821       34.8987473439       17.2344962395
H         21.3896247682       31.7524832996       19.4275509882
H         22.3817004717       33.4507819283       20.9483679054
H         21.8942412085       35.8546701106       20.6242864775
H         20.5138310199       37.8457980803       20.5050445459
H         21.9178108640       37.9687291348       19.4071389406
H         20.4423904497       38.9059166438       19.0790189333
    84
VM2 Rank=13     G=211.371           E=112.303           -TS=99.069              
C         19.0630186874       25.1087789889        5.3135164220
C         18.3542122620       26.2294196027        5.7972769204
C         20.1724396507       24.6465855779        6.0508342826
C         18.6641927845       24.4034648019        4.0386173539
C         18.7459364758       26.8661670099        6.9865799618
C         20.5624365944       25.2828106496        7.2407698777
O         19.2854051637       23.4365161006        3.6266524199
C         17.4621651618       24.9066180586        3.2471838833
C         19.8490227414       26.3952805809        7.7222106647
N         20.2432712835       27.0421700913        8.9271824624
C         20.6411877583       26.4260994441       10.0992557600
C         20.2892277173       28.4960977220        9.0317608595
O         20.6962597912       25.2294532890       10.3252073821
O         20.9705627369       27.4037221964       10.9903191420
C         20.8388975154       28.7428796059       10.4472990756
C         19.9199880741       29.6463885183       11.2920640066
N         19.4558843753       29.0921893582       12.4652294061
O         19.5746848733       30.7565423282       10.9253560942
C         18.2190639752       29.5265322468       13.1351630078
C         17.2843757275       28.3009013353       13.2936491470
C         18.5229635309       30.2399379236       14.4829803233
C         17.0586238652       27.5552082687       11.9827347781
C         19.3380235210       31.5462268238       14.2700761048
O         17.3018760442       30.5505808471       15.1576147550
C         16.3361446101       28.1611905829       10.9384900268
C         17.5843368101       26.2628423113       11.7984762187
N         20.0195390590       32.0654371051       15.4867905236
C         16.1378266414       27.4819620117        9.7248259265
C         17.3833871302       25.5813428637       10.5866877677
C         21.0271051682       31.1704798140       16.1185256193
S         19.0862722814       33.0349206527       16.5391179503
C         16.6587272340       26.1899625848        9.5501727170
C         22.1104687702       30.6241968588       15.1516913288
O         18.5373254831       34.0919912960       15.6814274795
O         18.2212760805       32.1255362410       17.3022382958
C         20.3194730847       33.8416990235       17.5850958655
C         22.9155797354       31.7700714432       14.4972602667
C         23.0665636941       29.6787664046       15.9085930359
C         21.1907511762       34.8005281195       17.0330513726
C         20.4369234005       33.4978474206       18.9457271523
C         22.1704469955       35.4149158038       17.8276620829
C         21.4145957979       34.1117352833       19.7451218078
C         22.2807230569       35.0683435714       19.1894068240
O         22.9949969487       36.3423263285       17.2255997162
C         24.0498165311       37.0313329103       17.9245039314
H         17.4939401731       26.6183810048        5.2608058239
H         20.7385091605       23.7870133757        5.7001562558
H         18.1769460477       27.7217973786        7.3392971006
H         21.4242679107       24.9067067700        7.7860925118
H         16.5596175738       24.8598423425        3.8669224382
H         17.6290889610       25.9424212259        2.9308121773
H         17.3123478251       24.2847518130        2.3568872557
H         20.9563739747       28.9189221583        8.2700453975
H         19.2823770424       28.9202453270        8.9243117944
H         21.8235708189       29.2232982631       10.3941534616
H         19.7982724958       28.1596069302       12.6620170822
H         17.7029871156       30.2520319954       12.4905479407
H         17.7022648869       27.6239032838       14.0492801088
H         16.3151343149       28.6305804460       13.6888147947
H         19.1115247471       29.5402645604       15.0898064520
H         20.0929437647       31.3729146761       13.4962047624
H         18.6683045391       32.3108226345       13.8543887316
H         17.5387391913       30.9268639178       16.0386952381
H         15.9300231964       29.1608437581       11.0677916281
H         18.1520110049       25.7852374332       12.5925326979
H         15.5788503008       27.9557036260        8.9218638474
H         17.7953004741       24.5844835336       10.4493176213
H         21.5543028121       31.7055371572       16.9181933840
H         20.5164676235       30.3253510639       16.5991626025
H         16.5052818816       25.6625162848        8.6120230892
H         21.6294743333       30.0337180962       14.3602136002
H         23.4150669775       32.3853086207       15.2567672242
H         23.6847434052       31.3721933279       13.8232429318
H         22.2655847057       32.4272330742       13.9062028396
H         22.5170831197       28.8397863943       16.3546253290
H         23.8203559099       29.2595259280       15.2297826347
H         23.5929484237       30.2073452330       16.7139565161
H         21.1117729357       35.0656280785       15.9820302923
H         19.7733949067       32.7542885940       19.3815289777
H         21.5032153295       33.8447314846       20.7955871934
H         23.0309954974       35.5304569330       19.8232279793
H         23.6431206180       37.6212432181       18.7561008723
H         24.7836211520       36.3171202696       18.3199900213
H         24.5696032616       37.7145815655       17.2410360341
    84
VM2 Rank=14     G=211.381           E=113.138           -TS=98.243              
C         19.1824092776       24.4478684207        5.4708377225
C         20.4026797457       25.1054295173        5.7270524902
C         18.2293412354       24.3743468452        6.5087520467
C         18.9276058340       23.8430849023        4.1102340921
C         20.6641305610       25.6775335307        6.9830566281
C         18.4924738097       24.9458881926        7.7646319854
O         19.7600258368       23.9097708357        3.2195876534
C         17.6046647229       23.1353225423        3.8395043616
C         19.7096624441       25.6061875995        8.0152744320
N         19.9704199865       26.1970201155        9.2864321494
C         19.6428244415       25.6722796415       10.5246165160
C         20.6159468990       27.5012405158        9.4077354004
O         19.0764302159       24.6180182692       10.7568438976
O         20.0612588262       26.5567457784       11.4743983940
C         20.8208502010       27.6617071764       10.9228372409
C         20.3871112063       29.0395215849       11.4567478496
N         19.4390858657       29.0187461245       12.4558001736
O         20.8079974203       30.0853417156       10.9922942229
C         18.5217754670       30.1392763707       12.7173078836
C         17.0641523758       29.6222234358       12.6528818059
C         18.8538830860       30.8583022265       14.0530597432
C         16.7783785470       28.8521644272       11.3685145047
C         20.3113418326       31.3926539766       14.0629153003
O         17.9526289889       31.9479703164       14.2601475479
C         16.7904146137       29.5158185835       10.1278762104
C         16.5337239727       27.4670506011       11.4083143631
N         20.6788120595       32.2476633938       15.2288301398
C         16.5598074104       28.8033961290        8.9395317880
C         16.2957459843       26.7550390877       10.2214535690
C         22.0018050691       32.9163764706       15.0775047380
S         20.3201004855       31.5925793824       16.7740570328
C         16.3094528503       27.4229991703        8.9863141912
C         22.1343980360       33.8489207503       13.8434676374
O         18.8800879976       31.8279076572       16.9420137096
O         20.9128219561       30.2505869045       16.8109421256
C         21.1476507830       32.6699608540       17.9694911628
C         21.0124184518       34.9121516612       13.8096953451
C         23.5126950096       34.5437433823       13.8543706934
C         20.6213205417       33.9485905252       18.2417669781
C         22.3293255802       32.2509122029       18.6121129435
C         21.2724305776       34.8051092965       19.1509703804
C         22.9767192469       33.1027173098       19.5211615801
C         22.4475857183       34.3760630979       19.7878701812
O         20.8037522333       36.0683847927       19.4462701368
C         19.6378525953       36.6433846859       18.8245210518
H         21.1570723416       25.1740690349        4.9469735404
H         17.2771490235       23.8750946349        6.3562144291
H         21.6183699441       26.1694860476        7.1469700737
H         17.7399413920       24.8720461261        8.5437192788
H         16.7713481147       23.8333570972        3.9780211588
H         17.5840048995       22.7599400597        2.8097202410
H         17.4848620454       22.2899010029        4.5263485156
H         19.9520095937       28.2821899386        9.0131176974
H         21.5793602106       27.5303638483        8.8854054201
H         21.8821067156       27.5309915960       11.1677828638
H         19.1539150865       28.0939770113       12.7549224996
H         18.6386802050       30.8813080146       11.9147875432
H         16.8645566740       28.9918234261       13.5284955754
H         16.3728575697       30.4713080211       12.7276855161
H         18.7388099282       30.1246659114       14.8627063592
H         20.9957080229       30.5352008805       14.0182314515
H         20.4372748142       31.9484501263       13.1277978306
H         18.0885687268       32.2298429667       15.1954238657
H         16.9853752975       30.5840470924       10.0847716913
H         16.5301729630       26.9397510866       12.3584829754
H         16.5729733034       29.3213166209        7.9838446272
H         16.1042473748       25.6856544051       10.2607931266
H         22.2127055440       33.5472331128       15.9478601181
H         22.7933496295       32.1552681422       15.0383357649
H         16.1263597458       26.8730505573        8.0666802187
H         22.0831672082       33.2514227670       12.9234101811
H         20.0230799329       34.4431543911       13.7309141267
H         21.0237873213       35.5274913777       14.7183372484
H         21.1309814231       35.5786780250       12.9460546294
H         23.6319843840       35.1774274615       14.7428351433
H         24.3243161131       33.8047758694       13.8521421376
H         23.6376276164       35.1781614077       12.9674241192
H         19.7137677733       34.2645794543       17.7365421353
H         22.7465533853       31.2679950745       18.4052766847
H         23.8887065040       32.7782043879       20.0167046493
H         22.9501878193       35.0362065143       20.4893817486
H         18.7461953767       36.0401281854       19.0390421901
H         19.4673807819       37.6563382366       19.2105741979
H         19.7709034492       36.7083310319       17.7367728498
    84
VM2 Rank=15     G=211.397           E=111.914           -TS=99.483              
C         17.8801582313       25.3070399004        5.6681693795
C         17.1923809074       24.6737504538        6.7236074815
C         18.9580003739       26.1613776962        5.9854087688
C         17.4537409872       25.0589088570        4.2403951433
C         17.5673137528       24.8894838261        8.0599135134
C         19.3332521418       26.3754221333        7.3221157765
O         16.5218972936       24.3157346623        3.9758699118
C         18.2000110349       25.7484663027        3.1037354386
C         18.6380127055       25.7467872627        8.3714346519
N         19.0194987258       25.9651580181        9.7252611085
C         18.1689695834       26.1703836281       10.7953183976
C         20.4194867441       25.9678862411       10.1332203570
O         16.9516624334       26.2318229610       10.7710831456
O         18.9338570822       26.2828756914       11.9172849225
C         20.3585472442       26.2105903230       11.6532071225
C         21.0973358678       27.4907355774       12.0947416835
N         20.4567375765       28.2405115446       13.0574795533
O         22.1527213528       27.8497547765       11.5992324505
C         20.7249990115       29.6636724630       13.3060936119
C         19.6213160676       30.5332261586       12.6445857558
C         20.8840586604       29.9140846504       14.8322567403
C         19.3991657062       30.2072838049       11.1720633512
C         21.3067891086       31.3746050386       15.1435677303
O         19.6679594355       29.5861098303       15.5112981260
C         20.3890986752       30.5122777940       10.2201236860
C         18.2051593064       29.5916647842       10.7525903880
N         21.7435022625       31.6163835974       16.5481430247
C         20.1869540212       30.2079445201        8.8635699953
C         18.0001035717       29.2905323728        9.3959463574
C         22.9342543051       30.8607311504       17.0149952950
S         20.5552269604       31.8879990858       17.7488374390
C         18.9901174188       29.6011321851        8.4506545814
C         24.1900978253       30.9905695800       16.1133052626
O         20.0141950156       30.5708322145       18.1091376928
O         21.2160289729       32.7588758995       18.7284672770
C         19.3120427775       32.9123112130       16.9256096052
C         24.6399223872       32.4628134814       15.9730752542
C         25.3441630244       30.1434641800       16.6894539126
C         19.5942039763       34.2632389896       16.6411130889
C         18.0740167581       32.3625926594       16.5383487650
C         18.6446158803       35.0612235696       15.9731902665
C         17.1273298221       33.1569775545       15.8726117093
C         17.4143623860       34.5027385669       15.5921201114
O         18.8727974587       36.3866037695       15.6663261814
C         20.0999351660       37.0714210309       15.9850359846
H         16.3599563119       24.0081752850        6.5082760022
H         19.5154183955       26.6684937755        5.2035551877
H         17.0213326611       24.3844597366        8.8526841920
H         20.1633953851       27.0425288345        7.5366427755
H         19.2553725181       25.4536552706        3.1155093425
H         17.7634524194       25.4614907656        2.1399641129
H         18.1282180883       26.8363402785        3.2143315848
H         20.8862562772       25.0005944915        9.9087907473
H         20.9665846337       26.7722108737        9.6250573877
H         20.8000575734       25.3662381572       12.1963782401
H         19.5923924588       27.8589344936       13.4226964333
H         21.6822736103       29.9233847352       12.8330723901
H         18.6820555245       30.4074206692       13.1981923489
H         19.8825738851       31.5940032683       12.7337550592
H         21.6824764655       29.2431203381       15.1757211609
H         22.1262899500       31.6392325137       14.4648714402
H         20.4832563030       32.0454380327       14.8754556816
H         19.8481406142       29.6246774746       16.4796054234
H         21.3183152150       30.9804460684       10.5331956164
H         17.4355235839       29.3422918312       11.4783659862
H         20.9564777248       30.4449016531        8.1332885241
H         17.0760804780       28.8129890941        9.0789556055
H         23.2110461649       31.2146704241       18.0179079216
H         22.6763354584       29.7985939334       17.1225142085
H         18.8307000579       29.3695406496        7.4005917599
H         23.9636718141       30.5939197950       15.1143294617
H         23.8550886810       33.0781633887       15.5160784520
H         24.8795155097       32.8963920036       16.9525009349
H         25.5328879494       32.5405698036       15.3398886903
H         26.2305636150       30.1996232266       16.0445235312
H         25.6311447133       30.4915959186       17.6902151242
H         25.0551027476       29.0873949744       16.7668309966
H         20.5535514686       34.6758438719       16.9380328582
H         17.8480515086       31.3193556255       16.7466056010
H         16.1735542673       32.7299039867       15.5720170329
H         16.6822919940       35.1171562599       15.0753959586
H         20.9530588338       36.5886726552       15.4909279968
H         20.0489733218       38.1125354435       15.6420180163
H         20.2716586726       37.0754704715       17.0692420122
    84
VM2 Rank=16     G=211.412           E=112.339           -TS=99.073              
C         19.0320419452       25.1358308122        5.2987125631
C         20.1464718740       24.6691537617        6.0285924224
C         18.3269109651       26.2529321567        5.7913326238
C         18.5845141632       24.4731980075        4.0170975347
C         20.5394771399       25.3025591866        7.2194967910
C         18.7213583602       26.8864706107        6.9810030077
O         17.6192796294       24.8846294716        3.3928827846
C         19.3504034177       23.2650224746        3.4897564730
C         19.8277794357       26.4127410934        7.7093716429
N         20.2272824295       27.0544850253        8.9154105666
C         20.6318474995       26.4335471975       10.0826464436
C         20.2713320918       28.5079664447        9.0267495020
O         20.6902029902       25.2359160914       10.3025209001
O         20.9640102942       27.4074754101       10.9767285277
C         20.8290602618       28.7488833446       10.4401377145
C         19.9151412354       29.6489843152       11.2938893276
N         19.4573055978       29.0899822548       12.4672503694
O         19.5679026706       30.7606675358       10.9336883536
C         18.2226637108       29.5202817857       13.1438105447
C         17.2909283502       28.2925394033       13.3033774346
C         18.5306474242       30.2312751323       14.4919725103
C         17.0611105543       27.5494810568       11.9916644422
C         19.3442240676       31.5384267927       14.2787450677
O         17.3113940856       30.5397339357       15.1709288438
C         17.5860569531       26.2574030170       11.8032455371
C         16.3359409631       28.1578163802       10.9506488701
N         20.0239810012       32.0597515358       15.4955402182
C         17.3817740205       25.5785531327       10.5905213230
C         16.1343877997       27.4812816576        9.7360240487
C         21.0306613009       31.1659761721       16.1302374746
S         19.0898235925       33.0314648163       16.5449627164
C         16.6547047074       26.1896309932        9.5571409454
C         22.1162746435       30.6195466078       15.1660516287
O         18.5392215139       34.0850820427       15.6840885125
O         18.2261804320       32.1234686508       17.3112490523
C         20.3226075003       33.8432441499       17.5875190436
C         22.9220661799       31.7654338106       14.5124831643
C         23.0713214054       29.6752335175       15.9256709224
C         21.1938616948       34.7996150696       17.0311955823
C         20.4397712133       33.5057811571       18.9497670917
C         22.1732718992       35.4178747697       17.8231430207
C         21.4171179274       34.1236133335       19.7465218302
C         22.2832312813       35.0777454248       19.1865361446
O         22.9978600033       36.3425384072       17.2169200343
C         24.0525937733       37.0347620530       17.9127664473
H         20.7195082337       23.8136916023        5.6836109409
H         17.4645750285       26.6338467603        5.2495453997
H         21.4038763822       24.9255081711        7.7601613888
H         18.1527231998       27.7401668963        7.3387853559
H         19.3254772954       22.4548524096        4.2272222850
H         18.8946769747       22.9094221870        2.5582765611
H         20.3924361324       23.5398180336        3.2910299397
H         20.9330350596       28.9357530356        8.2630590906
H         19.2630383652       28.9306938719        8.9274766713
H         21.8134316861       29.2294889258       10.3832154445
H         19.8008395810       28.1566320924       12.6583401571
H         17.7023920332       30.2463004172       12.5031641107
H         17.7132667897       27.6146028220       14.0556847811
H         16.3227299070       28.6194863756       13.7033413126
H         19.1217153994       29.5309448946       15.0956123513
H         20.1002499707       31.3651137605       13.5059325810
H         18.6740125395       32.3017258714       13.8614808428
H         17.5503747518       30.9174456328       16.0508028763
H         18.1557653589       25.7779922623       12.5947502073
H         15.9303424708       29.1572625203       11.0831360763
H         17.7931627048       24.5819366239       10.4498896388
H         15.5734899385       27.9568637744        8.9354849540
H         21.5558300665       31.7020773681       16.9305533270
H         20.5194745042       30.3210018024       16.6105697060
H         16.4988562050       25.6643895373        8.6180991550
H         21.6372084984       30.0282597916       14.3739753240
H         22.2729064023       32.4217056870       13.9195186202
H         23.4195093743       32.3815864741       15.2725917438
H         23.6929410674       31.3675352801       13.8404361945
H         22.5213846152       28.8362798972       16.3711916105
H         23.8267796448       29.2559159643       15.2487648090
H         23.5957077172       30.2047243992       16.7317388598
H         21.1150978000       35.0597440824       15.9789172414
H         19.7762506552       32.7641637784       19.3888761805
H         21.5054968325       33.8615905628       20.7982603058
H         23.0332466869       35.5429789738       19.8183735013
H         23.6457881222       37.6285413667       18.7415514986
H         24.7863210411       36.3223756216       18.3116761769
H         24.5724983964       37.7148114989       17.2262035262
    84
VM2 Rank=17     G=211.419           E=111.931           -TS=99.487              
C         17.9760238378       25.3797551685        5.5994009439
C         17.1519291169       24.8352156664        6.6077517603
C         19.1048291097       26.1300901455        5.9874915178
C         17.6791865609       25.1777539956        4.1320846538
C         17.4498721985       25.0406011314        7.9653066160
C         19.4026684270       26.3337806696        7.3447493222
O         18.3987286551       25.6522798611        3.2673916266
C         16.4564223897       24.3664734780        3.7185139867
C         18.5739871873       25.7958182666        8.3462056101
N         18.8746693473       26.0020306033        9.7221528845
C         17.9721335928       26.3084434644       10.7232085773
C         20.2346503844       25.8780039305       10.2335034637
O         16.7714850792       26.4853024716       10.6075046438
O         18.6601684156       26.3682719302       11.8977557882
C         20.0866343970       26.1549450084       11.7416076565
C         20.9116707083       27.3669360597       12.2211352856
N         20.2781629006       28.1932128244       13.1240975486
O         22.0301848164       27.6136647880       11.8012330848
C         20.6638470877       29.5889647118       13.3737566222
C         19.6986558621       30.5466160826       12.6233625460
C         20.7382767490       29.8527201142       14.9041186355
C         19.5504675360       30.2143118229       11.1429697127
C         21.2763334911       31.2723172906       15.2265251558
O         19.4514900116       29.6550818448       15.4979749478
C         20.6308716707       30.4015509684       10.2615653446
C         18.3342145813       29.7100176711       10.6459730676
N         21.6362486537       31.4981573924       16.6553148985
C         20.4965657603       30.0906634218        8.8981043671
C         18.1973213271       29.4027008577        9.2821443658
C         22.7144821893       30.6424767133       17.2139759545
S         20.3992349249       31.9029142972       17.7658846525
C         19.2779456276       29.5954266506        8.4073480684
C         24.0360014608       30.6359852078       16.4011931166
O         19.7107267698       30.6497812204       18.1021644850
O         21.0710582394       32.7248242165       18.7797295647
C         19.3201027444       33.0255263694       16.8452344081
C         24.6329409410       32.0562493819       16.2745908233
C         25.0615556104       29.6948681437       17.0674796383
C         19.7498884881       34.3379897319       16.5654522606
C         18.0645302618       32.5891134473       16.3783896595
C         18.9297514791       35.2103158219       15.8231332779
C         17.2467639424       33.4576300250       15.6385192858
C         17.6806067762       34.7645682537       15.3631413943
O         19.3050190195       36.5020816390       15.5175516134
C         20.5676916701       37.0725672387       15.9133071631
H         16.2743630805       24.2484458867        6.3532037383
H         19.7575286489       26.5606400070        5.2319265416
H         16.8011222580       24.6066387521        8.7219560417
H         20.2765842076       26.9213930921        7.6113557408
H         15.5462782419       24.8355614267        4.1089616155
H         16.3892813870       24.3201456447        2.6252900689
H         16.5334259925       23.3464230940        4.1114571383
H         20.6201378718       24.8661029234       10.0564444931
H         20.8931904879       26.6158841198        9.7577515024
H         20.4034907972       25.2829944069       12.3265875403
H         19.3566385199       27.9032110295       13.4286553713
H         21.6726851912       29.7472748630       12.9678640752
H         18.7149823863       30.5218596682       13.1094601994
H         20.0541795325       31.5791886909       12.7175051713
H         21.4423209806       29.1157545663       15.3125638548
H         22.1622319405       31.4454317617       14.6040725140
H         20.5411580706       32.0128077824       14.8928619808
H         19.5661686719       29.6942541625       16.4761866117
H         21.5772840365       30.7828686396       10.6351147202
H         17.4940413733       29.5519154356       11.3170784237
H         21.3357557320       30.2361059143        8.2226510630
H         17.2554786162       29.0113472154        8.9051614087
H         22.9542078469       30.9876966778       18.2293931486
H         22.3495297484       29.6116696844       17.3162617904
H         19.1715190920       29.3587809093        7.3516727397
H         23.8419581731       30.2434925223       15.3937943451
H         25.5706443770       32.0372696764       15.7047552534
H         23.9437409785       32.7341255032       15.7559852114
H         24.8449711012       32.4838627959       17.2629527056
H         25.9914962393       29.6548055709       16.4857562519
H         25.3109915577       30.0333739586       18.0815171476
H         24.6683458739       28.6724643492       17.1374900573
H         20.7217593628       34.6627948243       16.9242296257
H         17.7254117632       31.5761378730       16.5824823648
H         16.2792690746       33.1178340064       15.2766774738
H         17.0483734930       35.4362748803       14.7890932832
H         20.6409149956       38.1073181026       15.5553891335
H         20.6642994009       37.0801598297       17.0067495855
H         21.4021747839       36.5017022763       15.4858012999
    84
VM2 Rank=18     G=211.423           E=112.871           -TS=98.552              
C         18.2620118198       24.6126690894        5.2318728275
C         19.4772491609       25.3072515765        5.0498087987
C         17.4064433555       25.0192461306        6.2761384741
C         17.8627130885       23.4585970120        4.3427048060
C         19.8251673840       26.3758736402        5.8929644154
C         17.7543730491       26.0884271455        7.1176570140
O         16.8089867523       22.8645139219        4.5080559949
C         18.7923304662       23.0230557979        3.2155480383
C         18.9703503389       26.7725946679        6.9375055417
N         19.3237760350       27.8566464857        7.7897479558
C         20.5721206803       28.1048820289        8.3289934465
C         18.3521502728       28.8740315368        8.1734800142
O         21.5799480864       27.4308199484        8.2017826912
O         20.4941718058       29.2655428119        9.0385245250
C         19.1656327319       29.8483169348        9.0460779734
C         18.6029027510       30.0003269453       10.4741236398
N         19.5438890781       30.0264733218       11.4807152492
O         17.4072668937       30.0460582825       10.7119858459
C         19.2516349348       29.7235606110       12.8889866417
C         19.7249712866       28.2829293042       13.2243528821
C         19.8663523227       30.8229484901       13.8014692127
C         19.2123407704       27.2360507119       12.2413185089
C         19.4464844906       30.6825193127       15.2892519462
O         21.2938343116       30.8286790609       13.6993055732
C         17.8423367455       26.9199135303       12.1909997286
C         20.1032824906       26.5826673557       11.3695312967
N         20.0500558513       31.6801122399       16.2207276294
C         17.3683494064       25.9596372166       11.2816418309
C         19.6312596102       25.6190555345       10.4629414662
C         19.7857891250       31.3915675935       17.6588257589
S         19.9558557374       33.3229005195       15.7307035771
C         18.2637857197       25.3055239340       10.4205812261
C         20.2769747364       30.0066353380       18.1597695786
O         21.0467982948       33.4729890165       14.7587534897
O         18.5504050934       33.5750445634       15.3913698529
C         20.4234115095       34.3021609841       17.1791642591
C         21.7789296185       29.7921721619       17.8617694364
C         20.0213685913       29.8744977609       19.6762597692
C         21.7788117557       34.3976164530       17.5533374992
C         19.4396187441       34.9509390438       17.9513616932
C         22.1498388756       35.1368243306       18.6936174278
C         19.8091053594       35.6904208953       19.0861069262
C         21.1614167146       35.7812855897       19.4541235506
O         23.4604469085       35.2555689567       19.1070853055
C         24.5610572454       34.6084522135       18.4389566814
H         20.1640637988       25.0291739069        4.2559719988
H         16.4636074031       24.5026728099        6.4388826654
H         20.7649552482       26.8967518186        5.7280837737
H         17.0760175903       26.3740358134        7.9166294107
H         18.3538211352       22.1770908873        2.6734728114
H         18.9445084899       23.8514350295        2.5144999373
H         19.7606654564       22.7158635444        3.6264169338
H         17.9545922450       29.3805860627        7.2850771869
H         17.5303494340       28.4235385379        8.7447215923
H         19.1899593170       30.8449888808        8.5889430016
H         20.5131339308       29.9947348547       11.1880785070
H         18.1626109977       29.7573453224       13.0319783597
H         20.8218507794       28.2609288641       13.2518960764
H         19.3928350551       28.0077849375       14.2316341560
H         19.4771307224       31.7797043913       13.4271157655
H         18.3517421933       30.7484596331       15.3460881119
H         19.7279504209       29.6742136913       15.6034747213
H         21.5834799846       31.6866025586       14.0889222080
H         17.1436765676       27.4235501404       12.8535036830
H         21.1628883751       26.8235295636       11.3908478644
H         16.3083637201       25.7211704036       11.2468469835
H         20.3248347417       25.1194840838        9.7908346129
H         20.2891222730       32.1287315954       18.2938919030
H         18.7091108381       31.4834219778       17.8579271347
H         17.8988505028       24.5588458802        9.7198121796
H         19.7013132704       29.2119305178       17.6671125272
H         21.9781079708       29.8149088783       16.7825651552
H         22.3903481765       30.5713736301       18.3344705494
H         22.1176035305       28.8189984605       18.2392063908
H         20.5810705923       30.6310008709       20.2416106584
H         18.9552691421       29.9977686040       19.9065965630
H         20.3283657626       28.8853626448       20.0397911846
H         22.5289313444       33.8891099108       16.9554291729
H         18.3903321485       34.8797697056       17.6740320108
H         19.0488280383       36.1906961841       19.6813347369
H         21.4470002835       36.3516145670       20.3337179139
H         25.5021453465       34.8425464255       18.9525009814
H         24.4298825927       33.5185527729       18.4424618652
H         24.6419948365       34.9542610476       17.4002723874
    84
VM2 Rank=19     G=211.455           E=112.888           -TS=98.567              
C         19.0959977194       24.4211006508        5.4496621083
C         20.3548194487       24.9828017638        5.7518324436
C         18.1039252175       24.4228153572        6.4508283420
C         18.7933804248       23.8238881638        4.0955267499
C         20.6094320575       25.5331829601        7.0193250611
C         18.3600208647       24.9722072782        7.7175707557
O         17.7012133724       23.3390877141        3.8450152999
C         19.8712599552       23.8242581239        3.0173180592
C         19.6140990714       25.5366433667        8.0151006610
N         19.8717982872       26.1064748292        9.2965020214
C         19.4573242889       25.6102225338       10.5203768351
C         20.6122207081       27.3563543993        9.4451365932
O         18.8012693561       24.6041008399       10.7289470144
O         19.9082194397       26.4596346830       11.4871822688
C         20.7752459924       27.4987270729       10.9670933254
C         20.4381508207       28.9072260957       11.4905965602
N         19.4645486823       28.9630232454       12.4634118407
O         20.9534559941       29.9156718059       11.0388351230
C         18.6304267424       30.1525235929       12.6980262489
C         17.1397626367       29.7586798406       12.5599989831
C         18.9585686108       30.8279178581       14.0570142402
C         16.8520098009       29.0221860012       11.2564314897
C         20.4528461459       31.2381656225       14.1414693075
O         18.1401064976       31.9843274049       14.2426423517
C         16.4794160585       27.6654087211       11.2728534877
C         16.9898696923       29.6853789790       10.0231170613
N         20.8298555050       32.0805356336       15.3119593812
C         16.2395133106       26.9817000677       10.0698676981
C         16.7577002438       29.0004709408        8.8190004822
C         22.1806524184       32.6847696813       15.1603882604
S         20.4125581935       31.4750855789       16.8611426705
C         16.3796048302       27.6488590402        8.8422003168
C         22.2273119993       33.8507138125       14.1385656045
O         18.9571442103       31.6532711160       16.9438771865
O         21.0578755429       30.1651604091       17.0053670600
C         21.0977879803       32.6686113719       18.0348196390
C         21.2534836577       34.9853759805       14.5306631245
C         23.6635416736       34.4055367897       14.0332978477
C         20.5649217349       33.9714155501       18.0952490046
C         22.1785354768       32.3171408372       18.8671849793
C         21.1114062785       34.9213917556       18.9797313253
C         22.7198979323       33.2617449794       19.7537540507
C         22.1864305784       34.5600295591       19.8071257537
O         20.6349452186       36.2128573214       19.0677278314
C         19.5734453285       36.7213206709       18.2362635502
H         21.1489818542       24.9990221984        5.0113478082
H         17.1253329666       23.9947147155        6.2474481271
H         21.5916579136       25.9502075175        7.2214015257
H         17.5742059749       24.9565935407        8.4665050862
H         19.4871618971       23.3573507095        2.1028455986
H         20.1724415214       24.8529233105        2.7893108296
H         20.7455583998       23.2604692378        3.3616781195
H         21.5928297840       27.3113029599        8.9571117258
H         20.0250927768       28.1869480697        9.0306154715
H         21.8126557463       27.2804910911       11.2490553014
H         19.0982942188       28.0640110758       12.7526388399
H         18.8447650070       30.8909348756       11.9125133873
H         16.8475256973       29.1420522144       13.4192402320
H         16.5184639449       30.6619142495       12.6107863192
H         18.7483811880       30.0977267502       14.8505018933
H         21.0612791325       30.3241032248       14.1488183255
H         20.6881447152       31.7616534336       13.2081652529
H         18.2435775259       32.2245500247       15.1930182234
H         16.3776173038       27.1379906207       12.2174910765
H         17.2840564703       30.7312268349        9.9982291817
H         15.9485004414       25.9344993474       10.0911048797
H         16.8685720622       29.5175980863        7.8692452080
H         22.5448765939       33.0922489139       16.1093354098
H         22.8995394724       31.9082516539       14.8643999610
H         16.1954043978       27.1205585109        7.9101343885
H         21.9444206218       33.4802380651       13.1445010375
H         20.2163002574       34.6265344557       14.5505217514
H         21.4953268360       35.3890752805       15.5220004615
H         21.3032074049       35.8093670915       13.8076328281
H         24.0049991355       34.8098016815       14.9951163537
H         24.3656190573       33.6198502188       13.7258027494
H         23.7180416879       35.2106492224       13.2892881710
H         19.7359585127       34.2327121253       17.4447418324
H         22.6000054319       31.3153888808       18.8242299874
H         23.5542965431       32.9900234417       20.3960349251
H         22.6082886041       35.2921177095       20.4901859613
H         19.3752659105       37.7724000228       18.4814376805
H         19.8495303115       36.6624541318       17.1754923034
H         18.6486996137       36.1518298895       18.3959246722
    84
VM2 Rank=20     G=211.464           E=113.095           -TS=98.369              
C         18.9034185459       24.5037505149        5.5516312136
C         19.3914106163       23.6800445925        6.5888792772
C         18.8068049080       25.8908459640        5.7849716619
C         18.4880910304       23.9386187226        4.2137191718
C         19.7679043587       24.2315703730        7.8249939627
C         19.1848868121       26.4415416594        7.0203005362
O         18.0673553752       24.6595608976        3.3227528761
C         18.5937539773       22.4377525953        3.9675559320
C         19.6630347567       25.6155869802        8.0538240169
N         20.0445388749       26.1735016295        9.3063635951
C         19.7637850544       25.6552803321       10.5570158670
C         20.8305529987       27.3993883361        9.3870325963
O         19.1220145103       24.6517303862       10.8160086009
O         20.3374325252       26.4743904847       11.4834828524
C         21.0699082807       27.5807488291       10.8958198244
C         20.5987805182       28.9558351314       11.4074204109
N         19.5868501599       28.9295434075       12.3421347508
O         21.0406617791       30.0042635879       10.9694214616
C         18.6435421960       30.0405741548       12.5437158154
C         17.1975403369       29.4906625476       12.4747444992
C         18.9318487701       30.8102655665       13.8621719953
C         16.9317461178       28.6928781314       11.2029359697
C         20.3736741691       31.3842455796       13.8884363562
O         17.9978636166       31.8812561870       14.0223257861
C         16.8874052344       29.3431177378        9.9560343392
C         16.7460375233       27.2991169521       11.2612747841
N         20.6689822464       32.2737606631       15.0408101270
C         16.6569115037       28.6093323666        8.7804324966
C         16.5120823847       26.5650156040       10.0866843353
C         21.8820014462       33.1019714905       14.8418766550
S         20.2747336478       31.7007449333       16.6088603370
C         16.4663123755       27.2199227695        8.8461384197
C         21.5838651654       34.6169031286       14.9615642788
O         18.8515305262       32.0256674033       16.7688081782
O         20.7871201925       30.3266208243       16.6620899563
C         21.2220981459       32.7031036833       17.7847562202
C         22.8987814980       35.4230073200       14.9822458589
C         20.6771818679       35.1019273975       13.8085509422
C         20.6535077197       33.8645706623       18.3461915373
C         22.5246078035       32.3171797376       18.1603894598
C         21.3916883523       34.6508686542       19.2524142031
C         23.2592720721       33.0974674800       19.0669485047
C         22.6929546243       34.2629784697       19.6076464267
O         20.8878644113       35.8052516129       19.8146883960
C         19.5936609704       36.3456345181       19.4839355139
H         19.4845706686       22.6069951704        6.4507514520
H         18.4340336423       26.5490347566        5.0039036276
H         20.1439999774       23.5754879181        8.6058835952
H         19.0905259169       27.5130220797        7.1724690505
H         18.2524799009       22.1990683822        2.9534785757
H         19.6347180296       22.1129254696        4.0758067794
H         17.9700989044       21.8954768037        4.6871706567
H         21.7795885728       27.2875795214        8.8476711190
H         20.2647586960       28.2459887628        8.9768027105
H         22.1384979856       27.4863410384       11.1246802794
H         19.2953078683       28.0037622135       12.6313083047
H         18.7626510566       30.7551923688       11.7169016944
H         17.0027013653       28.8725031231       13.3601366373
H         16.4878970230       30.3260395918       12.5292675593
H         18.8204047748       30.0993842342       14.6923921887
H         21.0857152451       30.5484853810       13.8856164354
H         20.5231332966       31.9372133274       12.9514018863
H         18.1280307205       32.2204689458       14.9390673949
H         17.0339515998       30.4184168689        9.8987361600
H         16.7856789452       26.7816815180       12.2160444122
H         16.6243739867       29.1173988472        7.8199835323
H         16.3736961632       25.4877547111       10.1378848699
H         22.6661457654       32.8138467891       15.5524895243
H         22.3057102574       32.9258941281       13.8435293953
H         16.2885078620       26.6505587022        7.9371714713
H         21.0591389289       34.8115652198       15.9037848425
H         23.5308293341       35.1186432878       15.8267090237
H         23.4702900026       35.2739698117       14.0570007159
H         22.6975370492       36.4968057220       15.0876931950
H         20.4639047532       36.1742347085       13.9027557193
H         21.1525306792       34.9344542907       12.8336611008
H         19.7163921283       34.5706861547       13.8117511105
H         19.6454623235       34.1508867646       18.0628172326
H         22.9685845968       31.4154924183       17.7445186677
H         24.2663166527       32.8003427115       19.3499831490
H         23.2622689280       34.8687357434       20.3072228236
H         19.4191708852       37.2723513643       20.0451133268
H         19.5324013052       36.5762980984       18.4124199737
H         18.7984098668       35.6341589889       19.7414777675
    84
VM2 Rank=21     G=211.470           E=112.965           -TS=98.505              
C         18.3262585702       24.6040360336        5.2244049471
C         19.5787567279       25.2372972481        5.0893826173
C         17.4455771149       25.0635347391        6.2271539013
C         17.9599834468       23.4637837121        4.3037455688
C         19.9445643197       26.2981619706        5.9341200674
C         17.8116646780       26.1255750836        7.0706419160
O         18.7275710931       23.0752463735        3.4374496103
C         16.6048697729       22.7819670520        4.4560489697
C         19.0662131182       26.7483068091        6.9363125827
N         19.4351736208       27.8245622621        7.7918100399
C         20.6698565649       28.0187985032        8.3822229355
C         18.4989634482       28.8926835905        8.1220136999
O         21.6477851146       27.2947824338        8.3067868854
O         20.6184609531       29.1908384185        9.0752569774
C         19.3208883958       29.8372456107        9.0190425309
C         18.7056512418       30.0339336040       10.4197204944
N         19.6029867886       30.0272932490       11.4657117963
O         17.5045974294       30.1402468080       10.6051384925
C         19.2366152746       29.7575863442       12.8633415531
C         19.6205370790       28.2990088743       13.2336717668
C         19.8690567469       30.8354637775       13.7893092565
C         19.0956213332       27.2671222433       12.2413373428
C         19.3811985129       30.7358388762       15.2595190332
O         21.2979136820       30.7665362172       13.7471242610
C         17.7146205891       27.0185633412       12.1392980060
C         19.9866619328       26.5599069697       11.4127247946
N         19.9970617214       31.7121615116       16.2053864395
C         17.2296796360       26.0717400181       11.2216449157
C         19.5034094132       25.6097664556       10.4978713873
C         19.6581708431       31.4546034403       17.6336816462
S         20.0089329535       33.3517534329       15.6961469567
C         18.1247522604       25.3636032767       10.4040362454
C         20.0612805329       30.0543431537       18.1693856595
O         21.1416851222       33.4326070943       14.7646469275
O         18.6326762418       33.6748045235       15.3017623341
C         20.4763594926       34.3211128583       17.1512239265
C         21.5624703381       29.7656213160       17.9376185998
C         19.7362847365       29.9531445225       19.6749302908
C         21.8191331659       34.3405869741       17.5787405248
C         19.5034831082       35.0376886001       17.8758213689
C         22.1884340846       35.0715117537       18.7248841781
C         19.8715185194       35.7690899455       19.0162737003
C         21.2111924056       35.7840471724       19.4376090555
O         23.4863488705       35.1171234665       19.1897307023
C         24.5710790046       34.3943703388       18.5753150944
H         20.2758826796       24.9059636353        4.3235343425
H         16.4709791958       24.6049599176        6.3651744818
H         20.9150623535       26.7701055064        5.8036799831
H         17.1154544897       26.4545447885        7.8369691047
H         16.5028724523       21.9805158764        3.7150603683
H         16.5137695842       22.3497698148        5.4589247816
H         15.8001331573       23.5097584070        4.3025520219
H         18.1654584486       29.4067028705        7.2118104454
H         17.6321698262       28.4899330797        8.6615231409
H         19.4134536076       30.8258467396        8.5531897174
H         20.5811526033       29.9451442417       11.2156395385
H         18.1457712212       29.8490253282       12.9596039502
H         20.7127274896       28.2211695248       13.3074954933
H         19.2332416237       28.0542036870       14.2290105181
H         19.5458168941       31.8061558007       13.3889307189
H         18.2900083731       30.8593115187       15.2695650620
H         19.5960228220       29.7183024924       15.5958104081
H         21.6150771463       31.6139276616       14.1383578752
H         17.0163147624       27.5642047027       12.7680520242
H         21.0552951162       26.7483045641       11.4741471027
H         16.1613323071       25.8854877106       11.1469019871
H         20.1972749250       25.0682679634        9.8593707316
H         20.1682215865       32.1749790112       18.2824375339
H         18.5795803668       31.5995857680       17.7851272219
H         17.7510729232       24.6271340376        9.6971666443
H         19.4696707785       29.2816230043       17.6609272233
H         21.8383944019       28.7824826510       18.3395202933
H         21.8073388401       29.7651142378       16.8676064439
H         22.1899840466       30.5211609620       18.4273354650
H         18.6685565124       30.1294476480       19.8584803660
H         19.9802355170       28.9551767326       20.0613717245
H         20.3072337511       30.6892879920       20.2557006184
H         22.5603765051       33.7801902339       17.0172500105
H         18.4636341478       35.0254386849       17.5571652830
H         19.1197088560       36.3218059781       19.5747360322
H         21.4954512423       36.3480832105       20.3216783604
H         24.7146454739       34.7190213325       17.5365720868
H         25.5034238097       34.5784810059       19.1239575830
H         24.3732415083       33.3146347726       18.5870641803
    84
VM2 Rank=22     G=211.473           E=112.913           -TS=98.560              
C         19.1160557922       24.4511993716        5.4261013234
C         20.3637010887       25.0414336230        5.7125800414
C         18.1386612002       24.4217921646        6.4433635102
C         18.8585043602       23.8694111643        4.0560222656
C         20.6283749136       25.5909015106        6.9779772222
C         18.4049892183       24.9706055680        7.7086715333
O         19.7119388089       23.8975655192        3.1833948222
C         17.5060557939       23.2344327002        3.7525809892
C         19.6498095343       25.5638635154        7.9895543882
N         19.9145633433       26.1319300656        9.2702833246
C         19.5330648413       25.6178130456       10.4974781525
C         20.6264819656       27.3986982051        9.4149719667
O         18.9054470084       24.5945187615       10.7100109118
O         19.9789938407       26.4719888058       11.4623755620
C         20.8109497472       27.5357963214       10.9349745641
C         20.4470786072       28.9320825579       11.4730708197
N         19.4883470469       28.9572523774       12.4618019857
O         20.9293873620       29.9560027152       11.0196895290
C         18.6286183617       30.1238712723       12.7178435767
C         17.1462327847       29.6932800878       12.6022401912
C         18.9624231364       30.7992524679       14.0754640021
C         16.8549793325       28.9578410137       11.2988539359
C         20.4471151197       31.2465799666       14.1377763334
O         18.1183785529       31.9335185131       14.2819929332
C         16.9550573091       29.6319392983       10.0678126392
C         16.5165571685       27.5921082238       11.3125899860
N         20.8223004929       32.0913095229       15.3071563570
C         16.7192831903       28.9489699595        8.8632979405
C         16.2730362558       26.9101314752       10.1093461655
C         22.1546996934       32.7304437138       15.1370307568
S         20.4464459329       31.4663864332       16.8592123595
C         16.3752590234       27.5882490404        8.8839457761
C         22.1548034364       33.9032658367       14.1220414716
O         18.9885464876       31.6067820851       16.9671129652
O         21.1272618861       30.1725935921       16.9846222386
C         21.1204436042       32.6702946023       18.0287763774
C         21.1594649347       35.0106010980       14.5375529750
C         23.5746418491       34.4948195312       13.9963852954
C         20.5556201316       33.9586685205       18.1059744233
C         22.2234763549       32.3418324313       18.8410617152
C         21.0923352464       34.9172453895       18.9871502151
C         22.7552395726       33.2948938420       19.7243840958
C         22.1898157354       34.5787791132       19.7945037647
O         20.5846438511       36.1955771865       19.0908868443
C         19.4969160826       36.6814777909       18.2800817536
H         21.1370513364       25.0748511238        4.9489351968
H         17.1648257402       23.9747571200        6.2673094624
H         21.6036717004       26.0303694115        7.1653327691
H         17.6331540963       24.9319319409        8.4712494886
H         17.4874223417       22.8671090520        2.7198564211
H         17.3272265456       22.3922721341        4.4305403187
H         16.7080330736       23.9747514106        3.8788412795
H         20.0125106469       28.2171160782        9.0153964205
H         21.5997360073       27.3806461968        8.9107290097
H         21.8580331959       27.3421780447       11.1985610999
H         19.1496197503       28.0475118615       12.7510251333
H         18.8110561232       30.8721141968       11.9335784716
H         16.8842299265       29.0641693622       13.4621825094
H         16.5033290293       30.5801755058       12.6694265970
H         18.7839657056       30.0592911381       14.8676685709
H         21.0783817013       30.3481442973       14.1292907278
H         20.6535571632       31.7813270641       13.2040271794
H         18.2316826112       32.1706224204       15.2320273310
H         17.2226225180       30.6849569793       10.0448807276
H         16.4441054730       27.0564572234       12.2553000431
H         16.8008970358       29.4746323996        7.9152652835
H         16.0085144772       25.8558950612       10.1286113122
H         22.5243964684       33.1413356383       16.0823843678
H         22.8878764914       31.9741586853       14.8241861145
H         16.1881848636       27.0614040061        7.9516712059
H         21.8646379008       33.5316845647       13.1304906631
H         20.1321256953       34.6255454951       14.5724464951
H         21.4077471283       35.4143956908       15.5272589624
H         21.1762403853       35.8398620599       13.8190463271
H         23.9219505477       34.9018540843       14.9549344793
H         24.2909980348       33.7289678117       13.6722312460
H         23.5963385681       35.3054645477       13.2567156848
H         19.7095725064       34.2023851205       17.4708206700
H         22.6695675124       31.3514531383       18.7850204030
H         23.6068527617       33.0409432657       20.3511548677
H         22.6041727552       35.3175040102       20.4750054448
H         19.2761277820       37.7257356524       18.5348982467
H         19.7567987000       36.6357305066       17.2145806799
H         18.5897400927       36.0876405015       18.4514118437
    84
VM2 Rank=23     G=211.474           E=113.662           -TS=97.812              
C         19.2888980626       24.9876172015        5.2258629115
C         18.2416502609       25.4674310076        6.0390714043
C         20.5386087970       24.7213163838        5.8262937353
C         19.0520153964       24.7723638917        3.7495271584
C         18.4361693619       25.6759697724        7.4141537476
C         20.7322585936       24.9309570636        7.2021703358
O         17.9674373413       25.0057161525        3.2397643836
C         20.1876040726       24.2525320977        2.8751224302
C         19.6824094459       25.4087399452        8.0072878472
N         19.8818774302       25.6314403602        9.3977914161
C         19.0200623462       25.2755936251       10.4177491757
C         21.0633662477       26.3261094763        9.8960828329
O         17.9739169674       24.6576351420       10.3190776015
O         19.5748650498       25.6933206100       11.5906653151
C         20.8052987160       26.4427578972       11.4094709272
C         20.6785120586       27.9058395327       11.8815112873
N         19.5660003933       28.1909626037       12.6398584185
O         21.4822916720       28.7716954794       11.5777255857
C         19.0975690388       29.5509851642       12.9348554264
C         17.5506944491       29.5962835190       12.8576949560
C         19.6751538199       30.0464920118       14.2905019866
C         17.0306928816       29.1420551737       11.4998039776
C         19.4082257072       31.5586542905       14.5148686484
O         19.1382668277       29.2809455052       15.3739497906
C         17.0831489316       30.0131151252       10.3964069953
C         16.5133323261       27.8441386056       11.3317180618
N         20.2638591946       32.1958342881       15.5522884000
C         16.6197944461       29.5930972117        9.1384125505
C         16.0486053132       27.4235962473       10.0747380854
C         21.7330126103       32.1711234825       15.3160982736
S         19.7467352838       32.0521282847       17.1742360681
C         16.1004367048       28.2985874961        8.9777136319
C         22.1779438620       32.7542477219       13.9500319782
O         18.3625413260       32.5399445493       17.1637174723
O         20.0895684338       30.6957077867       17.6209630804
C         20.6992495470       33.3220667586       18.0367746025
C         21.7424134995       34.2299129979       13.7979347208
C         23.7097466086       32.6425008770       13.8015858171
C         20.5163523135       34.6785354873       17.7038339170
C         21.6476391726       32.9640078202       19.0144430355
C         21.2783217240       35.6747950188       18.3446620216
C         22.4027817518       33.9570394182       19.6586408255
C         22.2166936338       35.3081417270       19.3224819681
O         21.1468489695       37.0152072365       18.0470057484
C         20.2831294096       37.5108579525       17.0054514467
H         17.2686515392       25.6813783993        5.6034435123
H         21.3715132387       24.3498566043        5.2367434660
H         17.6135548080       26.0479189389        8.0175789696
H         21.7028088147       24.7136084244        7.6397357049
H         21.0327002894       24.9494804340        2.9054203903
H         20.5168674870       23.2707058325        3.2335162550
H         19.8473097672       24.1543240708        1.8376487496
H         21.9682724800       25.7357414105        9.7072299045
H         21.1560125890       27.3119681524        9.4213262992
H         21.6202372040       25.9797420762       11.9790795521
H         18.9575581333       27.4119861739       12.8567890847
H         19.4846752864       30.2164461349       12.1500750777
H         17.1247782057       28.9716203674       13.6534182219
H         17.1980529082       30.6155695762       13.0540529523
H         20.7600011995       29.8892692316       14.2353423029
H         19.5550217378       32.0795524164       13.5612829612
H         18.3493044710       31.6958020258       14.7702749172
H         19.6001996916       29.5672385190       16.1969030892
H         17.4864789996       31.0153836351       10.5135019455
H         16.4749127656       27.1583589065       12.1738792607
H         16.6632962411       30.2704814951        8.2892291076
H         15.6526594377       26.4183925436        9.9515333393
H         22.2480097399       32.7509656509       16.0921801374
H         22.1046624693       31.1418322640       15.4075280799
H         15.7408496506       27.9737622916        8.0045345127
H         21.7289198030       32.1658431292       13.1380168811
H         20.6509427220       34.3303319081       13.8447873203
H         22.1730684817       34.8524027603       14.5928843127
H         22.0710119392       34.6367663627       12.8331288495
H         24.0352358160       31.5967031055       13.8744505183
H         24.0368399010       33.0251441029       12.8262125208
H         24.2279181323       33.2157171332       14.5813300079
H         19.7879075195       34.9407150801       16.9426336503
H         21.8000532186       31.9183590414       19.2722775952
H         23.1341994964       33.6805058132       20.4143791210
H         22.8042338452       36.0761701183       19.8178873753
H         20.5690295897       37.0904468604       16.0324498582
H         19.2368341159       37.2512333820       17.2123038235
H         20.3589901009       38.6037978485       16.9430968512
    84
VM2 Rank=24     G=211.494           E=112.620           -TS=98.874              
C         18.4313508448       24.2640156625        5.4742139406
C         19.2872181238       23.5764736366        6.3614901880
C         18.2016183172       25.6378668064        5.6924299309
C         17.7653679758       23.5688721990        4.3100912906
C         19.8919208534       24.2470737463        7.4378494490
C         18.8075821689       26.3077393137        6.7677995239
O         17.0271029238       24.1726357136        3.5478268031
C         18.0167800684       22.0829072201        4.0797340047
C         19.6537438615       25.6165721412        7.6539190858
N         20.2679144079       26.2942912506        8.7444743181
C         20.3960099552       25.8223678553       10.0372389463
C         20.8728533977       27.6111297762        8.5821939159
O         19.9868600073       24.7634731530       10.4816988629
O         21.0876427222       26.7537381488       10.7519348975
C         21.4153265072       27.9413188211        9.9857027313
C         20.7923131435       29.2149703612       10.5935262693
N         20.4747461900       29.1370011793       11.9324127384
O         20.5488651728       30.2118342105        9.9338189694
C         19.5061802542       30.0172989776       12.6007662639
C         18.1583578022       29.2718880700       12.7927505623
C         20.1089277602       30.5678277754       13.9237142577
C         17.6185264482       28.6663464537       11.5019921974
C         19.1799987129       31.6131193427       14.5980500217
O         20.3852161561       29.4905944716       14.8249437749
C         17.1594872922       29.4987741684       10.4648732068
C         17.5832138992       27.2697151221       11.3322351520
N         19.8366733094       32.4668873091       15.6255436858
C         16.6682010904       28.9416647048        9.2723942964
C         17.0885867261       26.7113303688       10.1419463353
C         20.9718617867       33.3123760839       15.1660704067
S         19.9590694021       31.8181582889       17.2019366962
C         16.6285862808       27.5473823216        9.1125845218
C         20.6564952645       34.2185994812       13.9478449668
O         18.5919347671       31.4077461292       17.5437502415
O         21.0753744116       30.8638961061       17.1816777792
C         20.3151421373       33.2601336376       18.2321352293
C         19.4964653397       35.1933805041       14.2538710232
C         21.9148730589       35.0141533875       13.5418325760
C         21.5969856329       33.4329311306       18.7914149997
C         19.3188955700       34.2299017586       18.4570753629
C         21.8805902691       34.5691918393       19.5747778874
C         19.6005614867       35.3619652499       19.2378780607
C         20.8792208119       35.5284030278       19.7944130037
O         23.1181045422       34.7891751071       20.1431842509
C         24.2332531458       33.8908779868       19.9819873738
H         19.4937474802       22.5186991281        6.2285388489
H         17.5472683687       26.1925809821        5.0243082469
H         20.5500538050       23.6951439002        8.1041640187
H         18.6060095748       27.3653405828        6.9126217712
H         19.0851343166       21.9054023212        3.9125568743
H         17.6879476960       21.5077858789        4.9526355950
H         17.4594928662       21.7401769502        3.2000980543
H         21.6863104657       27.5709117224        7.8469608693
H         20.1203597224       28.3442825159        8.2649100456
H         22.5024798592       28.0831108950        9.9558117512
H         20.7259670562       28.2764097426       12.4039252964
H         19.3174325231       30.8813903751       11.9486229519
H         18.2853978201       28.4855800711       13.5477410942
H         17.4097353042       29.9614647713       13.2000674410
H         21.0498531992       31.0619574147       13.6495513168
H         18.7597598322       32.2551205434       13.8147819671
H         18.3250289210       31.0879884276       15.0438416238
H         20.8471053829       29.8711589412       15.6090206925
H         17.1890113918       30.5787083052       10.5812125861
H         17.9430370750       26.6147195002       12.1214105115
H         16.3165145650       29.5904856642        8.4742704415
H         17.0663250112       25.6314563115       10.0164561837
H         21.2979160407       33.9742799678       15.9779811069
H         21.8327918841       32.6739232579       14.9267135152
H         16.2447843768       27.1151695020        8.1918803128
H         20.3760024162       33.5929035220       13.0896439616
H         18.5732728406       34.6518302514       14.4948381049
H         19.7394661695       35.8406142648       15.1064373045
H         19.2872521654       35.8359326510       13.3891613570
H         22.7424101345       34.3382951883       13.2903920727
H         21.7156619827       35.6382086632       12.6611088766
H         22.2483270983       35.6725658302       14.3545094371
H         22.3607271082       32.6834168724       18.6085133095
H         18.3295904980       34.1056859130       18.0222612166
H         18.8304832352       36.1101775325       19.4101250559
H         21.0980855596       36.4051096236       20.3977259965
H         23.9928078477       32.8978532871       20.3833369005
H         24.5013483694       33.7915893810       18.9221485551
H         25.1071746645       34.2765217150       20.5221166764
    84
VM2 Rank=25     G=211.500           E=112.023           -TS=99.477              
C         17.9792569790       25.4469517770        5.5894209210
C         17.1078305107       24.9441123371        6.5772574237
C         19.1341085369       26.1445603871        6.0040766276
C         17.6614291037       25.2293411061        4.1287463525
C         17.3791165650       25.1349167386        7.9421144764
C         19.4054239701       26.3336545345        7.3693745952
O         16.6613239157       24.6220792828        3.7799799411
C         18.6066061508       25.7773504118        3.0653860230
C         18.5279434954       25.8363071999        8.3503315433
N         18.8044304885       26.0291508423        9.7332247965
C         17.8935359006       26.3803043190       10.7117432285
C         20.1436573679       25.8390167957       10.2779303267
O         16.7062416864       26.6157520144       10.5664753729
O         18.5545638587       26.4077206457       11.9028906329
C         19.9723771197       26.1250956393       11.7818597027
C         20.8433171704       27.2963635841       12.2810087946
N         20.2288557720       28.1536747722       13.1680492305
O         21.9823904284       27.4879140300       11.8884648943
C         20.6761457268       29.5290970873       13.4275330069
C         19.7782163567       30.5320840558       12.6531693901
C         20.7246199981       29.7904195918       14.9593769611
C         19.6510369427       30.2059334941       11.1694664060
C         21.3255275903       31.1813052010       15.2958914300
O         19.4148630693       29.6578087840       15.5201431211
C         20.7605498186       30.3409803200       10.3151082614
C         18.4247775651       29.7598498210       10.6423177915
N         21.6501853091       31.3940199346       16.7350747610
C         20.6452254858       30.0362268325        8.9485263731
C         18.3070579318       29.4587125460        9.2753241028
C         22.6597970543       30.4822390286       17.3319491739
S         20.4018681732       31.8723703735       17.8031509643
C         19.4168444806       29.5994322743        8.4275409994
C         24.0047533544       30.3969873785       16.5632260528
O         19.6411116828       30.6580968266       18.1263760018
O         21.0832818798       32.6673125072       18.8320474882
C         19.4071901483       33.0378049489       16.8413551768
C         24.6856402725       31.7803398781       16.4531457375
C         24.9524540042       29.4017093314       17.2651514843
C         19.9029217376       34.3280835954       16.5703876008
C         18.1499035257       32.6575847063       16.3324222351
C         19.1561781968       35.2323310821       15.7998712500
C         17.3995423920       33.5589230866       15.5606633388
C         17.8995027000       34.8442443175       15.2935239439
O         19.7007335320       36.4780086182       15.5670000500
C         19.0436620516       37.4918279611       14.7819220141
H         16.2122168433       24.4003524135        6.2865877030
H         19.8323391868       26.5477802800        5.2767074839
H         16.6913903663       24.7324304243        8.6814849813
H         20.2990483605       26.8793143630        7.6590133072
H         18.6834757705       26.8665407108        3.1581802545
H         19.6016991688       25.3341500795        3.1845720062
H         18.2283482688       25.5334915679        2.0657630102
H         20.4829656458       24.8090649809       10.1107044134
H         20.8493380011       26.5427919361        9.8183824780
H         20.2321131215       25.2397126990       12.3747611894
H         19.2871605663       27.9092577833       13.4500739288
H         21.7014579719       29.6373238866       13.0472875825
H         18.7826151724       30.5562149331       13.1143714738
H         20.1814770832       31.5460801734       12.7562652794
H         21.3800809577       29.0194923163       15.3856266459
H         22.2392161456       31.3049541341       14.7024692375
H         20.6420194074       31.9582760758       14.9365462795
H         19.5054088229       29.6979853921       16.5008250570
H         21.7145258757       30.6770343060       10.7121436710
H         17.5617272387       29.6423662712       11.2924053389
H         21.5067709499       30.1413017237        8.2940628692
H         17.3571925289       29.1125330043        8.8749943054
H         22.8850783227       30.8189346255       18.3535240191
H         22.2341623547       29.4741308129       17.4257092965
H         19.3252566946       29.3678656772        7.3693966259
H         23.8218240351       30.0120771853       15.5508422559
H         24.0533001505       32.4944033466       15.9111129983
H         24.8896767032       32.1990814138       17.4469738093
H         25.6386302212       31.7057385616       15.9140739728
H         24.4994386979       28.4036629948       17.3243850155
H         25.8972292693       29.3063540707       16.7146031012
H         25.1872899618       29.7296097185       18.2861370771
H         20.8745415382       34.6289990009       16.9531901118
H         17.7571942133       31.6625471061       16.5284097878
H         16.4308159491       33.2604286240       15.1670301270
H         17.3050736027       35.5262048230       14.6937707516
H         19.6671379060       38.3936111211       14.7349699671
H         18.8732978489       37.1383409481       13.7567349317
H         18.0790848406       37.7642576237       15.2295082443
    84
VM2 Rank=26     G=211.503           E=112.017           -TS=99.486              
C         18.0878640076       25.4976906177        5.5269259153
C         17.1035462376       25.0967143698        6.4557817743
C         19.2689549152       26.0928850277        6.0153925373
C         17.9061348032       25.3043973325        4.0397974749
C         17.2973153809       25.2904724673        7.8337596207
C         19.4624342627       26.2849317205        7.3930851300
O         18.7637628519       25.6543293193        3.2444164910
C         16.6266008489       24.6606862340        3.5174952923
C         18.4752165033       25.8908381647        8.3145530334
N         18.6702506512       26.0850677076        9.7110974751
C         17.7292558802       26.5375802371       10.6168053002
C         19.9444817459       25.7843333306       10.3531624919
O         16.5821318602       26.8778859406       10.3832984756
O         18.3044358532       26.5280536556       11.8519665741
C         19.6942284698       26.1121460729       11.8373643411
C         20.6343344170       27.2053706985       12.3855674256
N         20.0420781612       28.1324307740       13.2157362480
O         21.8115548266       27.2822011213       12.0748927929
C         20.5974657850       29.4648768973       13.4902379734
C         19.8543324786       30.5325562278       12.6419183329
C         20.5633367267       29.7488308439       15.0184029245
C         19.8004003028       30.1915185517       11.1570744743
C         21.2671745905       31.0839568405       15.3802190332
O         19.2110597193       29.7489346504       15.4862031799
C         20.9746959896       30.2043360246       10.3824332394
C         18.5769280000       29.8530292037       10.5495082467
N         21.5131828408       31.2900861263       16.8358629087
C         20.9265180892       29.8848551600        9.0151986083
C         18.5267421957       29.5374566429        9.1816226900
C         22.3916008166       30.2995141504       17.5097593268
S         20.2457745732       31.8987248183       17.8110852836
C         19.7014245418       29.5557666767        8.4135434650
C         23.7709191425       30.0774262469       16.8350008056
O         19.3539647616       30.7657517963       18.0916859800
O         20.9274498734       32.6421105264       18.8776676345
C         19.4330497142       33.1373773182       16.7729086408
C         24.5835431294       31.3899952703       16.7562845872
C         24.5729832128       29.0111718996       17.6103763954
C         20.0651295726       34.3717442912       16.5263321622
C         18.1831630853       32.8685756468       16.1814081721
C         19.4607804623       35.3303628725       15.6988115725
C         17.5750700133       33.8245853232       15.3523468155
C         18.2105762914       35.0537281515       15.1100047762
O         20.1344646097       36.5164353520       15.4941905199
C         19.6296878050       37.5762776989       14.6588138580
H         16.1803692017       24.6317232293        6.1230013372
H         20.0443586111       26.4107520004        5.3225875082
H         16.5252523090       24.9686810486        8.5280867549
H         20.3810381715       26.7514182810        7.7375545229
H         15.7582287403       25.2603170257        3.8128342400
H         16.6576630876       24.5983411172        2.4234468481
H         16.5223473730       23.6493449468        3.9263458043
H         20.1991678497       24.7250674620       10.2228320285
H         20.7422507892       26.4130357465        9.9374690096
H         19.8260403727       25.2170037598       12.4572395678
H         19.0637422358       27.9823864637       13.4311519672
H         21.6524631002       29.4702519210       13.1828064196
H         18.8358180820       30.6582027103       13.0309552610
H         20.3434711859       31.5062193780       12.7610144766
H         21.1121666990       28.9283176462       15.4992047122
H         22.2260632244       31.1129417836       14.8492267583
H         20.6843714958       31.9143273377       14.9668229370
H         19.2366655695       29.7972645693       16.4703712851
H         21.9263872370       30.4564151877       10.8421962795
H         17.6633191558       29.8303216375       11.1377840701
H         21.8377790007       29.8950085306        8.4226343232
H         17.5784454305       29.2746891579        8.7189902524
H         22.5788341186       30.6314908068       18.5405152879
H         21.8686627512       29.3366880519       17.5854875439
H         19.6623026752       29.3127553711        7.3546806052
H         23.6206893299       29.6937066133       15.8167999212
H         25.5591481676       31.2185954450       16.2838755953
H         24.0579305793       32.1499640685       16.1649174075
H         24.7592049033       31.8050773170       17.7570432436
H         25.5392899875       28.8196934610       17.1262433510
H         24.7689029974       29.3334562959       18.6413103327
H         24.0260407136       28.0603078254       17.6495945570
H         21.0323781066       34.5863959306       16.9729727293
H         17.6862496348       31.9174454158       16.3579330333
H         16.6116052460       33.6119715486       14.8951722570
H         17.7250194947       35.7793344988       14.4651398779
H         20.3368028597       38.4153312983       14.6479120229
H         19.4961370549       37.2262911702       13.6269921095
H         18.6670692670       37.9434477680       15.0376468629
    84
VM2 Rank=27     G=211.513           E=113.152           -TS=98.361              
C         18.9020969624       24.5416094187        5.5227548255
C         18.7016519259       25.9136180579        5.7867698697
C         19.5232318043       23.7513179590        6.5115725928
C         18.4714949700       23.9098873744        4.2199166666
C         19.1107351141       26.4754880442        7.0075298997
C         19.9303701308       24.3135478369        7.7326252158
O         18.6518941387       22.7226735519        3.9994969092
C         17.7978089451       24.7692005701        3.1559002971
C         19.7227747078       25.6799479617        7.9934723166
N         20.1345678314       26.2517191891        9.2300050599
C         19.9778523658       25.6950784680       10.4858099202
C         20.8190747364       27.5384195303        9.2843799824
O         19.4396572377       24.6376468473       10.7654951146
O         20.5384173869       26.5475192277       11.3899444616
C         21.1364133996       27.7199967825       10.7786860887
C         20.5834861103       29.0429380963       11.3431954059
N         19.6374842067       28.9179049209       12.3370820479
O         20.9072003162       30.1309856551       10.8986001743
C         18.6191509320       29.9421514250       12.6176953716
C         17.2227651026       29.2727636728       12.6273414609
C         18.9246213599       30.7146113801       13.9306648800
C         16.9448664751       28.4734500214       11.3590873656
C         20.3119751154       31.4086233054       13.8791235067
O         17.9161091596       31.6999762592       14.1694624203
C         16.7646813561       29.1353812792       10.1307085594
C         16.8831945140       27.0681435564       11.4011646070
N         20.6036696698       32.3024642890       15.0290181485
C         16.5221623745       28.4014879997        8.9575836753
C         16.6374386719       26.3336139229       10.2292609711
C         21.7264361742       33.2354901341       14.7726560418
S         20.3578579599       31.6745505183       16.6063381313
C         16.4556082618       26.9999861375        9.0074480127
C         21.3096994079       34.7166893222       14.9476936532
O         18.9266268967       31.8813253779       16.8621867113
O         20.9797072485       30.3453246595       16.5976738549
C         21.2982451312       32.7289807321       17.7416118265
C         22.5502330678       35.6323478465       14.9043799058
C         20.2918730417       35.1433526403       13.8666140859
C         20.6768398294       33.8287811968       18.3675574516
C         22.6499908544       32.4442865352       18.0214537627
C         21.4085129646       34.6555967680       19.2424630499
C         23.3786891459       33.2648510675       18.8967185740
C         22.7578426334       34.3693036785       19.5018702171
O         20.8521480199       35.7535980399       19.8649089927
C         19.4988423417       36.1913687429       19.6340779139
H         18.2270301017       26.5584544059        5.0532404813
H         19.6925450593       22.6920336567        6.3340398291
H         18.9359318689       27.5325842270        7.1870710399
H         20.4098516980       23.6807406264        8.4750864214
H         16.8744823939       25.2039186532        3.5550823234
H         18.4710056711       25.5758797128        2.8445857339
H         17.5508463774       24.1571562795        2.2805702811
H         21.7385459044       27.5138803172        8.6860045957
H         20.1601875175       28.3395046792        8.9248493788
H         22.2213946820       27.7145251918       10.9398112238
H         19.4435904086       27.9668887657       12.6263127407
H         18.6257782493       30.6758697425       11.7990966622
H         17.1365511658       28.6278072931       13.5108586118
H         16.4505969911       30.0441742690       12.7418140479
H         18.9258987678       29.9848932976       14.7519642259
H         21.0900972500       30.6366457064       13.8153035877
H         20.3547442958       31.9863390382       12.9460900501
H         18.0759072534       32.0369685222       15.0823163141
H         16.8147535555       30.2200509224       10.0858073841
H         17.0284991884       26.5423269661       12.3410069364
H         16.3841629309       28.9187281595        8.0115112076
H         16.5952059621       25.2477858440       10.2675830185
H         22.5774133323       33.0026547472       15.4241739049
H         22.0964944398       33.1151632322       13.7451372430
H         16.2684597161       26.4305210129        8.1004754557
H         20.8329799614       34.8479468579       15.9256984043
H         23.0706916103       35.5502901604       13.9414152193
H         22.2661782518       36.6827109412       15.0482946531
H         23.2595297592       35.3677589073       15.6994484399
H         19.3818669657       34.5312973419       13.9177956142
H         19.9950393531       36.1913294959       14.0001905442
H         20.7150846017       35.0358284081       12.8597654265
H         19.6321368281       34.0365706930       18.1581447211
H         23.1362575496       31.5902230830       17.5553739475
H         24.4232105849       33.0461379296       19.1056924506
H         23.3222301035       35.0063022638       20.1772732198
H         19.3462394055       36.4365937938       18.5749848991
H         18.7833712667       35.4118057048       19.9261966937
H         19.2883172951       37.0896107340       20.2282274160
    84
VM2 Rank=28     G=211.539           E=112.673           -TS=98.866              
C         18.4461440995       24.2449881363        5.4861292457
C         19.3300803770       23.5767923707        6.3580684541
C         18.1885998565       25.6146118144        5.7100084601
C         17.8040263540       23.4895185194        4.3464385141
C         19.9383177221       24.2556100475        7.4267593015
C         18.7985164594       26.2931122349        6.7782007930
O         18.0353469069       22.3054445677        4.1591507217
C         16.8473133081       24.2171347081        3.4085202049
C         19.6737509738       25.6189548012        7.6493812968
N         20.2902411518       26.3079056491        8.7314992703
C         20.4476813413       25.8370398504       10.0213910088
C         20.8656407689       27.6370207751        8.5620350021
O         20.0672460765       24.7693872037       10.4703591843
O         21.1306637996       26.7816376781       10.7269872171
C         21.4205584580       27.9773952432        9.9582356041
C         20.7774354206       29.2356367612       10.5771585177
N         20.4814062717       29.1486378348       11.9204138590
O         20.5016803533       30.2275738856        9.9227600640
C         19.5040421359       30.0065600193       12.6048397776
C         18.1754930851       29.2319477290       12.8146792035
C         20.1141516218       30.5669892885       13.9202477393
C         17.6291683330       28.6187852270       11.5302815847
C         19.1731054275       31.5907483208       14.6106324379
O         20.4265101200       29.4939251791       14.8146508126
C         17.1347776300       29.4441804650       10.5038534283
C         17.6227192857       27.2223098514       11.3557740854
N         19.8261559521       32.4555234476       15.6312051708
C         16.6368636825       28.8802022868        9.3173658466
C         17.1216273152       26.6569677012       10.1714879472
C         20.9368371776       33.3257522300       15.1582541339
S         19.9841641082       31.8056824805       17.2039626937
C         16.6261000429       27.4859364719        9.1529381950
C         20.5853077777       34.2284815987       13.9473593399
O         18.6309229595       31.3654696691       17.5635234968
O         21.1200647570       30.8754028202       17.1656531459
C         20.3237553659       33.2523929745       18.2330785733
C         19.4096461480       35.1779326454       14.2727564438
C         21.8208893890       35.0512894443       13.5259404836
C         21.6091103376       33.4507889004       18.7755453127
C         19.3104750720       34.2004371754       18.4739751934
C         21.8793080388       34.5908745217       19.5580905267
C         19.5787954755       35.3363061992       19.2539509341
C         20.8610608537       35.5282758470       19.7937152249
O         23.1194600053       34.8354554642       20.1104684686
C         24.2508382039       33.9609799606       19.9322730807
H         19.5488118702       22.5223611158        6.2076714851
H         17.5149295944       26.1677204629        5.0623863950
H         20.6185198149       23.7157504266        8.0806177091
H         18.5771995622       27.3458468947        6.9298456655
H         17.3663428713       25.0451849948        2.9127546958
H         16.4733326414       23.5259893827        2.6441582026
H         15.9962215849       24.6122558027        3.9745392402
H         21.6696035833       27.6138251633        7.8157086991
H         20.0940895355       28.3548254407        8.2556599586
H         22.5036719940       28.1439414136        9.9132000600
H         20.7589984827       28.2933732184       12.3868088694
H         19.2873378442       30.8677844157       11.9576085517
H         18.3306568623       28.4463518323       13.5651449556
H         17.4185638857       29.9041661742       13.2354291630
H         21.0402139480       31.0817223782       13.6336596601
H         18.7284227014       32.2257615991       13.8352016919
H         18.3357678339       31.0466023876       15.0669535280
H         20.8912071406       29.8825564932       15.5930888767
H         17.1417320957       30.5240943280       10.6238635341
H         18.0098954237       26.5729244309       12.1366002234
H         16.2576258256       29.5236553854        8.5275585483
H         17.1216951689       25.5772958161       10.0423063901
H         21.2605497043       33.9921072798       15.9674590850
H         21.8073922581       32.7060642234       14.9048045663
H         16.2370437453       27.0483307455        8.2370521543
H         20.3057350022       33.5993836042       13.0913472835
H         19.1748240011       35.8183963472       13.4130877015
H         18.5014684113       34.6165157625       14.5250502474
H         19.6511522609       35.8277036727       15.1238170890
H         22.6586934408       34.3935777857       13.2607511309
H         21.5961666628       35.6734365198       12.6500189218
H         22.1520649729       35.7143170340       14.3357924105
H         22.3858919638       32.7179495309       18.5803979081
H         18.3182222482       34.0564592866       18.0521666306
H         18.7955575715       36.0677295849       19.4385320322
H         21.0695688550       36.4079356199       20.3963971828
H         25.1236356517       34.3635652370       20.4617533213
H         24.0364795971       32.9622619039       20.3342773022
H         24.5068388059       33.8696677148       18.8687335791
    84
VM2 Rank=29     G=211.557           E=113.227           -TS=98.330              
C         19.1579045360       24.4134571097        5.4959292472
C         20.3847420013       25.0616621593        5.7531562514
C         18.2005635695       24.3570498054        6.5288224314
C         18.8533136312       23.7850142069        4.1564486328
C         20.6419021209       25.6392594353        7.0079661451
C         18.4592479056       24.9337504066        7.7828347726
O         17.7890192464       23.2254420945        3.9448533574
C         19.8937301960       23.8482888486        3.0438456693
C         19.6810476385       25.5842262414        8.0355739929
N         19.9404227122       26.1813499170        9.3041194689
C         19.6002979918       25.6686415304       10.5440076976
C         20.5984014575       27.4798498449        9.4203392289
O         19.0216604810       24.6219778388       10.7803492193
O         20.0226969471       26.5552063956       11.4900795899
C         20.7983162938       27.6473137591       10.9353273623
C         20.3795334732       29.0337042147       11.4588262684
N         19.4249389220       29.0310762292       12.4518046286
O         20.8172317557       30.0712262324       10.9913154123
C         18.5202835559       30.1647615293       12.7003889525
C         17.0564809889       29.6671891906       12.6235835533
C         18.8494324213       30.8840748783       14.0366674886
C         16.7735036894       28.8938249205       11.3405531686
C         20.3135011746       31.3997646742       14.0577902685
O         17.9604257113       31.9859033489       14.2320956123
C         16.5067711728       27.5129664661       11.3858372958
C         16.8108402713       29.5493788610       10.0961005233
N         20.6812984929       32.2527059286       15.2251206113
C         16.2720030535       26.7972824727       10.2005581665
C         16.5835420403       28.8331294434        8.9094177322
C         22.0139884337       32.9045432402       15.0856099202
S         20.2987728306       31.6056737076       16.7680523197
C         16.3111984316       27.4570945831        8.9615950559
C         22.1740457023       33.8263801833       13.8467717036
O         18.8619275498       31.8670356632       16.9242858999
O         20.8669478989       30.2532306995       16.8096509912
C         21.1381859476       32.6671151731       17.9695560197
C         21.0662266700       34.9034537731       13.7910050096
C         23.5607951324       34.5038583398       13.8704296760
C         20.6283850140       33.9514275078       18.2465723810
C         22.3129030901       32.2295346670       18.6126176859
C         21.2889570461       34.7950532552       19.1610169158
C         22.9698352115       33.0685925311       19.5266493535
C         22.4571177271       34.3476203613       19.7981254514
O         20.8363579946       36.0629700922       19.4614758189
C         19.6773018675       36.6549382390       18.8428730484
H         21.1518400432       25.1249332845        4.9871063296
H         17.2472730364       23.8619579956        6.3603053263
H         21.5995215337       26.1235342916        7.1751876703
H         17.7007743000       24.8716540008        8.5571102971
H         19.5131817260       23.3481340367        2.1456125479
H         20.1170508296       24.8928102634        2.7989954002
H         20.8147805743       23.3480107137        3.3635769775
H         21.5642936210       27.4965155708        8.9020863873
H         19.9438109177       28.2649155809        9.0183314150
H         21.8567491007       27.5048673608       11.1858920328
H         19.1258176918       28.1118219442       12.7542948624
H         18.6548853578       30.9022511646       11.8964664074
H         16.8393674871       29.0444165654       13.5004848700
H         16.3761083513       30.5259931366       12.6866607987
H         18.7176261598       30.1546940171       14.8476037756
H         20.9872836834       30.5335952740       14.0210504289
H         20.4544929038       31.9517189347       13.1225424670
H         18.0923881122       32.2702131814       15.1672110618
H         16.4835796377       26.9917653662       12.3390886863
H         17.0230525926       30.6141334754       10.0487995278
H         16.0632665645       25.7312952362       10.2440943185
H         16.6163683847       29.3447139087        7.9507957169
H         22.2209380233       33.5392936244       15.9541354286
H         22.7967471484       32.1337674107       15.0620656038
H         16.1307242587       26.9041860936        8.0431738006
H         22.1270943752       33.2228228704       12.9304340134
H         20.0719871825       34.4465523810       13.7034479763
H         21.0742002770       35.5255391294       14.6950767838
H         21.2040121865       35.5618077870       12.9239548713
H         23.6767943355       35.1423956865       14.7558499328
H         24.3629526664       33.7547459805       13.8838306764
H         23.7050405477       35.1302291801       12.9806980594
H         19.7260990627       34.2817875031       17.7411131209
H         22.7174043073       31.2420607975       18.4022331189
H         23.8764618157       32.7297610510       20.0224466262
H         22.9670286054       34.9978405233       20.5036198931
H         19.5193703133       37.6681519427       19.2335509907
H         19.8106524750       36.7231572469       17.7553653470
H         18.7784524964       36.0616301042       19.0551252527
    84
VM2 Rank=30     G=211.559           E=111.482           -TS=100.078             
C         19.0831070487       25.7998187963        5.4214459884
C         19.8593075323       25.4861123885        6.5558289669
C         17.9287911968       26.5932534262        5.5956096089
C         19.4987354459       25.2847203734        4.0635571361
C         19.4954791226       25.9530651197        7.8293837785
C         17.5662953636       27.0610966022        6.8698232364
O         20.4986491119       24.5983052482        3.9235040991
C         18.6556964748       25.6278404120        2.8404737311
C         18.3487403085       26.7506619667        7.9971022817
N         17.9787526997       27.2238856186        9.2878565847
C         17.5085113297       28.4865388127        9.5971270381
C         18.0408903378       26.3627397717       10.4630870437
O         17.3587588786       29.4270592409        8.8360379121
O         17.2173103381       28.5062008432       10.9280142665
C         17.5177566411       27.2574787272       11.6025153753
C         18.5348225332       27.4441990660       12.7469373369
N         18.6130278244       28.7190812641       13.2641828262
O         19.2591203763       26.5456573537       13.1422822568
C         19.7668489180       29.2360375989       14.0127921472
C         20.6597809539       30.1008218243       13.0796839090
C         19.2735603327       29.9961250922       15.2769497107
C         21.0079949120       29.4173428028       11.7623889931
C         20.4494014403       30.4674060898       16.1751764626
O         18.4500755598       31.0998284480       14.8876832910
C         20.4883580596       29.9068383133       10.5495359693
C         21.8483754874       28.2892393512       11.7473462469
N         20.0478270179       31.0855147391       17.4710914575
C         20.8107003190       29.2798048863        9.3346242278
C         22.1677114451       27.6583921070       10.5333774009
C         19.2750228603       30.2275955583       18.4049856334
S         19.6284199224       32.7452645479       17.5125696968
C         21.6527050738       28.1568388362        9.3261204689
C         19.9355034395       28.8649673142       18.7423835229
O         18.2223398561       32.8184980384       17.0942693640
O         20.0850380493       33.2114660740       18.8273540176
C         20.7091726262       33.5177473744       16.2825372249
C         21.3311821098       29.0518354487       19.3798918727
C         19.0280368617       28.0594035921       19.6957810794
C         20.2164587048       33.8273259046       14.9989935278
C         22.0619682920       33.7672072111       16.5862366001
C         21.0730417457       34.3633859093       14.0184298324
C         22.9133903174       34.3173907640       15.6147374354
C         22.4184125649       34.6104474779       14.3333991547
O         20.6450266346       34.6498777361       12.7387721825
C         19.3258939318       34.3236819287       12.2581191031
H         20.7531015422       24.8758155792        6.4512190042
H         17.3006539291       26.8557484558        4.7495869437
H         20.1174990798       25.6981194540        8.6827017486
H         16.6696952314       27.6663935238        6.9765451730
H         17.6385486493       25.2399003046        2.9659814625
H         18.6132642229       26.7148004182        2.7079113836
H         19.0970301622       25.1791287532        1.9428790396
H         17.3999239447       25.4823450111       10.3290597485
H         19.0746194977       26.0459861558       10.6519709517
H         16.6028464991       26.8342587578       12.0346281220
H         17.9623409154       29.3978293207       12.8874465877
H         20.3682423338       28.3830017503       14.3566946400
H         20.1549553342       31.0535520175       12.8778760813
H         21.5920264945       30.3592836261       13.5947722219
H         18.6683477430       29.2850030438       15.8550342241
H         21.0829515540       29.5954755584       16.3770331673
H         21.0834449663       31.1531977015       15.6046163945
H         18.0826040445       31.5045559256       15.7073147998
H         19.8313769314       30.7725556812       10.5469095506
H         22.2489857848       27.8976031327       12.6783612881
H         20.4043153158       29.6619509722        8.4012962501
H         22.8162084818       26.7860255897       10.5288095001
H         19.1326039434       30.7685982076       19.3509705114
H         18.2715743107       30.0500067646       17.9952040802
H         21.9034505942       27.6727742485        8.3856239600
H         20.0445545082       28.2754477325       17.8220497247
H         22.0134722399       29.5761339978       18.6993216497
H         21.2659106292       29.6362282335       20.3066561771
H         21.7843065524       28.0819185450       19.6213218040
H         18.0410930427       27.8882466482       19.2469201726
H         19.4672654697       27.0784177300       19.9183494523
H         18.8819847051       28.5884137059       20.6465111146
H         19.1738447336       33.6343341248       14.7695896315
H         22.4532498272       33.5257468109       17.5720098488
H         23.9576940411       34.5076127631       15.8508376465
H         23.0795693704       35.0260125145       13.5780219259
H         19.1386119149       33.2450253064       12.3397099937
H         18.5600014181       34.8607461090       12.8323452212
H         19.2283215898       34.6113204829       11.2037194505
