    84
VM2 Rank=1      G=214.449           E=114.995           -TS=99.454              
C         21.4547743670       23.5622149474        6.1371747716
C         21.0494791627       24.9135420374        6.1846256384
C         21.9838580538       22.9367520623        7.2774140514
C         21.1932384680       25.6198617300        7.3967486603
C         20.4618664910       25.6122950624        4.9816033889
C         22.1109203050       23.6501674840        8.4786756083
C         21.7128498583       24.9968401435        8.5464725588
O         20.0714341172       26.7670423362        5.0473462607
C         20.3485397754       24.8626236809        3.6591136806
N         21.8317545997       25.7217804020        9.7635725903
C         22.4276452884       27.0515850147        9.8078736209
C         21.4297619650       25.2910244059       11.0127641528
C         22.2957062030       27.4596343760       11.2877808591
O         21.7445213390       26.2688539757       11.9078172217
O         20.8927255746       24.2326793087       11.2910292086
C         21.3891278073       28.6904062735       11.4985189160
N         20.5420828455       28.6206868309       12.5835031891
O         21.3841574419       29.6467969714       10.7413428191
C         19.3498781126       29.4617246030       12.7581455747
C         19.3218671218       30.0505864213       14.1966553582
C         18.0759420761       28.6552877410       12.3907074510
O         19.2343218443       28.9945870207       15.1590526677
C         18.1591902508       31.0604260941       14.3933539236
C         18.1323382170       28.0511776711       10.9925183091
N         18.2948155511       31.9510138906       15.5783518168
C         18.2811272778       26.6620586102       10.8221951995
C         18.0402803265       28.8792686177        9.8590085179
S         17.7693659360       31.3233656255       17.0786531046
C         19.4857399542       32.8425785164       15.6123868729
C         18.3288987048       26.1060646582        9.5329588077
C         18.0906102434       28.3248076790        8.5691763574
C         17.6070316544       32.7903359199       18.1237816705
O         16.4000886082       30.8579589840       16.8274310430
O         18.8232381313       30.4169055049       17.5530576402
C         19.6708376386       33.7276164653       14.3525483537
C         18.2288924358       26.9374299927        8.4060172089
C         16.5902971983       33.7307729961       17.8676156178
C         18.5097015083       33.0157768878       19.1811311858
C         18.4521317569       34.6514358520       14.1269212664
C         20.9526783558       34.5761928338       14.4868944767
C         16.4744737887       34.8844629850       18.6617870428
C         18.3917085442       34.1694660603       19.9744272669
C         17.3778140090       35.1071037535       19.7207109844
O         17.3139209147       36.2210295308       20.5320589254
C         16.3273661770       37.2587780423       20.3710761598
H         21.3618504566       22.9834269663        5.2229901288
H         22.2924693855       21.8951347816        7.2307803541
H         20.8833549620       26.6598802895        7.4455637255
H         22.5189342567       23.1539054379        9.3556950800
H         21.3396322947       24.5288202741        3.3317416119
H         19.6953084320       23.9908328760        3.7776852070
H         19.9251762502       25.5200481420        2.8907672245
H         21.8849438681       27.7436051325        9.1514392897
H         23.4820840745       27.0056452512        9.5080211337
H         23.2781849988       27.6919310355       11.7163338429
H         20.6231979957       27.7961842929       13.1664134748
H         19.4193577856       30.3099548741       12.0629035139
H         20.2724587951       30.5832653621       14.3281263426
H         17.9232868705       27.8623525103       13.1339815849
H         17.1949697751       29.3040771586       12.4586912520
H         19.3099195776       29.4023148593       16.0540571670
H         18.0824299823       31.6763383927       13.4894590058
H         17.2155431674       30.5027177902       14.4555201129
H         18.3617749947       26.0117398182       11.6893414166
H         17.9334084899       29.9539800362        9.9781934059
H         19.4198834682       33.5221399459       16.4712247925
H         20.3915812869       32.2411690855       15.7667186566
H         18.4456910490       25.0322277860        9.4081864534
H         18.0210185853       28.9695911973        7.6966900426
H         19.7964317308       33.0855309577       13.4701530627
H         18.2648592271       26.5089936961        7.4072131602
H         15.8934017143       33.5674256777       17.0486225285
H         19.3025153522       32.2999082408       19.3857833656
H         18.2936042621       35.3128986560       14.9884054441
H         18.5969557600       35.2798839982       13.2389793765
H         17.5339136598       34.0705377199       13.9750320395
H         21.1137986569       35.1861086582       13.5886507587
H         20.8927537627       35.2530397551       15.3491165428
H         21.8350304819       33.9364678405       14.6173898965
H         15.6836911400       35.5957028796       18.4449827209
H         19.0895512472       34.3410564978       20.7893922006
H         15.3145128407       36.8527195825       20.4903028607
H         16.4756359793       38.0389887385       21.1283341741
H         16.4106953013       37.7223703275       19.3795489855
    84
VM2 Rank=2      G=214.511           E=114.961           -TS=99.549              
C         22.3018224671       24.7155181225        6.1553131052
C         21.1929343057       25.5726830012        6.3238779900
C         23.2877122845       24.6216983863        7.1508102864
C         21.1025805705       26.3353797757        7.5063926289
C         20.1037659271       25.6826746540        5.2835409026
C         23.1771323198       25.3782337459        8.3271741946
C         22.0809602972       26.2383568359        8.5127195298
O         19.1257374405       26.3911172185        5.4620858569
C         20.2226513685       24.8912224145        3.9861540552
N         21.9574708702       27.0009435630        9.7052649941
C         21.6740321113       28.4304317675        9.6704476727
C         22.0837935219       26.5253167560       10.9959107756
C         21.5966841244       28.8204035451       11.1569573724
O         21.8941253456       27.5761520926       11.8434109105
O         22.3227100604       25.3811602008       11.3417256930
C         20.2197718490       29.3979673683       11.5396045045
N         19.5421926329       28.7207738577       12.5305300649
O         19.7328555487       30.3604389612       10.9715528730
C         18.0860862186       28.8059718598       12.7310451840
C         17.7344345320       29.6051333947       14.0187075498
C         17.5009638195       27.3712182287       12.7338480242
O         16.3225046581       29.5795679628       14.2390319560
C         18.2116517746       31.0819798781       13.9312333338
C         17.8926722550       26.5656592081       11.4999260928
N         18.2933008170       31.7937704532       15.2356540427
C         18.7891278229       25.4862585737       11.6088592563
C         17.3651700201       26.8997244733       10.2389615899
S         16.8484945501       32.4880154227       15.8267234885
C         19.2234561683       31.2234718234       16.2480734693
C         19.1452263185       24.7422846051       10.4717927695
C         17.7227676506       26.1579108225        9.1005329218
C         17.4132827887       33.6268045477       17.1132642365
O         16.3645009125       33.3322935302       14.7278561220
O         16.0432268819       31.3888484103       16.3753783705
C         20.6651943703       30.9629218232       15.7372781443
C         18.6077399338       25.0745491878        9.2185220393
C         18.1152492278       34.7962151493       16.7627615135
C         17.1787400032       33.3399356873       18.4723578407
C         21.3348105823       32.2644883598       15.2404123853
C         21.5171074407       30.3312200745       16.8580170619
C         18.5744455174       35.6699181588       17.7625456111
C         17.6386306290       34.2155741602       19.4710535182
C         18.3397632856       35.3862645030       19.1174271411
O         18.8158576276       36.2805336055       20.0538283441
C         18.6456611484       36.1019938294       21.4734345828
H         22.4095021977       24.1121737578        5.2588005782
H         24.1370917109       23.9571204475        7.0120916281
H         20.2503897132       26.9936815714        7.6508216735
H         23.9437676039       25.2939116199        9.0933772982
H         19.3644743068       25.1033367730        3.3378194648
H         21.1416446151       25.1717288845        3.4592518370
H         20.2449180400       23.8173943340        4.2033707833
H         20.7223895033       28.6267681217        9.1597472271
H         22.4855425928       28.9693110214        9.1654074431
H         22.3542748886       29.5765288140       11.3967383540
H         20.0326927558       27.9269118009       12.9237186321
H         17.6417814394       29.3416072066       11.8801753314
H         18.2461526947       29.1084996024       14.8527993749
H         17.8228949064       26.8517289607       13.6451303597
H         16.4063281258       27.4243211395       12.7902818288
H         16.1501283893       30.0245499815       15.1028869703
H         19.1990892559       31.1100422036       13.4597974799
H         17.5475860918       31.6227494604       13.2438379157
H         19.2117766766       25.2218782638       12.5744507874
H         16.6770349961       27.7352142297       10.1421277838
H         19.3067495861       31.9039164354       17.1046842149
H         18.8075456829       30.2854689336       16.6395686835
H         19.8406260022       23.9113405991       10.5621970190
H         17.3143443267       26.4210405145        8.1276280133
H         20.6346622881       30.2429409735       14.9083884963
H         18.8831831616       24.4991377046        8.3382701819
H         18.3074230832       35.0231034743       15.7165097745
H         16.6423416690       32.4368722248       18.7546689005
H         20.7766470940       32.7070029958       14.4059704098
H         21.3889649462       33.0113228354       16.0429281596
H         22.3559437759       32.0693290128       14.8890858962
H         22.5318143192       30.1120758728       16.5015034558
H         21.5996794941       31.0039851360       17.7215334003
H         21.0746099974       29.3878044415       17.2028772331
H         19.1165305862       36.5708200943       17.4886084746
H         17.4466183394       33.9743810946       20.5118362459
H         19.1226248066       35.1712979653       21.8070320296
H         19.1069350633       36.9373751916       22.0152073834
H         17.5800938991       36.0697136028       21.7351476836
    84
VM2 Rank=3      G=214.511           E=115.049           -TS=99.462              
C         21.5295340160       23.5385107874        6.1799635961
C         21.1054020365       24.8845069959        6.2117700680
C         22.0604197817       22.9315745057        7.3293393131
C         21.2322538702       25.6045458097        7.4176957620
C         20.5153451733       25.5632774053        4.9985472863
C         22.1705226150       23.6583613243        8.5242408346
C         21.7535587662       24.9999979554        8.5764769791
O         20.1086185568       26.7130856108        5.0506670080
C         20.4202324530       24.7992401912        3.6828587017
N         21.8552444120       25.7383182860        9.7870682428
C         22.4328222725       27.0764537095        9.8218356462
C         21.4515137009       25.3143214005       11.0380059307
C         22.2869356989       27.4968418378       11.2969728250
O         21.7476287014       26.3049643194       11.9252946974
O         20.9270698275       24.2515724542       11.3234132877
C         21.3633408464       28.7177109922       11.4906646637
N         20.5106416596       28.6472184106       12.5711593152
O         21.3507004953       29.6668183111       10.7244666313
C         19.3066179511       29.4743190793       12.7305862384
C         19.2625253266       30.0769828263       14.1629466729
C         18.0454360657       28.6477894707       12.3638328793
O         19.1822952557       29.0295492154       15.1352746343
C         18.0861567900       31.0740774517       14.3425956693
C         18.1179867334       28.0308117595       10.9720221846
N         18.2041769045       31.9791124909       15.5185299416
C         18.2865152851       26.6422356806       10.8162761425
C         18.0213640934       28.8464333132        9.8298861166
S         17.6786258329       31.3607100475       17.0226717577
C         19.3839813402       32.8854983442       15.5494043359
C         18.3493229900       26.0743368631        9.5328866186
C         18.0867025509       28.2800951995        8.5458996283
C         17.4942270019       32.8359703807       18.0524556724
O         16.3162849000       30.8762866048       16.7696691545
O         18.7410447668       30.4719305291       17.5112549677
C         19.5675929445       33.7568938706       14.2798435613
C         18.2446861701       26.8931906595        8.3972384130
C         16.4639520275       33.7584053941       17.7865028167
C         18.3930510186       33.0855518794       19.1080262797
C         18.3399361491       34.6636110246       14.0343186249
C         20.8385848063       34.6219341618       14.4122978902
C         16.3339180417       34.9165197564       18.5711244628
C         18.2609303173       34.2445838962       19.8921326239
C         17.2278868970       35.1657014188       19.6246776480
O         17.0510237620       36.3200612087       20.3591128150
C         17.9023891949       36.6930871662       21.4600914606
H         21.4499939516       22.9495986211        5.2709977615
H         22.3836131346       21.8939178294        7.2947398120
H         20.9078368923       26.6406204253        7.4544884912
H         22.5801158962       23.1763717573        9.4084539855
H         21.4177630364       24.4760144027        3.3645512710
H         19.7783936634       23.9196835084        3.8062009303
H         19.9924193397       25.4432070264        2.9056316221
H         21.8844952345       27.7546871966        9.1557509382
H         23.4894724790       27.0420127675        9.5282901125
H         23.2638149127       27.7459366130       11.7288782825
H         20.5987841453       27.8293177012       13.1622905737
H         19.3691727431       30.3164671568       12.0273396968
H         20.2055932638       30.6227876220       14.2947627822
H         17.8987216306       27.8602283805       13.1139862318
H         17.1557342483       29.2856790416       12.4203716656
H         19.2475703376       29.4470660177       16.0265798684
H         18.0064963489       31.6791882602       13.4316821466
H         17.1492852892       30.5051658828       14.4058200872
H         18.3709034662       26.0016035470       11.6902500498
H         17.8992988132       29.9207128436        9.9378447960
H         19.3038212720       33.5749332119       16.3991008965
H         20.2958551515       32.2970317910       15.7175403755
H         18.4813447903       25.0010125540        9.4193928145
H         18.0134913416       28.9152970236        7.6667064948
H         19.7067808025       33.1054229779       13.4064128760
H         18.2922838451       26.4555183096        7.4029345882
H         15.7690623642       33.5780984568       16.9694044461
H         19.1956918326       32.3825107410       19.3188859490
H         18.4835739173       35.2823776858       13.1394112940
H         17.4294717151       34.0702922034       13.8837941420
H         18.1679536959       35.3340880805       14.8862112415
H         20.9989029194       35.2224512812       13.5075992935
H         20.7648321900       35.3087287083       15.2655343172
H         21.7273403031       33.9941981552       14.5568118732
H         15.5384549986       35.6266308401       18.3625519043
H         18.9649601203       34.4165310361       20.7002482121
H         18.9406649810       36.8120776411       21.1242335119
H         17.5682860970       37.6471819569       21.8869768585
H         17.8689116287       35.9326576154       22.2510372434
    84
VM2 Rank=4      G=214.552           E=115.022           -TS=99.530              
C         22.3145512423       24.8201817706        6.1066167735
C         21.1853517066       25.6456346962        6.2971810888
C         23.3154106724       24.7440949925        7.0885927402
C         21.0898838068       26.3950488847        7.4877619687
C         20.0802859671       25.7355657195        5.2717903474
C         23.1998188317       25.4868684225        8.2732133648
C         22.0834539967       26.3154521537        8.4806497846
O         19.0860448442       26.4158617717        5.4692563763
C         20.2035344725       24.9591621364        3.9657454418
N         21.9551008667       27.0638751872        9.6816410407
C         21.6323232187       28.4853129921        9.6635967006
C         22.1118636584       26.5806602745       10.9661198211
C         21.5664663318       28.8605132421       11.1544552427
O         21.9056367560       27.6185791683       11.8255758102
O         22.3861298213       25.4404045827       11.2983258553
C         20.1809908075       29.3993001814       11.5619082967
N         19.5353606135       28.6963110024       12.5561843942
O         19.6615203707       30.3539032341       11.0096377938
C         18.0805714988       28.7420218140       12.7779668509
C         17.7271632063       29.5193949773       14.0784026010
C         17.5325369313       27.2927012665       12.7746338849
O         16.3197264119       29.4552106833       14.3187223738
C         18.1648549333       31.0088612242       13.9988322019
C         17.9277373394       26.5092071224       11.5276768841
N         18.2480575231       31.7095340115       15.3091336221
C         18.8532033701       25.4524647865       11.6138409020
C         17.3744184007       26.8413773166       10.2773224710
S         16.7951872331       32.3604405880       15.9289737401
C         19.2082644032       31.1538082175       16.3013981508
C         19.2126457483       24.7287563317       10.4648097738
C         17.7352793471       26.1198764197        9.1269307591
C         17.3506218148       33.5001877173       17.2186702445
O         16.2737181458       33.2035641831       14.8464932441
O         16.0260444511       31.2357450795       16.4777237283
C         20.6485790906       30.9379544486       15.7663759046
C         18.6494703379       25.0587760118        9.2222703601
C         18.0234877752       34.6874337634       16.8700450391
C         17.1388001708       33.1967492454       18.5776126501
C         21.2750410636       32.2624296128       15.2737530104
C         21.5342200045       30.3180164396       16.8673577596
C         18.4781567091       35.5649003298       17.8692853221
C         17.5935130552       34.0757089083       19.5750595919
C         18.2633084512       35.2601369092       19.2286471686
O         18.6879936872       36.0820129782       20.2520576990
C         19.3926709116       37.3189992010       20.0297512206
H         22.4267713628       24.2279857707        5.2032537659
H         24.1804580599       24.1039238702        6.9329404615
H         20.2223235859       27.0289062044        7.6490425524
H         23.9783342894       25.4164287474        9.0287657132
H         21.1077486257       25.2690226934        3.4297949509
H         20.2574475871       23.8844372183        4.1727405485
H         19.3316274570       25.1538025559        3.3303784440
H         20.6681163446       28.6596714825        9.1687223846
H         22.4211443624       29.0505146565        9.1514289137
H         22.3079294735       29.6337467003       11.3900528653
H         20.0516736749       27.9119179705       12.9350734277
H         17.6105358493       29.2742278946       11.9388516804
H         18.2636022109       29.0281668730       14.9000634708
H         17.8802728148       26.7730930560       13.6763168903
H         16.4377858498       27.3170535651       12.8464716573
H         16.1486611101       29.8871272598       15.1894439711
H         19.1438965625       31.0671480745       13.5128658372
H         17.4766076426       31.5390148101       13.3271314715
H         19.2958525968       25.1900432664       12.5709686722
H         16.6636842367       27.6596188811       10.1980311310
H         19.2861720498       31.8270052034       17.1642209403
H         18.8236966219       30.2007912547       16.6886334545
H         19.9304394488       23.9153105752       10.5376189285
H         17.3067613681       26.3814745841        8.1622937681
H         20.6249165568       30.2261162936       14.9302576414
H         18.9274405962       24.4990178999        8.3327656755
H         18.1972317675       34.9256774324       15.8230637955
H         16.6254341269       32.2804862945       18.8601147491
H         21.3209037691       33.0020996313       16.0833786882
H         22.2957153184       32.0989001773       14.9053601422
H         20.6926005984       32.6980911587       14.4523958639
H         22.5489484061       30.1303138174       16.4933964682
H         21.6116586413       30.9837193212       17.7368042612
H         21.1227051519       29.3593550263       17.2085177739
H         18.9950982855       36.4734251360       17.5767854439
H         17.4289509434       33.8390706254       20.6226826424
H         18.7795692974       38.0142250926       19.4417581808
H         19.6269562015       37.7958301756       20.9899047807
H         20.3353501416       37.1377839047       19.4972990830
    84
VM2 Rank=5      G=214.596           E=114.572           -TS=100.024             
C         19.8487898209       23.5900328553        7.0110707652
C         19.7856844328       24.9986628622        6.9452240197
C         20.3805947822       22.9530224289        8.1436118694
C         20.2725553711       25.7485184103        8.0358405790
C         19.2056466592       25.7156689253        5.7492923603
C         20.8514309049       23.7129790386        9.2247807206
C         20.7970763478       25.1171231230        9.1787790146
O         19.1127428486       26.9325973746        5.7235837623
C         18.7218196743       24.9069374306        4.5510847694
N         21.2654787971       25.8917081145       10.2750978515
C         22.1535735057       27.0318495353       10.0831274390
C         20.9703551113       25.6820901375       11.6080472608
C         22.3540549402       27.5806343904       11.5088064719
O         21.6379326593       26.6236897378       12.3319346286
O         20.2502940350       24.8177443624       12.0774801235
C         21.8124253425       29.0142233383       11.6886851567
N         21.1552490332       29.2517691221       12.8765650682
O         21.9167259138       29.8744137151       10.8300440773
C         20.2406802854       30.3784858475       13.1060497595
C         20.5726369070       31.0572391783       14.4649631157
C         18.7693009771       29.8946374517       12.9953126329
O         20.3757885517       30.1286750748       15.5356636462
C         19.7383681989       32.3457213899       14.6954487930
C         18.4700200395       29.1744659847       11.6859001552
N         20.1786308684       33.1821831830       15.8480934924
C         18.2482573664       27.7847259970       11.6719675073
C         18.4150482287       29.8940703467       10.4783804743
S         19.6421258889       32.7737220200       17.4209579833
C         21.5594823772       33.7265065946       15.7869718453
C         17.9660919337       27.1230591125       10.4652704186
C         18.1357155831       29.2331502896        9.2705909011
C         17.9286303817       32.2373899508       17.1884148599
O         20.4922831880       31.6651533338       17.8748995312
O         19.5791215187       34.0560566284       18.1327747955
C         21.9003320108       34.5103643700       14.4921704310
C         17.9050110154       27.8484843699        9.2647816257
C         17.5939109539       30.8694883275       17.2352056399
C         16.9219409400       33.1868185793       16.9256282626
C         20.9535565735       35.7155633339       14.2910185048
C         23.3640739024       34.9968805104       14.5387626071
C         16.2689231902       30.4550543218       17.0174863882
C         15.5973461083       32.7706821101       16.7105973889
C         15.2643231200       31.4074927259       16.7529479109
O         13.9486942297       31.0588913797       16.5277861212
C         13.4862754817       29.6943726862       16.5108992703
H         19.4856133187       22.9761766066        6.1921405020
H         20.4241974541       21.8673096226        8.1849190837
H         20.2280008844       26.8331762462        7.9967094069
H         21.2580251930       23.2079699044       10.0974491052
H         19.5456330713       24.3086493660        4.1458129287
H         17.9067514852       24.2400595227        4.8539474039
H         18.3552525395       25.5805351283        3.7676978906
H         21.6898633427       27.7800597427        9.4277612160
H         23.1079322879       26.7025238417        9.6534714434
H         23.4178698755       27.5903086841       11.7754202545
H         21.1276143171       28.4850737001       13.5380635987
H         20.4072072369       31.1269695805       12.3188371513
H         21.6332252535       31.3382083731       14.4212867813
H         18.5399630209       29.2363098511       13.8429851919
H         18.0894285577       30.7493319039       13.0869392978
H         20.7132820850       30.5491373657       16.3607772481
H         19.7889903447       32.9463149816       13.7794708970
H         18.6833847017       32.0710150095       14.8008225456
H         18.2959884299       27.2154654606       12.5966296015
H         18.5926460502       30.9660073692       10.4759124358
H         21.7120056167       34.4087147128       16.6349516355
H         22.2821546402       32.9092663402       15.9139341919
H         17.7972438477       26.0489186171       10.4610341465
H         18.0962931021       29.7938343298        8.3400644035
H         21.8081656740       33.8409028979       13.6262299719
H         17.6855843094       27.3384219501        8.3298299617
H         18.3618101269       30.1251225173       17.4321071486
H         17.1690794464       34.2451219767       16.8815762771
H         21.0186947037       36.4129392696       15.1360574667
H         21.2091106303       36.2656815623       13.3764603186
H         19.9090781616       35.3919956785       14.2021860992
H         24.0553238038       34.1513795589       14.6488848616
H         23.6300667290       35.5262144480       13.6147223233
H         23.5282195118       35.6820774473       15.3805683790
H         16.0365955835       29.3954319166       17.0541922100
H         14.8241618673       33.5060100648       16.5056641725
H         13.6646436292       29.2124223312       17.4808655215
H         12.4085678251       29.6653433216       16.3063687150
H         14.0000575732       29.1209280574       15.7284413272
    84
VM2 Rank=6      G=214.634           E=115.004           -TS=99.630              
C         22.1307801521       24.2035002082        6.4404597446
C         21.4827733726       25.4543649170        6.5315298004
C         22.6506994562       23.5849570452        7.5889209904
C         21.3774274405       26.0697667785        7.7958035122
C         20.8928584488       26.1376356681        5.3207997924
C         22.5268631034       24.2045093427        8.8416050184
C         21.8864222749       25.4507957160        8.9520732138
O         20.2941019404       27.1969088410        5.4193228133
C         21.0420111272       25.4920532003        3.9479531944
N         21.7478076563       26.0795646474       10.2184817509
C         22.1166477918       27.4751715985       10.4216471746
C         21.2703240897       25.4922410224       11.3738069169
C         21.7634435747       27.7314024787       11.8971058994
O         21.2913223745       26.4373411034       12.3561537787
O         20.8940762042       24.3417539063       11.5171106168
C         20.7095376483       28.8447114413       12.0572492913
N         19.5069817855       28.4568924974       12.6078774759
O         20.8989315804       29.9843288408       11.6678289102
C         18.2461409846       29.1890219012       12.4079942017
C         17.8604265494       30.0295660611       13.6578151285
C         17.1389844636       28.1834822992       12.0064976823
O         16.6406861766       30.7352402702       13.4174425797
C         18.9694739888       31.0495682890       14.0315520524
C         17.5168583575       27.3385281179       10.7951924128
N         18.6198799826       32.0110573523       15.1172688759
C         17.8100876912       25.9702089705       10.9441825701
C         17.5821318278       27.9229969476        9.5169172594
S         17.9865966413       31.3093869397       16.5500700105
C         19.6146149625       33.1064473575       15.2937207810
C         18.1546923077       25.1928854580        9.8260495447
C         17.9288601240       27.1468653558        8.3981931437
C         18.0550234831       32.6059205073       17.8131555575
O         16.5676696939       31.0822017385       16.2459909333
O         18.9024242207       30.2222451625       16.9156279740
C         19.9153555003       33.9494925283       14.0250482997
C         18.2091816639       25.7799026429        8.5523110242
C         17.0655171616       33.6082070447       17.8528391051
C         19.1068020453       32.6345760106       18.7501139332
C         18.6244277712       34.5406421485       13.4129935499
C         20.8978768381       35.0885574152       14.3713058566
C         17.1260046909       34.6278713565       18.8181500597
C         19.1650524781       33.6547280143       19.7144440655
C         18.1794105516       34.6537102009       19.7542268980
O         18.2913566619       35.6299153577       20.7225399434
C         17.3504531602       36.7118752988       20.8646266629
H         22.2339811275       23.6967773525        5.4855138809
H         23.1462658731       22.6204540484        7.5083346137
H         20.8740620407       27.0288911652        7.8804194355
H         22.9280282062       23.7140905729        9.7250448002
H         22.1035090690       25.3656767376        3.7068995586
H         20.5511433065       24.5123761211        3.9396083818
H         20.5787686689       26.1264184609        3.1832412950
H         21.5407235860       28.1320657368        9.7569742831
H         23.1904177059       27.6165162840       10.2454266868
H         22.6556785940       28.0323147928       12.4596878329
H         19.4547110227       27.4865750940       12.8927199379
H         18.3768416556       29.8882184545       11.5697377484
H         17.7236543238       29.3319430317       14.4954009925
H         16.9071113367       27.5385243310       12.8634108420
H         16.2140082399       28.7308616964       11.7846957113
H         16.3607723246       31.0919789948       14.2933376294
H         19.8703278330       30.4936458543       14.3225991592
H         19.2099831689       31.5868577207       13.1082176832
H         17.7719613437       25.5064982721       11.9262286255
H         17.3634249506       28.9800562461        9.3911901044
H         19.2590816037       33.8200828776       16.0457203022
H         20.5563963776       32.6852464365       15.6718631156
H         18.3838424698       24.1370663893        9.9483102183
H         17.9812177305       27.6035437019        7.4125733990
H         20.4082937612       33.3185904787       13.2730175632
H         18.4774693406       25.1788172944        7.6871691819
H         16.2517914452       33.5984729457       17.1311472165
H         19.8797098540       31.8697255837       18.7291659866
H         18.1004491645       35.1781433214       14.1364723475
H         18.8535452222       35.1478986594       12.5281596424
H         17.9332430542       33.7478202423       13.0992178076
H         20.4668115106       35.7746060204       15.1120189584
H         21.8333376490       34.6879675830       14.7827026875
H         21.1506084645       35.6721875562       13.4767251935
H         16.3529647412       35.3898155065       18.8281953716
H         19.9781691073       33.6742516011       20.4349059269
H         16.3436539493       36.3256954547       21.0700309764
H         17.6462826596       37.3599796132       21.6992523296
H         17.3189455584       37.3205990387       19.9516942539
    84
VM2 Rank=7      G=214.660           E=114.614           -TS=100.047             
C         19.8597424430       23.6130065054        6.9323779369
C         19.7941009876       25.0222872226        6.8856839137
C         20.3941547553       22.9616610245        8.0554990760
C         20.2810997623       25.7581692087        7.9857208336
C         19.2112730539       25.7543924132        5.7003032723
C         20.8651260219       23.7077434185        9.1462292267
C         20.8082758675       25.1122840850        9.1193010277
O         19.1162970649       26.9713987907        5.6911464284
C         18.7272200062       24.9610931861        4.4919151971
N         21.2768177336       25.8727818626       10.2253743301
C         22.1628181110       27.0168650064       10.0477014188
C         20.9837343319       25.6447101391       11.5557374757
C         22.3638884232       27.5469209180       11.4803701306
O         21.6506504959       26.5775912654       12.2914251879
O         20.2657133394       24.7728970432       12.0143590813
C         21.8195373776       28.9768602774       11.6800449641
N         21.1629875266       29.1970654432       12.8716107439
O         21.9212757320       29.8487396302       10.8329648600
C         20.2462132104       30.3186536620       13.1169559828
C         20.5788692431       30.9813995382       14.4834970738
C         18.7758526751       29.8330978052       13.0023102159
O         20.3876671809       30.0392607786       15.5433069521
C         19.7398282260       32.2632370966       14.7325672907
C         18.4759641296       29.1317980109       11.6828054328
N         20.1925007458       33.0968746940       15.8824057827
C         18.2581552370       27.7417896126       11.6483802911
C         18.4170128495       29.8692391309       10.4862729843
S         19.6858304358       32.6736028361       17.4610637252
C         21.5680524874       33.6522211825       15.8018784662
C         17.9760381328       27.0974458907       10.4323289117
C         18.1377093202       29.2256737906        9.2691387194
C         17.9670861532       32.1432374952       17.2562484812
O         20.5429935863       31.5602614313       17.8894590145
O         19.6376448908       33.9492189780       18.1860160705
C         21.8829894241       34.4432438605       14.5048624343
C         17.9110549897       27.8405748942        9.2429206002
C         17.6287138993       30.7766453969       17.3066954434
C         16.9587596995       33.0968549442       17.0144597067
C         20.9241202386       35.6418917465       14.3226916659
C         23.3435329703       34.9407927324       14.5307910087
C         16.2972321840       30.3716516825       17.1151391724
C         15.6270289688       32.6897928480       16.8244601501
C         15.2922058525       31.3215337991       16.8734855761
O         14.0039499906       30.8630960854       16.6907723578
C         12.8872802446       31.7334426370       16.4233213845
H         19.4965514812       23.0096511069        6.1056866123
H         20.4396925467       21.8755656957        8.0820535549
H         20.2345943010       26.8431762178        7.9613473185
H         21.2737660572       23.1916874913       10.0114480784
H         19.5514957280       24.3697151636        4.0775424266
H         17.9136627560       24.2888192546        4.7868069565
H         18.3585041607       25.6445846882        3.7181655385
H         21.6972238562       27.7729714196        9.4028185851
H         23.1172680288       26.6948545641        9.6127365706
H         23.4279937108       27.5552145832       11.7458662356
H         21.1375911217       28.4214718304       13.5227480465
H         20.4097139369       31.0773832958       12.3389715512
H         21.6383172644       31.2665687694       14.4403498315
H         18.5499437920       29.1617399684       13.8406590065
H         18.0942661152       30.6848134095       13.1081677508
H         20.7324523225       30.4486394878       16.3710548090
H         19.7721946268       32.8686843061       13.8189721599
H         18.6884770420       31.9803421986       14.8531141607
H         18.3089204425       27.1589074998       12.5643605306
H         18.5915665774       30.9415962337       10.4995671083
H         21.7284878964       34.3326605058       16.6498055595
H         22.2989583111       32.8402805522       15.9148303601
H         17.8102512613       26.0230060522       10.4122677086
H         18.0952363613       29.8001157786        8.3471767994
H         21.7827102067       33.7761431714       13.6379947379
H         17.6917113245       27.3439224058        8.3007549350
H         18.3965358566       30.0279621735       17.4868086358
H         17.2105753885       34.1539954898       16.9682407032
H         20.9970186712       36.3367545286       15.1691670427
H         21.1613929123       36.1971697754       13.4063273972
H         19.8808666679       35.3107317816       14.2487684500
H         23.5153857773       35.6242279658       15.3724919495
H         24.0428048185       34.1002246107       14.6271807087
H         23.5912624287       35.4754299701       13.6047289781
H         16.0411772737       29.3163836654       17.1512056900
H         14.8677881667       33.4427852858       16.6380322018
H         11.9687889530       31.1431901073       16.3132789075
H         12.7425569273       32.4430824304       17.2481929640
H         13.0477699250       32.2953717329       15.4941043824
    84
VM2 Rank=8      G=214.701           E=115.620           -TS=99.081              
C         22.1700069561       24.0742741975        6.4554411084
C         21.5566849104       25.3438762951        6.5247836578
C         22.6445245753       23.4475588589        7.6190330291
C         21.4395471306       25.9693316211        7.7830673838
C         21.0155253372       26.0369718411        5.2969845682
C         22.5092880502       24.0776307688        8.8652815323
C         21.9029525340       25.3425579901        8.9542098621
O         20.4455160997       27.1136016219        5.3759787703
C         21.1782683569       25.3795792698        3.9313077684
N         21.7528347818       25.9823772735       10.2137582878
C         22.1574137923       27.3677924193       10.4185787617
C         21.2308926547       25.4159983749       11.3602752910
C         21.7749779806       27.6434346100       11.8832505344
O         21.2558043688       26.3659179205       12.3378714022
O         20.8181466248       24.2777054087       11.5004977272
C         20.7485961227       28.7864194765       12.0106202028
N         19.5267046740       28.4379425536       12.5443982086
O         20.9751872245       29.9155386022       11.6106497769
C         18.2899701331       29.2018393718       12.3151473536
C         17.9002267355       30.0547704635       13.5549669316
C         17.1662751654       28.2239860657       11.8915566968
O         16.6962090803       30.7816513988       13.2957111047
C         19.0217050942       31.0544679815       13.9448575521
C         17.5483964857       27.3657085709       10.6909731207
N         18.6541036889       32.0168625550       15.0151205371
C         17.7988731759       25.9899588653       10.8492267532
C         17.6598997811       27.9448598436        9.4134674015
S         17.9613175725       31.3786865541       16.4492951233
C         19.5748524393       33.1757883900       15.0946023854
C         18.1467953978       25.2002974719        9.7408051232
C         18.0100802914       27.1563492337        8.3045141234
C         18.1476848088       32.6443139973       17.7348075861
O         16.5329565109       31.2419510322       16.1364147438
O         18.8072395135       30.2354312491       16.8117154567
C         18.8304673926       34.5285917814       14.9765462089
C         18.2474549642       25.7823172544        8.4675890368
C         19.3279651494       32.7112574033       18.5019967315
C         17.1046729363       33.5561299185       17.9946692692
C         19.7863718550       35.6967764131       15.2944184412
C         18.2161748915       34.7075968079       13.5703493811
C         19.4724271054       33.6956901624       19.4937422043
C         17.2511283747       34.5404940634       18.9869641426
C         18.4407289389       34.6153769184       19.7387433351
O         18.6417858789       35.5612913227       20.7225240296
C         17.6703644643       36.5720458065       21.0552873536
H         22.2808742286       23.5592892421        5.5057873697
H         23.1135824625       22.4686599188        7.5551045271
H         20.9624285379       26.9430984232        7.8508471397
H         22.8750826110       23.5808931422        9.7604667696
H         22.2410466736       25.2211889586        3.7162082946
H         20.6594832372       24.4144792590        3.9161654926
H         20.7518543283       26.0227333295        3.1526410430
H         21.6181384227       28.0371876850        9.7358932091
H         23.2389921300       27.4763609900       10.2688778414
H         22.6609155156       27.9232632009       12.4662860725
H         19.4432537301       27.4730136212       12.8399239603
H         18.4565646829       29.8956485723       11.4788247985
H         17.7374992171       29.3640839543       14.3937083200
H         16.8988710267       27.5879734014       12.7447915694
H         16.2609334974       28.7943990477       11.6478998819
H         16.4194467587       31.1663862003       14.1604638210
H         19.9069294315       30.4861477607       14.2591390533
H         19.2986806647       31.6057385766       13.0362957404
H         17.7248149544       25.5299900480       11.8309812779
H         17.4743743110       29.0073918502        9.2807344125
H         20.1554235844       33.1426809758       16.0244223120
H         20.3124737985       33.1341445824       14.2813455400
H         18.3427149815       24.1386664773        9.8702907931
H         18.0981918070       27.6088555623        7.3195214230
H         18.0125470200       34.5599762270       15.7052756968
H         18.5182415942       25.1716294424        7.6099820818
H         20.1353670428       32.0044813744       18.3245415540
H         16.1826706614       33.5082950891       17.4197488553
H         19.2621342045       36.6590285154       15.2320677037
H         20.1924044587       35.6044904890       16.3102346044
H         20.6287655645       35.7229717811       14.5911422335
H         17.6833830549       35.6639546314       13.4947078371
H         18.9916182163       34.6883013045       12.7939913282
H         17.4968626694       33.9081722760       13.3493240736
H         20.3876950607       33.7481046955       20.0769034654
H         16.4368956537       35.2365956102       19.1620687062
H         17.4579795268       37.2067070114       20.1851721296
H         16.7342302180       36.1123956586       21.3977964784
H         18.0537187920       37.2109148575       21.8609082503
    84
VM2 Rank=9      G=214.734           E=115.376           -TS=99.358              
C         21.1625976599       24.4779119677        5.3852096135
C         21.6092932392       23.7043912083        6.4781958808
C         20.8304541532       25.8305896825        5.5583307688
C         21.7111148686       24.3185874284        7.7443067572
C         21.9783794209       22.2478422375        6.3230227041
C         20.9380224394       26.4271909303        6.8230643195
C         21.3739104204       25.6732193393        7.9276407669
O         22.3747342404       21.5886456853        7.2710937124
C         21.8561018504       21.5837655547        4.9561278043
N         21.4842038395       26.2748222938        9.2126107319
C         22.0867969577       27.5905440573        9.3907368929
C         21.0823313288       25.7228245116       10.4142153098
C         22.0135305981       27.8245795239       10.9116401276
O         21.4100614028       26.6003657980       11.4036845856
O         20.5340890453       24.6478167754       10.5869060987
C         21.1923247753       29.0725136193       11.2961913754
N         20.3667165359       28.9229708215       12.3895912518
O         21.2267829143       30.1103158422       10.6558690213
C         19.2051973888       29.7797241631       12.6663789329
C         19.2234779940       30.2414056969       14.1506737978
C         17.8988056390       29.0481422320       12.2573710253
O         19.1236590086       29.1087392362       15.0202236452
C         18.0945217069       31.2615222804       14.4588292913
C         17.9262386556       28.5275935586       10.8247457922
N         18.2776167478       32.0406468402       15.7138896848
C         17.9745781385       27.1439945991       10.5718391542
C         17.9137723383       29.4263143895        9.7424359924
S         17.7612785845       31.2988214329       17.1644053793
C         19.4946677452       32.8924456487       15.8008523660
C         18.0034309806       26.6639462471        9.2520137916
C         17.9465577752       28.9476096129        8.4220165872
C         17.6598060053       32.6729494448       18.3357812409
O         16.3749513556       30.8942622112       16.9015846669
O         18.7970394348       30.3262934639       17.5369176681
C         19.6824920916       33.8794519065       14.6196232628
C         17.9870042937       27.5658362321        8.1766238834
C         16.6664026055       33.6595701813       18.1824186477
C         18.5871016549       32.7806809475       19.3903636482
C         18.4874762232       34.8528419237       14.5010897458
C         20.9909257658       34.6772006493       14.8008555136
C         16.5981162188       34.7424935916       19.0755806839
C         18.5166143968       33.8637271958       20.2827105588
C         17.5260738650       34.8473217060       20.1314296310
O         17.5089258164       35.8878067909       21.0371311751
C         16.5508218798       36.9627605409       20.9857765112
H         21.0697232678       24.0432975770        4.3943599289
H         20.4881092001       26.4179366430        4.7097067835
H         22.0579098943       23.7347952345        8.5932179893
H         20.6717970584       27.4738849382        6.9404141999
H         20.8185749506       21.6337804162        4.6069860373
H         22.5046468261       22.0918240653        4.2335602779
H         22.1565305900       20.5315376013        5.0221544155
H         21.5163296850       28.3521238912        8.8438785866
H         23.1279136834       27.5854583591        9.0443932015
H         23.0194177713       27.9443292894       11.3320729327
H         20.4136419951       28.0317526120       12.8687322965
H         19.2872071641       30.6835708940       12.0467733420
H         20.1917047323       30.7342828018       14.3064788488
H         17.7181040407       28.2174471868       12.9514355228
H         17.0447758034       29.7260408151       12.3711577163
H         19.2287015918       29.4349589360       15.9451575284
H         18.0193581203       31.9563772025       13.6139687735
H         17.1363385322       30.7264693284       14.4912096727
H         17.9941199531       26.4384458797       11.3983439044
H         17.8845564306       30.4970087822        9.9252661608
H         19.4646486558       33.4953305322       16.7170263326
H         20.3851095233       32.2549265757       15.8830048045
H         18.0430359116       25.5937258760        9.0637748464
H         17.9383245416       29.6473986661        7.5902215395
H         19.7729876312       33.3142615899       13.6820489599
H         18.0081670843       27.1942177268        7.1552245338
H         15.9507644727       33.5872913903       17.3664937245
H         19.3623230938       32.0283066875       19.5163395426
H         18.6343359787       35.5527142283       13.6686390507
H         17.5499710885       34.3131380124       14.3182215797
H         18.3642865285       35.4400943802       15.4202085139
H         21.1533506608       35.3590885143       13.9561971463
H         20.9667325732       35.2769626274       15.7200068530
H         21.8563753799       34.0043498947       14.8564811907
H         15.8246158900       35.4912939196       18.9370291157
H         19.2334005908       33.9445713407       21.0952844126
H         15.5286280868       36.5763404414       21.0895391344
H         16.7351317134       37.6698763568       21.8044153755
H         16.6306697732       37.5081281907       20.0364674227
    84
VM2 Rank=10     G=214.748           E=115.672           -TS=99.076              
C         22.2577043165       24.0610748584        6.5257070153
C         21.6340788174       25.3266541006        6.5732826467
C         22.7171061062       23.4482929600        7.7027038110
C         21.4912049026       25.9624104258        7.8237227915
C         21.1087084598       26.0047640476        5.3303535504
C         22.5563041114       24.0884176051        8.9407599004
C         21.9393398531       25.3495402489        9.0080912722
O         20.5295956820       27.0777726918        5.3900501212
C         21.2993233276       25.3364979304        3.9735862222
N         21.7635036581       25.9994299826       10.2591336209
C         22.1539567569       27.3897614836       10.4579733099
C         21.2274800553       25.4391239194       11.4021324628
C         21.7481013865       27.6746090897       11.9145581890
O         21.2298684163       26.3975947503       12.3716477866
O         20.8207659808       24.2990768284       11.5457069659
C         20.7132945591       28.8123910161       12.0178770490
N         19.4855322615       28.4604567566       12.5356289603
O         20.9393236087       29.9399221395       11.6131403690
C         18.2479072896       29.2151872517       12.2822127163
C         17.8337799705       30.0732656904       13.5104926084
C         17.1370155616       28.2276999588       11.8473666895
O         16.6291353358       30.7906210658       13.2285902097
C         18.9427741392       31.0826569223       13.9110535331
C         17.5437804468       27.3632084852       10.6593917223
N         18.5528264223       32.0485812277       14.9701887048
C         17.8005087730       25.9903097210       10.8318085427
C         17.6722508807       27.9337848881        9.3796264306
S         17.8428126506       31.4129484887       16.3971346346
C         19.4652384946       33.2135645938       15.0572053098
C         18.1714047811       25.1949014748        9.7350081821
C         18.0453756669       27.1395310290        8.2823127961
C         18.0068838963       32.6826936610       17.6816374714
O         16.4195811777       31.2684332276       16.0649873481
O         18.6887511336       30.2747754398       16.7751935545
C         18.7139403600       34.5617820862       14.9305341349
C         18.2888837877       25.7682997611        8.4593217259
C         16.9536295338       33.5853062868       17.9307731028
C         19.1798727377       32.7614648370       18.4592925903
C         19.6604461852       35.7359885739       15.2543244595
C         18.1106733842       34.7347359991       13.5188153041
C         17.0861677134       34.5704578578       18.9235550542
C         19.3107104251       33.7476764475       19.4518595892
C         18.2622190472       34.6600639718       19.6845556159
O         18.3351773830       35.6498954435       20.6426401636
C         19.4920605628       35.8573747749       21.4760617615
H         22.3883145520       23.5384953269        5.5827366452
H         23.1943136782       22.4723875735        7.6555009431
H         21.0060391321       26.9332224827        7.8746746769
H         22.9106202538       23.6024090081        9.8463903532
H         22.3667146519       25.1840957946        3.7778719612
H         20.7879002926       24.3674762697        3.9583864597
H         20.8814881752       25.9695289048        3.1820800849
H         21.6190943569       28.0488679843        9.7619274223
H         23.2366599222       27.5060153636       10.3228821845
H         22.6236936230       27.9642084470       12.5083514302
H         19.4033401108       27.4972094318       12.8369359319
H         18.4232933917       29.9047947631       11.4442139530
H         17.6627844966       29.3866427253       14.3509166712
H         16.8594591137       27.5961279974       12.7006575815
H         16.2324618347       28.7910074418       11.5849655940
H         16.3371575738       31.1794871983       14.0864506926
H         19.8269778436       30.5220923862       14.2417119585
H         19.2295177178       31.6305231919       13.0034650245
H         17.7135367699       25.5370248580       11.8156103770
H         17.4821362294       28.9941007409        9.2361038440
H         20.0373951319       33.1848148039       15.9923480933
H         20.2105470136       33.1758892434       14.2507974195
H         18.3720058049       24.1355398660        9.8754584806
H         18.1464763149       27.5854148438        7.2955513203
H         17.8896819563       34.5899336509       15.6522102188
H         18.5773652389       25.1531758068        7.6106997411
H         16.0365515964       33.5297887283       17.3487661744
H         19.9939985407       32.0606164576       18.2890155954
H         20.5085798715       35.7658074857       14.5581271055
H         19.1312202752       36.6950937107       15.1858234835
H         20.0583659180       35.6478594731       16.2736938030
H         18.8928299110       34.7186513933       12.7491475241
H         17.3979874398       33.9307168379       13.2930582260
H         17.5729575963       35.6878204932       13.4369191373
H         16.2746659427       35.2696277028       19.1056171718
H         20.2269970455       33.7924652515       20.0320583951
H         20.3748373367       36.0838956791       20.8641967860
H         19.3192699011       36.7016910174       22.1553347948
H         19.6981924114       34.9657892131       22.0823010397
    84
VM2 Rank=11     G=214.752           E=115.105           -TS=99.648              
C         22.1949208147       24.1994330578        6.4892539845
C         21.5296822873       25.4422798770        6.5644682210
C         22.7164240427       23.5990682990        7.6466105686
C         21.4087758889       26.0683921768        7.8220733427
C         20.9376506670       26.1058032885        5.3438272235
C         22.5770218015       24.2289581923        8.8924859072
C         21.9192972613       25.4675166469        8.9871815183
O         20.3243114154       27.1578962631        5.4286192924
C         21.1031788057       25.4489360106        3.9782289394
N         21.7648290364       26.1065217064       10.2466103129
C         22.1138527802       27.5088189545       10.4383812208
C         21.2882041495       25.5240454559       11.4047406191
C         21.7479532449       27.7746318581       11.9090427059
O         21.2905425385       26.4788150339       12.3779200255
O         20.9265358594       24.3700426881       11.5570219531
C         20.6780592980       28.8749993440       12.0516482329
N         19.4773064496       28.4762512827       12.5984099626
O         20.8545509400       30.0132486880       11.6522945209
C         18.2080036807       29.1891937164       12.3832549913
C         17.8029960371       30.0371533896       13.6219275425
C         17.1170060727       28.1647527959       11.9853142871
O         16.5757710337       30.7242625693       13.3662805202
C         18.8960661622       31.0753697689       13.9926153724
C         17.5136786876       27.3127597740       10.7850049724
N         18.5264426641       32.0431054425       15.0660845083
C         17.8244431573       25.9501276915       10.9497356010
C         17.5787765330       27.8850375363        9.5012180461
S         17.8917799341       31.3476877807       16.5013357365
C         19.5053976247       33.1532228509       15.2386793913
C         18.1862606091       25.1662246753        9.8416787390
C         17.9426967383       27.1023471442        8.3925696103
C         17.9384171280       32.6561744433       17.7530998934
O         16.4775412969       31.1013198395       16.1904338362
O         18.8177349572       30.2746073564       16.8825982397
C         19.8072375435       33.9855778076       13.9632295496
C         18.2405130366       25.7409484795        8.5623365776
C         16.9346357947       33.6441788378       17.7816488701
C         18.9874735932       32.7082154703       18.6925109573
C         18.5147662863       34.5539151927       13.3330907384
C         20.7726295764       35.1404538341       14.3052882322
C         16.9814452683       34.6708590293       18.7395365976
C         19.0322003916       33.7362088416       19.6499409041
C         18.0262821604       34.7232059272       19.6757412210
O         18.0194784476       35.7557774409       20.5905662046
C         19.0362283037       35.9246535408       21.5974603085
H         22.3104360822       23.6849453773        5.5398863354
H         23.2253321402       22.6405897137        7.5782246442
H         20.8920915656       27.0214137826        7.8944964185
H         22.9795706290       23.7525292834        9.7829241309
H         22.1676155707       25.3345010270        3.7442760562
H         20.6255290663       24.4627125639        3.9768003466
H         20.6357996189       26.0695308362        3.2047841290
H         21.5335271419       28.1515256104        9.7637435823
H         23.1867549039       27.6627014566       10.2674623769
H         22.6324600672       28.0931855756       12.4741090667
H         19.4363003030       27.5081320397       12.8924273170
H         18.3345864632       29.8815085232       11.5386770336
H         17.6697115159       29.3462695592       14.4656378408
H         16.8885179000       27.5254234394       12.8473401569
H         16.1861360132       28.6972977581       11.7523348480
H         16.2854283503       31.0866478106       14.2364489248
H         19.8021061735       30.5343231707       14.2953547160
H         19.1357726857       31.6063922766       13.0654542417
H         17.7866242436       25.4959420668       11.9362350691
H         17.3465644320       28.9376968488        9.3633773365
H         19.1336372201       33.8707050942       15.9791275336
H         20.4489668537       32.7485514916       15.6301733730
H         18.4288995120       24.1149073138        9.9761007861
H         17.9948370624       27.5496548083        7.4026498861
H         20.3146441322       33.3523744676       13.2228359101
H         18.5221168650       25.1347923187        7.7050004262
H         16.1222529026       33.6179975231       17.0588975494
H         19.7705544318       31.9535825078       18.6787007990
H         17.9767033326       35.1931986147       14.0445662413
H         18.7443991912       35.1537964923       12.4433731513
H         17.8359926676       33.7492341346       13.0224408986
H         20.3265600149       35.8293876407       15.0343506858
H         21.7091772630       34.7560494734       14.7294540060
H         21.0262527898       35.7171081747       13.4064457714
H         16.2060294017       35.4317652043       18.7574418164
H         19.8504508373       33.7562626091       20.3629252835
H         20.0223689281       36.0579343036       21.1340589294
H         18.8196810550       36.8124550422       22.2049725635
H         19.0707325029       35.0529059316       22.2636707083
    84
VM2 Rank=12     G=214.763           E=115.136           -TS=99.627              
C         20.7990013332       25.1107576526        5.4204217176
C         22.0356188639       25.4922590831        5.9841121757
C         19.5918187089       25.5200379120        6.0079502060
C         22.0307813585       26.2887015512        7.1487085527
C         23.3513191732       25.0715728290        5.3727351315
C         19.6034600626       26.3127414450        7.1648772023
C         20.8242373464       26.6980031229        7.7479333614
O         24.4167305459       25.4154912992        5.8596475424
C         23.3534355328       24.2007708340        4.1213119902
N         20.8390506659       27.5024374309        8.9217753233
C         19.9597037251       28.6568473663        9.0654976412
C         21.6584808962       27.3351513610       10.0226392876
C         20.3739121965       29.2643698591       10.4169223401
O         21.3820742440       28.3399232280       10.9014098868
O         22.4858404416       26.4583466169       10.2030937592
C         19.1870262536       29.4220311067       11.3868556421
N         19.3120788341       28.7651576888       12.5917345519
O         18.1763293267       30.0367174249       11.0922044004
C         18.1631133816       28.3489467321       13.4126498259
C         18.0832826862       29.1642368541       14.7343222097
C         18.2486765934       26.8195255008       13.6461739288
O         17.0255938373       28.6627488356       15.5543338237
C         17.8488132824       30.6766374748       14.4624588707
C         18.4153802463       26.0315957091       12.3512053599
N         18.1680552791       31.5763494929       15.6041063506
C         19.6200929035       25.3576620625       12.0773307563
C         17.3707919662       25.9870619634       11.4096586304
S         16.9508754452       31.7842017076       16.7847985208
C         19.5747559686       31.5612501090       16.0902251086
C         19.7757183388       24.6414047278       10.8789977911
C         17.5268951840       25.2743106531       10.2091451967
C         17.4877441006       33.2469186734       17.7029851673
O         15.7646314836       32.1999403993       16.0268000993
O         16.9563388238       30.5745415240       17.6180938093
C         20.6482599518       31.7665969518       14.9890438561
C         18.7288322668       24.5984734889        9.9451437608
C         17.4568275470       34.5153479231       17.0914543824
C         17.9642145167       33.1249198145       19.0227411792
C         20.4688080668       33.1220413091       14.2679958144
C         22.0604223298       31.6848494429       15.6054827325
C         17.8951090151       35.6518527420       17.7924631676
C         18.4012733475       34.2625114395       19.7220974856
C         18.3697390036       35.5276629942       19.1139050660
O         18.8138399827       36.6066369803       19.8499716951
C         18.8400149427       37.9534566829       19.3385846986
H         20.7588475887       24.4977173319        4.5249593637
H         18.6445291325       25.2209709493        5.5657717298
H         22.9766075314       26.5927152313        7.5899121942
H         18.6600368822       26.6146352027        7.6110556532
H         22.8390941453       23.2543494337        4.3228153887
H         22.8439622994       24.7208446328        3.3022883733
H         24.3840751273       23.9850330909        3.8162848681
H         18.9093230472       28.3381955970        9.0855456077
H         20.1185308252       29.3700169992        8.2468150406
H         20.8176855916       30.2562798814       10.2672882613
H         20.1888871360       28.2753848098       12.7222228717
H         17.2380129232       28.5442845711       12.8520838681
H         19.0430796476       29.0330694555       15.2498736690
H         19.0784707905       26.6052082133       14.3313346199
H         17.3402372580       26.4777885437       14.1582573972
H         17.0605475182       29.1500526312       16.4118524226
H         18.4519653385       30.9812103804       13.6009090902
H         16.8057576429       30.8165078910       14.1487881760
H         20.4391131117       25.3901852311       12.7907937726
H         16.4379828515       26.5080074367       11.6082455243
H         19.7228464149       32.3559981020       16.8319544053
H         19.7720818458       30.6144251253       16.6104654988
H         20.7104009901       24.1259738141       10.6717215884
H         16.7162384982       25.2441360465        9.4855637711
H         20.5706324987       30.9595352193       14.2480784774
H         18.8509529048       24.0458350550        9.0168935176
H         17.0968034228       34.6170887879       16.0701085938
H         17.9983004040       32.1503251209       19.5042939510
H         21.2378496872       33.2597155862       13.4973746172
H         19.4909404774       33.1849649187       13.7745524094
H         20.5436051855       33.9579985311       14.9753028776
H         22.8315605277       31.7972712392       14.8325278836
H         22.2136588686       32.4733873360       16.3536918551
H         22.2191947749       30.7155472655       16.0953900165
H         17.8629675795       36.6188336630       17.3004079420
H         18.7685721260       34.1655181498       20.7400743168
H         19.4857956501       38.0194686100       18.4533742368
H         17.8292809060       38.2849678869       19.0675009027
H         19.2324696942       38.6375701676       20.1015516831
    84
VM2 Rank=13     G=214.766           E=114.942           -TS=99.824              
C         22.2131236932       24.0687536020        6.5027386053
C         21.5835766223       25.3302921196        6.5237605788
C         22.6750829106       23.4784566129        7.6891125185
C         21.4253158644       25.9868626826        7.7641652736
C         21.0966284520       25.9433603999        5.2319067148
C         22.5117116264       24.1420084497        8.9137722427
C         21.8826445129       25.3988999394        8.9593784085
O         21.2088318034       25.3551741792        4.1682063908
C         20.4550235757       27.3262127675        5.2510685457
N         21.7162047932       26.0727755205       10.2007354049
C         22.0496935579       27.4842495250       10.3548967744
C         21.2658145433       25.5134320593       11.3813232119
C         21.7264486040       27.7753243421       11.8309230699
O         21.2823030951       26.4881113568       12.3338890647
O         20.9105848821       24.3622196075       11.5662382524
C         20.6609238031       28.8777844022       11.9908273236
N         19.4851384238       28.4872442772       12.5942481149
O         20.8179607877       30.0079753570       11.5616661579
C         18.2059026461       29.1942358496       12.4253408769
C         17.8350283373       30.0233581919       13.6866413315
C         17.1129059185       28.1665199734       12.0425958712
O         16.6005857304       30.7126169883       13.4757518363
C         18.9386053802       31.0574460982       14.0378101098
C         17.4636519654       27.3833803536       10.7830432802
N         18.6002787448       32.0121762725       15.1330121300
C         17.9077686668       26.0507653435       10.8687881778
C         17.3544419544       27.9942977303        9.5207244106
S         18.0090779505       31.2993238153       16.5782555275
C         19.5833664838       33.1210626030       15.2892397310
C         18.2353066797       25.3361538015        9.7043632568
C         17.6792971714       27.2800446455        8.3555788590
C         18.0873238275       32.5946884368       17.8419711948
O         16.5870327704       31.0526221959       16.3055693148
O         18.9480546851       30.2246114269       16.9211461918
C         19.8426572152       33.9710924691       14.0160928900
C         18.1183553777       25.9494802680        8.4470589654
C         17.0851851101       33.5831201137       17.9051891902
C         19.1589224829       32.6364626865       18.7556875190
C         18.5296171042       34.5449598539       13.4354480111
C         20.8165310300       35.1233797822       14.3424685303
C         17.1527664711       34.6020456532       18.8708079942
C         19.2242282736       33.6558365704       19.7203904806
C         18.2260033384       34.6410236708       19.7836106063
O         18.3456822795       35.6171986690       20.7510293153
C         17.3934108540       36.6859593362       20.9155277442
H         22.3471720749       23.5418590533        5.5610361761
H         23.1606281122       22.5060285076        7.6588257522
H         20.9324485885       26.9522794499        7.8103703721
H         22.8758610125       23.6767048276        9.8263041045
H         19.5462495223       27.3085642850        5.8616903848
H         21.1553855619       28.0591685740        5.6671693519
H         20.1898330681       27.6304208893        4.2317794662
H         21.4366092899       28.1046587017        9.6885577642
H         23.1137819424       27.6520352947       10.1459592353
H         22.6276691546       28.1009729660       12.3646868798
H         19.4612011941       27.5261620701       12.9119170155
H         18.3024025030       29.8994608405       11.5874259483
H         17.7269877516       29.3209123867       14.5244025557
H         16.9438779001       27.4825010204       12.8837761656
H         16.1605905689       28.6885140234       11.8844931786
H         16.3354274252       31.0629407736       14.3588088611
H         19.8530533533       30.5131246327       14.3076954687
H         19.1517380483       31.5993637206       13.1104176135
H         18.0020036365       25.5673235365       11.8375135794
H         17.0151985593       29.0239535954        9.4436800952
H         19.2353574367       33.8279800160       16.0510300130
H         20.5394675720       32.7123902573       15.6444979061
H         18.5811097050       24.3077933074        9.7775494487
H         17.5855457766       27.7573608458        7.3837262264
H         20.3270285873       33.3490122600       13.2512894280
H         18.3682885299       25.3940910848        7.5466462987
H         16.2560330597       33.5632362912       17.2014886618
H         19.9416713531       31.8824209853       18.7163849778
H         18.0133234438       35.1731395964       14.1724796145
H         18.7295338865       35.1575238411       12.5471998004
H         17.8428678362       33.7429653935       13.1355372940
H         20.3928964452       35.8015749643       15.0946146812
H         21.7668596878       34.7353793494       14.7312349186
H         21.0402043222       35.7125151629       13.4437679698
H         16.3696914070       35.3532025596       18.8991983679
H         20.0526142174       33.6855059632       20.4228856894
H         16.3966892187       36.2857214881       21.1420797358
H         17.6984690310       37.3367754185       21.7447037932
H         17.3337204102       37.2955893762       20.0046094091
    84
VM2 Rank=14     G=214.769           E=114.823           -TS=99.946              
C         22.4409322111       24.7854437768        6.1311877700
C         21.3011422542       25.6047380329        6.2648430977
C         23.3994519482       24.7186761761        7.1540132517
C         21.1433701464       26.3560262807        7.4502921986
C         20.2844772728       25.6579281238        5.1487942768
C         23.2295745660       25.4697719569        8.3261316286
C         22.0984863285       26.2905270868        8.4832138624
O         20.4181244916       24.9897361814        4.1360359821
C         19.0663438255       26.5648105807        5.2840816856
N         21.9251319377       27.0536339084        9.6709730766
C         21.5465565785       28.4613111242        9.6257971954
C         22.1066713202       26.6059072998       10.9657298310
C         21.4963807123       28.8725513402       11.1077988884
O         21.8727415851       27.6554184984       11.8032912255
O         22.4183768264       25.4830322550       11.3230983138
C         20.1076335216       29.3926469763       11.5283987009
N         19.5019594287       28.7053439625       12.5579074715
O         19.5535439158       30.3174467373       10.9594225822
C         18.0522912191       28.7212314989       12.8134259527
C         17.7158621636       29.4967659178       14.1190502505
C         17.5370349633       27.2601587885       12.8249385312
O         16.3170025335       29.4043732468       14.3970269215
C         18.1191576742       30.9947045944       14.0184340354
C         17.8881520153       26.5020404998       11.5498292237
N         18.2302935635       31.7035079853       15.3222472819
C         18.8928288357       25.5166184414       11.5575899643
C         17.2138030869       26.7901014251       10.3493890332
S         16.7838022341       32.3230541611       15.9875752013
C         19.2354441358       31.1743452128       16.2840979586
C         19.2146734239       24.8225356967       10.3793255792
C         17.5342613759       26.0963064849        9.1706619664
C         17.3541592356       33.4780790096       17.2570179497
O         16.2090207576       33.1516237053       14.9209688508
O         16.0581678141       31.1826989444       16.5626637790
C         20.6615275825       30.9878605012       15.7020128674
C         18.5330533183       25.1095342238        9.1862435682
C         17.9875902168       34.6798762415       16.8851350239
C         17.1934904911       33.1727347718       18.6225287502
C         21.2415068512       32.3234559114       15.1832267069
C         21.5970846351       30.3929591623       16.7751679600
C         18.4537429541       35.5698264410       17.8679069526
C         17.6596114849       34.0641685917       19.6035022959
C         18.2900792015       35.2630955022       19.2339346184
O         18.7283128638       36.0968479636       20.2419091178
C         19.3961464980       37.3495447784       19.9951786202
H         22.5865346548       24.1967654712        5.2286067282
H         24.2748492716       24.0843139599        7.0375792741
H         20.2699961479       26.9856452429        7.5835678204
H         23.9798366141       25.4124457769        9.1107591599
H         18.4631932259       26.2555936572        6.1442711853
H         19.3854585273       27.6041032308        5.4215654979
H         18.4499740414       26.5016054088        4.3796909873
H         20.5649995548       28.5848563263        9.1503011262
H         22.3003435697       29.0445035756        9.0819447370
H         22.2261821492       29.6657057266       11.3114806915
H         20.0473209240       27.9470824022       12.9489353989
H         17.5506774587       29.2408524538       11.9847215638
H         18.2843064912       29.0218259079       14.9286703957
H         17.9411196770       26.7392768039       13.7020600542
H         16.4469115396       27.2579518097       12.9507463590
H         16.1609060540       29.8348755293       15.2712892782
H         19.0797392794       31.0714474339       13.4989377603
H         17.3975021231       31.5067229631       13.3680533339
H         19.4270790878       25.2880929049       12.4759409715
H         16.4389800151       27.5519625325       10.3315727727
H         19.3271607013       31.8535189558       17.1408525083
H         18.8855595791       30.2150090699       16.6882339250
H         19.9935749237       24.0638575338       10.3915506437
H         17.0043629528       26.3207604583        8.2487044084
H         20.6258122781       30.2716606764       14.8701245494
H         18.7800291860       24.5683660299        8.2764763107
H         18.1217878600       34.9198583196       15.8327485878
H         16.7109691277       32.2454215184       18.9227857521
H         20.6222308211       32.7422563755       14.3802573892
H         21.2981439762       33.0677963493       15.9878733278
H         22.2525968856       32.1807262051       14.7812858022
H         21.6886772272       31.0643576551       17.6388402893
H         21.2186905589       29.4270554389       17.1337974638
H         22.6026795390       30.2260013544       16.3681558360
H         18.9396480934       36.4894910681       17.5575610849
H         17.5345285215       33.8260412139       20.6562323284
H         18.7481337699       38.0289653035       19.4264645644
H         19.6501702531       37.8337594353       20.9465776145
H         20.3250641780       37.1893623324       19.4326481527
    84
VM2 Rank=15     G=214.771           E=114.811           -TS=99.960              
C         22.4279682393       24.6775297414        6.1852753657
C         21.3089061911       25.5281964058        6.2961505295
C         23.3714742273       24.5958420049        7.2209016843
C         21.1564084715       26.2955600322        7.4719471782
C         20.3081080950       25.5969638683        5.1666953754
C         23.2070802560       25.3632624174        8.3831884565
C         22.0964581443       26.2153871673        8.5175749224
O         20.4359558142       24.9143016292        4.1628801366
C         19.1138753615       26.5383965465        5.2767048598
N         21.9286087023       26.9949434544        9.6953891831
C         21.5888967043       28.4117860639        9.6314559615
C         22.0811036882       26.5556105522       10.9967449695
C         21.5267383565       28.8382524781       11.1086976933
O         21.8641109536       27.6193175210       11.8208526896
O         22.3582320136       25.4285689219       11.3691587729
C         20.1443197257       29.3941894179       11.5036297109
N         19.5078417193       28.7311545141       12.5304852413
O         19.6202516522       30.3259716186       10.9178490493
C         18.0556194168       28.7844628300       12.7656835097
C         17.7201885705       29.5814999568       14.0585858482
C         17.5052031317       27.3363457723       12.7848960945
O         16.3158434313       29.5255445050       14.3179913061
C         18.1607539462       31.0682376592       13.9483615671
C         17.8534363586       26.5574553588       11.5215862264
N         18.2707535107       31.7880885142       15.2462235983
C         18.8351272934       25.5495309551       11.5508055027
C         17.1994269364       26.8484109677       10.3106385166
S         16.8303531042       32.4490394253       15.8844247624
C         19.2490528552       31.2450515548       16.2278248975
C         19.1543315442       24.8362658993       10.3833234320
C         17.5171851070       26.1353980940        9.1426999568
C         17.4100759899       33.6036892776       17.1500327148
O         16.2901068086       33.2792095091       14.8011350560
O         16.0701584369       31.3322626954       16.4611345218
C         20.6778803570       31.0161022407       15.6680009053
C         18.4929559580       25.1264130956        9.1796508559
C         18.0712992387       34.7890904517       16.7748723485
C         17.2281258362       33.3139178732       18.5165497331
C         21.2986937639       32.3306333842       15.1427351902
C         21.5831166800       30.4100768126       16.7607616832
C         18.5422152212       35.6756916958       17.7577059026
C         17.6996525598       34.2024708732       19.4982699344
C         18.3598492201       35.3891532473       19.1200104143
O         18.8449311932       36.2966581314       20.0389010750
C         18.7263252144       36.1170648647       21.4636126670
H         22.5690763868       24.0759133510        5.2905455959
H         24.2309820500       23.9372368220        7.1220225093
H         20.2984586892       26.9493655987        7.5878249598
H         23.9456312729       25.2940931112        9.1779068971
H         18.5076198139       26.4825695810        4.3650214086
H         18.4914485569       26.2550803491        6.1320627454
H         19.4598264450       27.5699163314        5.4076757414
H         20.6187285154       28.5574186249        9.1391594607
H         22.3667659084       28.9691990546        9.0945278307
H         22.2716293093       29.6162867637       11.3160326370
H         20.0295245339       27.9642976030       12.9367501169
H         17.5780176394       29.3072256646       11.9248545239
H         18.2659136454       29.1016361531       14.8808428020
H         17.8858370854       26.8146325655       13.6719582447
H         16.4138824079       27.3614742847       12.8970804635
H         16.1582096379       29.9688958155       15.1855309210
H         19.1300662502       31.1164642797       13.4418352315
H         17.4608065935       31.5904189000       13.2825210999
H         19.3535630764       25.3183189220       12.4775110785
H         16.4424543181       27.6274581218       10.2762754730
H         19.3460631944       31.9316011265       17.0780899038
H         18.8695660434       30.2994793995       16.6376640010
H         19.9155096541       24.0602433817       10.4121163561
H         17.0029450612       26.3623146612        8.2125142408
H         20.6355624905       30.2915978074       14.8436527462
H         18.7377646859       24.5704759556        8.2782390080
H         18.2228376627       35.0185019310       15.7225140908
H         16.7235854939       32.3986656435       18.8177119798
H         20.7013481258       32.7558561842       14.3266377681
H         21.3631839878       33.0824021638       15.9398623140
H         22.3112526318       32.1578576850       14.7565955495
H         22.5896765392       30.2131691219       16.3698403624
H         21.6797926092       31.0887748814       17.6181496869
H         21.1754169624       29.4581838392       17.1246917551
H         19.0527445337       36.5889535794       17.4647289404
H         17.5484239855       33.9587757730       20.5451766136
H         19.2367161489       35.1990048971       21.7824243432
H         19.1847371896       36.9646165485       21.9886554845
H         17.6711323829       36.0593498524       21.7606103599
    84
VM2 Rank=16     G=214.793           E=114.948           -TS=99.845              
C         22.2697624328       24.0738916101        6.5507848167
C         21.6273103226       25.3290460943        6.5599764254
C         22.7329505074       23.4971137648        7.7433198961
C         21.4572791580       25.9930242040        7.7948533084
C         21.1393904166       25.9276506605        5.2617278916
C         22.5579071790       24.1679701734        8.9623806596
C         21.9158370663       25.4186390846        8.9961797311
O         21.2603706431       25.3321542735        4.2030718965
C         20.4858090457       27.3050060471        5.2678599713
N         21.7371636110       26.0997839911       10.2318490294
C         22.0557377424       27.5156441080       10.3772405503
C         21.2865964908       25.5446175818       11.4143351038
C         21.7164859594       27.8156662532       11.8478789909
O         21.2875486483       26.5266795713       12.3594428044
O         20.9429628788       24.3910472680       11.6063100514
C         20.6328318584       28.9030629083       11.9884056798
N         19.4584281893       28.5006037356       12.5867311890
O         20.7759737016       30.0312309526       11.5491806733
C         18.1702800659       29.1874919801       12.4030401556
C         17.7799328611       30.0240815277       13.6535308882
C         17.0943033926       28.1404153016       12.0245285651
O         16.5371998857       30.6935593114       13.4280140547
C         18.8665127869       31.0773495658       14.0006861521
C         17.4619214247       27.3521319468       10.7730489051
N         18.5073872847       32.0389198473       15.0832059719
C         17.9271950910       26.0276705200       10.8717940858
C         17.3467087281       27.9501404506        9.5050959725
S         17.9171081077       31.3332514706       16.5323487499
C         19.4730476772       33.1637994722       15.2337102887
C         18.2699341215       25.3083546329        9.7146557232
C         17.6866454351       27.2310999318        8.3472232152
C         17.9702905058       32.6426892260       17.7828426259
O         16.5003580962       31.0636409092       16.2538598272
O         18.8690239378       30.2755784761       16.8921322346
C         19.7306196879       34.0022778678       13.9525750924
C         18.1469832677       25.9087109717        8.4516699966
C         16.9518404603       33.6146816085       17.8331827911
C         19.0386434484       32.7117644108       18.6991211077
C         18.4143788800       34.5505739451       13.3547203510
C         20.6854990436       35.1720322131       14.2728828465
C         17.0032653977       34.6424234883       18.7896856665
C         19.0879580447       33.7407977526       19.6552168955
C         18.0673372070       34.7117645853       19.7028321947
O         18.0641575335       35.7445775957       20.6174024945
C         19.1001217758       35.9303887086       21.6014644786
H         22.4129753631       23.5414870126        5.6135423425
H         23.2284926224       22.5294995642        7.7221542609
H         20.9540741054       26.9534852102        7.8319645915
H         22.9230490938       23.7131433945        9.8797853379
H         19.5748279152       27.2841678824        5.8750729372
H         21.1781899117       28.0471033155        5.6811113886
H         20.2220515435       27.5991967517        4.2452643166
H         21.4432505914       28.1249710950        9.7002355660
H         23.1201237405       27.6915655595       10.1766803504
H         22.6081490476       28.1603127137       12.3857473999
H         19.4464465664       27.5425158366       12.9139530548
H         18.2617780946       29.8854437540       11.5584975389
H         17.6766336079       29.3288126864       14.4978536422
H         16.9317846838       27.4610561494       12.8707535071
H         16.1350128999       28.6467684619       11.8579766503
H         16.2616693598       31.0493822538       14.3056799436
H         19.7867319266       30.5489755161       14.2823843371
H         19.0780927888       31.6122136175       13.0688623658
H         18.0261112437       25.5542503445       11.8449924581
H         16.9910007516       28.9734220648        9.4180147033
H         19.1084848878       33.8746004845       15.9840956996
H         20.4320167923       32.7733511152       15.6015067808
H         18.6321166768       24.2864164308        9.7978890495
H         17.5880971075       27.6982997574        7.3709393141
H         20.2299304742       33.3781268427       13.1991438576
H         18.4087238785       25.3496480065        7.5568990543
H         16.1244153166       33.5753176279       17.1283143348
H         19.8331057907       31.9696352281       18.6682878898
H         17.8834749701       35.1802515145       14.0800080808
H         18.6128200456       35.1551660320       12.4606987086
H         17.7412924561       33.7354718654       13.0592163021
H         20.2462726661       35.8529923185       15.0135012551
H         21.6380279088       34.8021715724       14.6737537762
H         20.9081016369       35.7536196289       13.3690145853
H         16.2164749117       35.3909720429       18.8244019289
H         19.9211558828       33.7741600719       20.3501637729
H         20.0734842640       36.0791804545       21.1162796211
H         18.8828565863       36.8149928934       22.2133694706
H         19.1633688846       35.0597380290       22.2669985739
    84
VM2 Rank=17     G=214.804           E=115.524           -TS=99.280              
C         22.2635013147       23.9176101217        6.5448464859
C         21.6809462663       25.2016733971        6.5374690569
C         22.6627449400       23.3186612536        7.7495160737
C         21.5053782808       25.8720083727        7.7681255466
C         21.2609738276       25.8236056181        5.2264801388
C         22.4827713238       23.9960420252        8.9642489484
C         21.8997341247       25.2756312590        8.9814652859
O         21.3877804239       25.2248265621        4.1703580325
C         20.6698924995       27.2289083400        5.2164007543
N         21.7163629608       25.9636227487       10.2126603795
C         22.0963599488       27.3629069841       10.3701991687
C         21.2053839506       25.4294961437       11.3801843889
C         21.7315215163       27.6766883224       11.8318458221
O         21.2249932026       26.4096451607       12.3270633404
O         20.8020618783       24.2933174483       11.5594146764
C         20.7000803478       28.8166893485       11.9466458250
N         19.4969883525       28.4757991520       12.5255735424
O         20.9060328788       29.9338011192       11.5041280625
C         18.2475383212       29.2237942126       12.3154127268
C         17.8657326679       30.0660410511       13.5643442439
C         17.1342187250       28.2315913668       11.8987668412
O         16.6531403276       30.7850545788       13.3239143770
C         18.9855122951       31.0721049171       13.9431699444
C         17.4994595091       27.4331272527       10.6529993040
N         18.6247916619       32.0276435843       15.0218028789
C         17.8895532239       26.0848924505       10.7555354981
C         17.4576267910       28.0448050887        9.3870103675
S         17.9543349078       31.3792229760       16.4620189202
C         19.5354676219       33.1950150882       15.0927792161
C         18.2300188182       25.3556301794        9.6039767171
C         17.7956791311       27.3160702439        8.2346436398
C         18.1572718952       32.6366744415       17.7530489747
O         16.5220723386       31.2400389998       16.1687069261
O         18.8086954992       30.2362883834       16.8051975994
C         18.7761876437       34.5410247364       14.9933165156
C         18.1802806922       25.9699893251        8.3427374784
C         17.1147910215       33.5416818963       18.0376349226
C         19.3504792837       32.7037495821       18.4999674382
C         19.7253379920       35.7169290140       15.3028446339
C         18.1387724574       34.7212243354       13.5976024696
C         17.2740920413       34.5196942736       19.0342280378
C         19.5077811350       33.6818170004       19.4960421392
C         18.4763492760       34.5949139992       19.7655657251
O         18.6902278677       35.5347010330       20.7525082449
C         17.7200788168       36.5383466126       21.1095986902
H         22.4096294753       23.3797596406        5.6111690641
H         23.1125139942       22.3287497354        7.7411376589
H         21.0475228950       26.8552963243        7.7921657861
H         22.7981987989       23.5237452868        9.8912170453
H         19.7409381136       27.2482550412        5.7958394019
H         21.3820390626       27.9387346930        5.6521381281
H         20.4505800138       27.5358115792        4.1870662900
H         21.5312208038       28.0006458288        9.6783429371
H         23.1727821933       27.4895634681       10.1988512867
H         22.6240555915       27.9749747766       12.3953583665
H         19.4322579737       27.5212418737       12.8569663709
H         18.3930116575       29.9245988118       11.4809195636
H         17.7192246968       29.3698621810       14.4015304654
H         16.9150904600       27.5562830758       12.7354052197
H         16.2054688397       28.7843351947       11.7083544867
H         16.3854655089       31.1654771074       14.1934235461
H         19.8787957207       30.5089634468       14.2437335638
H         19.2468529897       31.6285077671       13.0330746593
H         17.9316526458       25.6005303266       11.7274667927
H         17.1604890373       29.0863597532        9.2971197828
H         20.1309579834       33.1629353950       16.0131402302
H         20.2604346990       33.1646510486       14.2677531476
H         18.5337585329       24.3150738843        9.6902449858
H         17.7541922373       27.7943497070        7.2596266583
H         17.9691733576       34.5605646437       15.7345111821
H         18.4400469013       25.4033624768        7.4521692801
H         16.1830512518       33.4934952917       17.4786624370
H         20.1578710755       32.0020414308       18.3033797917
H         20.5566191557       35.7550880551       14.5870058513
H         19.1908089552       36.6742673860       15.2535865648
H         20.1476870019       35.6234027721       16.3118738054
H         18.9024247622       34.7137684057       12.8094441195
H         17.4241432608       33.9158095928       13.3832330198
H         17.5954162405       35.6725841391       13.5352256538
H         16.4598483963       35.2106625819       19.2285589104
H         20.4328604038       33.7343930536       20.0634970818
H         16.7922884991       36.0717419865       21.4651583869
H         18.1145506834       37.1732684067       21.9129699800
H         17.4894360096       37.1781932149       20.2479719098
    84
VM2 Rank=18     G=214.813           E=114.727           -TS=100.086             
C         20.9852881861       25.9782692910        5.8705748160
C         20.1201243688       26.9197532369        6.4688215242
C         22.0801000656       25.4630950362        6.5831955686
C         20.3842773223       27.3354034221        7.7900348186
C         18.9213658880       27.4783361527        5.7396728542
C         22.3223085495       25.8775710739        7.9015180269
C         21.4728619411       26.8153098568        8.5137575112
O         18.1537215205       28.2558613318        6.2841671464
C         18.6592863340       27.0613257390        4.2970562050
N         21.7058623753       27.2327403921        9.8517597326
C         21.7234643650       28.6435312628       10.2182667492
C         21.9369264710       26.4088667335       10.9361027188
C         21.9699591804       28.6198004553       11.7368460307
O         22.1058053649       27.2044182374       12.0302606243
O         21.9875598790       25.1910212443       10.9414264367
C         20.8248905242       29.2865102771       12.5241335624
N         20.1571359677       28.4733681077       13.4144829596
O         20.4893168438       30.4434032499       12.3366877808
C         18.7908237821       28.7398554369       13.8930489498
C         18.7831035428       29.2439725214       15.3647314986
C         17.9354230633       27.4638805290       13.6924608576
O         17.4359404542       29.4345227556       15.8008123543
C         19.5709588332       30.5740392457       15.5218638236
C         17.9693621987       26.9448530564       12.2593254389
N         19.8258164485       30.9935424748       16.9291548074
C         18.6394384742       25.7463152916       11.9511453200
C         17.3345736482       27.6646789708       11.2303396430
S         18.6110905366       31.8517704061       17.7728501429
C         20.6233821326       30.0590889044       17.7647530914
C         18.6651952644       25.2673791578       10.6308541392
C         17.3619388662       27.1878495725        9.9089656002
C         17.9193819844       32.9827026480       16.5406068119
O         17.6211264895       30.8559732321       18.2044143011
O         19.3475698073       32.6882902708       18.7283780695
C         21.9697923165       29.6031269650       17.1414695608
C         18.0220409371       25.9853074188        9.6106143980
C         18.6527747183       34.1129133393       16.1300299444
C         16.6574271644       32.7308878051       15.9668545732
C         22.8968089390       30.8042632554       16.8460515695
C         22.6816768143       28.6128427234       18.0868292747
C         18.1283202350       34.9798205849       15.1567177672
C         16.1350851342       33.5985715001       14.9924925189
C         16.8716432536       34.7285179519       14.5834812476
O         16.4104578276       35.6129479720       13.6304089552
C         15.1475919867       35.4565009095       12.9545802752
H         20.8176766490       25.6331783734        4.8546184155
H         22.7394914637       24.7368856572        6.1139722747
H         19.7215648540       28.0541429142        8.2639973966
H         23.1697777644       25.4681553716        8.4456491961
H         19.5168046437       27.3272266358        3.6687146289
H         18.4951257458       25.9791844190        4.2440802695
H         17.7685052217       27.5734421013        3.9148998734
H         20.7635111370       29.1200871666        9.9808017914
H         22.5365460262       29.1643626009        9.6970696693
H         22.8980646454       29.1494948907       11.9842311325
H         20.5106196577       27.5270215870       13.4840270109
H         18.3491793549       29.5330081756       13.2730787434
H         19.2633956924       28.4695210032       15.9768137420
H         18.2770895212       26.6864858319       14.3873364595
H         16.8946036700       27.6756593022       13.9683190172
H         17.4617791650       29.6541352246       16.7618399715
H         20.5369840294       30.4659683023       15.0181696368
H         19.0480379659       31.3569852805       14.9600182881
H         19.1414901663       25.1837502962       12.7336692021
H         16.8191792221       28.5944201430       11.4560047060
H         20.8504639314       30.5430957268       18.7248445253
H         20.0190920908       29.1727455507       18.0001802760
H         19.1874079408       24.3423953078       10.3986857115
H         16.8722163122       27.7488238875        9.1164045027
H         21.7740099593       29.0696951837       16.2012799908
H         18.0426308747       25.6153106659        8.5886295697
H         19.6302567462       34.3147021075       16.5622558241
H         16.0830444531       31.8589057741       16.2708120175
H         22.4348295975       31.4992642984       16.1339274823
H         23.1216256706       31.3631422476       17.7634960937
H         23.8468596511       30.4678047090       16.4119375466
H         23.6209230632       28.2563390548       17.6446946775
H         22.9180346235       29.0835142906       19.0499717440
H         22.0517665352       27.7355384812       18.2825983956
H         18.6979578372       35.8496434385       14.8413971305
H         15.1621324249       33.3821415468       14.5627720165
H         14.3183419044       35.4731204515       13.6736163014
H         14.9992910511       36.2765673472       12.2406923266
H         15.1194545418       34.5093588014       12.4003786778
    84
VM2 Rank=19     G=214.825           E=114.832           -TS=99.993              
C         19.7109818122       24.6200377384        6.1240008341
C         20.1313802322       23.8277176573        7.2139196083
C         19.7268942376       26.0206408092        6.2136077570
C         20.5632958347       24.4730020696        8.3919252660
C         20.1302617919       22.3186344684        7.1466658081
C         20.1600662393       26.6474104630        7.3911389350
C         20.5760234750       25.8773771937        8.4923814105
O         20.5062665264       21.6406117102        8.0897332151
C         19.6517660723       21.6239741927        5.8766880301
N         21.0164560254       26.5096729184        9.6890018222
C         21.9164624722       27.6564952394        9.6599641943
C         20.6951458750       26.1369580831       10.9805824513
C         22.1463187811       27.9803218570       11.1483673116
O         21.3625587187       26.9674047365       11.8299200525
O         19.9539134353       25.2329526483       11.3261166685
C         21.7127721548       29.4092491872       11.5349742626
N         21.0660540410       29.5227679965       12.7466708956
O         21.8821377191       30.3723261591       10.8055384350
C         20.1954706451       30.6485323257       13.1126102189
C         20.5491743824       31.1481965044       14.5418732213
C         18.7059166566       30.2402888509       12.9474333221
O         20.3201587090       30.1053755957       15.4945254397
C         19.7575661955       32.4267532380       14.9264466442
C         18.3915978765       29.6439345347       11.5801585658
N         20.2149028708       33.0979754815       16.1763921105
C         18.0651547035       28.2804829650       11.4575275010
C         18.4325580604       30.4495676308       10.4275856316
S         19.6487058369       32.5185918055       17.6838944124
C         21.6142475550       33.5962009395       16.1908241014
C         17.7762507494       27.7300511536       10.1978727099
C         18.1479540851       29.8993303485        9.1666537469
C         17.9233268655       32.0651753701       17.3748259903
O         20.4612773505       31.3380992072       18.0062438828
O         19.6148075930       33.7067495907       18.5453687904
C         21.9938623577       34.5236459742       15.0064251398
C         17.8152074420       28.5401531971        9.0522978744
C         16.9469182440       33.0687263652       17.2217743936
C         17.5495346914       30.7121914635       17.2518641590
C         21.0908605837       35.7770928255       14.9534929101
C         23.4729209078       34.9486880198       15.1210546159
C         15.6137399867       32.7210080393       16.9466227244
C         16.2160865905       30.3665023638       16.9741523845
C         15.2419660476       31.3731995848       16.8193752255
O         13.9198997943       31.0934341415       16.5419449353
C         13.4201777748       29.7554973553       16.3515623907
H         19.3708240648       24.1628420403        5.1995758460
H         19.4019861533       26.6219528655        5.3679136198
H         20.8938112231       23.8738925921        9.2366318000
H         20.1612269885       27.7324336354        7.4449861529
H         19.7105932686       20.5361760368        5.9993143479
H         18.6121342751       21.9003051145        5.6677125938
H         20.2806084316       21.9186115223        5.0289944829
H         21.4462739068       28.5002451158        9.1388275745
H         22.8596013134       27.3922206287        9.1654487924
H         23.2067927178       27.8719228415       11.4063481940
H         20.9822835374       28.6735115756       13.2923921185
H         20.3928433231       31.4784945897       12.4199477770
H         21.6186203200       31.3969518600       14.5292327809
H         18.4381834692       29.5238728282       13.7345407689
H         18.0627903241       31.1137295995       13.1051452703
H         20.6674736147       30.4135959905       16.3638692324
H         19.8377723726       33.1340189365       14.0923959149
H         18.6927612919       32.1785301385       14.9907780051
H         18.0386598802       27.6442703632       12.3383111440
H         18.6911355151       31.5017905991       10.5088760743
H         21.7824065425       34.1608348691       17.1185448143
H         22.3069449335       32.7443031700       16.2174943219
H         17.5267822057       26.6753591580       10.1099813949
H         18.1829483629       30.5269083357        8.2797794802
H         21.8868634341       33.9716226876       14.0628450001
H         17.5902310160       28.1144022709        8.0776760140
H         17.2243224573       34.1167933545       17.3090957085
H         18.2937185634       29.9270886176       17.3628286196
H         20.0368200865       35.5041106257       14.8192939077
H         21.1717585384       36.3602087687       15.8798309870
H         21.3737962949       36.4282825867       14.1166817427
H         23.7655653189       35.5799392166       14.2721278960
H         23.6525544098       35.5168059315       16.0430373238
H         24.1337120112       34.0722520291       15.1276238612
H         14.8640778827       33.4982431395       16.8264952255
H         15.9535789926       29.3175878482       16.8793461964
H         13.5731756305       29.1520457158       17.2556426085
H         12.3446836046       29.7832617451       16.1355317037
H         13.9275342603       29.2688501811       15.5084592182
    84
VM2 Rank=20     G=214.840           E=116.013           -TS=98.827              
C         21.5248455883       23.2950550698        6.2982580230
C         21.4391809643       24.7040243164        6.2965926772
C         21.6256476298       22.5890373568        7.5076485638
C         21.4632181285       25.3838478293        7.5319093258
C         21.3138573349       25.4936369749        5.0153504660
C         21.6378279515       23.2793915879        8.7288872586
C         21.5531053273       24.6826588717        8.7486081119
O         21.1919831627       26.7082146321        5.0287688449
C         21.3351964779       24.7625844663        3.6778418547
N         21.5569748955       25.3866404276        9.9838301270
C         22.4095972629       26.5493609036       10.1997300200
C         20.8014906103       25.0823919667       11.0994120372
C         22.0563132876       26.9988708262       11.6303967349
O         21.1207311676       25.9812284434       12.0723056416
O         19.9923243669       24.1785323690       11.2188264180
C         21.4406510422       28.4125730744       11.6871219877
N         20.3798844403       28.5596699013       12.5546117971
O         21.8305311424       29.3330162560       10.9879708055
C         19.4115128494       29.6637860350       12.4997870700
C         19.2123261166       30.2552749565       13.9241598995
C         18.0992153670       29.1758342883       11.8289192063
O         18.6364427739       29.2828433993       14.8033805202
C         18.3536109729       31.5480225169       13.9325593609
C         18.3247113940       28.5331671521       10.4650989639
N         18.0940477244       32.1047149508       15.2851666671
C         18.1649800142       27.1450532076       10.2962888428
C         18.6979572226       29.3236142035        9.3628341348
S         19.4213973859       32.2797191800       16.3584094853
C         16.9777134270       33.0790572717       15.3185205140
C         18.3672119772       26.5551143621        9.0374416920
C         18.9032060373       28.7345232283        8.1040751917
C         18.9140171266       33.4641296300       17.6347472267
O         19.5690278792       30.9569250369       16.9790853916
O         20.4806475550       32.9058528827       15.5582575081
C         15.8598483988       32.6552583139       16.3026636465
C         18.7315715642       27.3510254758        7.9397830826
C         19.0721129552       34.8486218791       17.4240914125
C         18.3793047689       33.0101225540       18.8572620669
C         14.8397474095       33.7985247073       16.4809083066
C         15.1465693161       31.3721418553       15.8210382453
C         18.6734019995       35.7647163029       18.4116975580
C         17.9805535592       33.9280354392       19.8439176803
C         18.1236360052       35.3122045567       19.6213493947
O         17.7473437868       36.2589548368       20.5514441933
C         17.1535236324       35.9250265040       21.8210420435
H         21.5108739103       22.7339412526        5.3685684621
H         21.6904889155       21.5036384960        7.4983286087
H         21.3968416506       26.4680361311        7.5427559090
H         21.7131072367       22.7211608048        9.6587330792
H         22.2716805417       24.2035109599        3.5715483419
H         20.4909002532       24.0666160607        3.6180279166
H         21.2584244615       25.4834542545        2.8554963842
H         22.1872690346       27.3357406479        9.4672227400
H         23.4668521600       26.2645237724       10.1293703980
H         22.9480759190       26.9977644525       12.2688713399
H         20.1313185855       27.7451386906       13.1031750893
H         19.8303229414       30.4632793377       11.8728319978
H         20.2154644264       30.5147116117       14.2895383950
H         17.5942853499       28.4661544334       12.4966506727
H         17.4083849878       30.0174040167       11.7070755449
H         18.7417331200       29.6450112764       15.7139775819
H         18.8545094144       32.3054088915       13.3149663106
H         17.3919817195       31.3212429581       13.4574258742
H         17.8852891324       26.5214477861       11.1414108771
H         18.8323926281       30.3951073447        9.4831587406
H         17.3467880832       34.0794341120       15.5745760647
H         16.5236717494       33.1752593062       14.3228108365
H         18.2435732222       25.4818904082        8.9140217923
H         19.1931594365       29.3499233261        7.2561091840
H         16.3000935452       32.4451117431       17.2843386342
H         18.8871353650       26.8965534087        6.9642278119
H         19.4973855009       35.2140603173       16.4921482269
H         18.2637629006       31.9441029413       19.0394214385
H         14.0543130957       33.5142729238       17.1929037397
H         15.3286116736       34.7019976466       16.8682537745
H         14.3580801255       34.0529436699       15.5279330569
H         14.3606393820       31.0732983622       16.5261815178
H         14.6817976074       31.5221855239       14.8382940076
H         15.8526388616       30.5355932907       15.7372727502
H         18.7900385864       36.8314048573       18.2410585668
H         17.5636953805       33.5535838801       20.7735449400
H         16.2128901876       35.3778278872       21.6768796174
H         17.8368132819       35.3075126575       22.4183118955
H         16.9353549841       36.8400344382       22.3861116696
    84
VM2 Rank=21     G=214.840           E=115.554           -TS=99.286              
C         22.3337510253       23.9309522006        6.5859954729
C         21.7284678930       25.2043202019        6.5655177325
C         22.7384789486       23.3491961382        7.7972408960
C         21.5358305193       25.8816004180        7.7898086767
C         21.3030150817       25.8077515763        5.2476637278
C         22.5413380808       24.0332855589        9.0055271291
C         21.9355756677       25.3023849640        9.0096837102
O         21.4455673047       25.2028614392        4.1970455761
C         20.6861320272       27.2017460095        5.2234924820
N         21.7349471621       25.9971876013       10.2343449488
C         22.0893688042       27.4042662574       10.3816503038
C         21.2289820070       25.4636860402       11.4043376649
C         21.7159705983       27.7228080740       11.8401008452
O         21.2278783399       26.4516630893       12.3432468137
O         20.8448322426       24.3221283767       11.5913415517
C         20.6669976466       28.8476845517       11.9444066447
N         19.4675530656       28.4922860833       12.5221631897
O         20.8571520555       29.9648118334       11.4949140889
C         18.2072138831       29.2188093760       12.3019732750
C         17.8073088395       30.0640335892       13.5431970180
C         17.1113088387       28.2060574946       11.8886209271
O         16.5848278464       30.7624486294       13.2925151379
C         18.9098644745       31.0899254163       13.9193528373
C         17.4942814299       27.4034771496       10.6508469863
N         18.5304941399       32.0478925631       14.9895186849
C         17.9043292935       26.0621797986       10.7658125751
C         17.4489753081       28.0044837316        9.3798798225
S         17.8652730240       31.3988019404       16.4319310765
C         19.4271100887       33.2263518882       15.0574034743
C         18.2610274521       25.3291325727        9.6215963765
C         17.8033121284       27.2719376269        8.2348465347
C         18.0356410338       32.6711346664       17.7130446219
O         16.4374614636       31.2291311544       16.1329688545
O         18.7399293600       30.2757148574       16.7891840015
C         18.6530909442       34.5632615668       14.9491340535
C         18.2077319498       25.9327317476        8.3553189230
C         16.9728776385       33.5557836562       17.9851880988
C         19.2237401565       32.7699260230       18.4650498248
C         19.5890506014       35.7512621557       15.2526390496
C         18.0154673755       34.7281688389       13.5516229123
C         17.1101829731       34.5431731278       18.9750861453
C         19.3593277426       33.7583671017       19.4547667017
C         18.3007921145       34.6528540674       19.7103803019
O         18.3777143053       35.6439487627       20.6668471698
C         19.5488271246       35.8713900835       21.4747931609
H         22.4933685359       23.3880728624        5.6574512697
H         23.2058154683       22.3674211582        7.7989690146
H         21.0605938034       26.8568049707        7.8037766792
H         22.8612142397       23.5743801575        9.9376830462
H         20.4655825847       27.4960567710        4.1907492763
H         19.7545012978       27.2086397705        5.7989022290
H         21.3831681162       27.9281946816        5.6562558636
H         21.5140054638       28.0261525703        9.6838036218
H         23.1636347058       27.5491491199       10.2112116344
H         22.6024886507       28.0386630616       12.4035388492
H         19.4165676880       27.5390728547       12.8597762753
H         18.3447189716       29.9156935626       11.4628571002
H         17.6680370091       29.3717129723       14.3848118234
H         16.8991640138       27.5340711622       12.7297211450
H         16.1748823274       28.7427161762       11.6899588787
H         16.3069636663       31.1434700096       14.1585682407
H         19.8103682966       30.5426275417       14.2275623015
H         19.1664856291       31.6435996645       13.0062527112
H         17.9493556929       25.5861764069       11.7417340554
H         17.1364902680       29.0406625531        9.2804166686
H         20.0203521022       33.2054728585       15.9795326425
H         20.1547249903       33.2005109910       14.2345499760
H         18.5800819581       24.2940123609        9.7174571318
H         17.7590599430       27.7418656924        7.2558985049
H         17.8450888786       34.5785664396       15.6893476054
H         18.4800796368       25.3631159138        7.4704362552
H         16.0444753002       33.4846741835       17.4231741216
H         20.0457694560       32.0829974603       18.2769627359
H         20.0113055629       35.6683203614       16.2626100738
H         20.4206063260       35.7943316563       14.5373974094
H         19.0441132788       36.7023824264       15.1972502353
H         17.3099133178       33.9137535971       13.3412418212
H         17.4618648735       35.6731664942       13.4829393784
H         18.7801202997       34.7243284427       12.7644099684
H         16.2910732811       35.2284968740       19.1748649877
H         20.2871091857       33.8188117508       20.0149318668
H         20.4139914043       36.1128948965       20.8438004862
H         19.3764888396       36.7127531771       22.1578361894
H         19.7834250541       34.9835873450       22.0762167940
    84
VM2 Rank=22     G=214.844           E=115.300           -TS=99.544              
C         21.3819634660       24.5433798689        6.0202804954
C         21.0132209506       25.8588426045        6.3694480775
C         21.9580694100       23.6846328659        6.9692350016
C         21.2314056675       26.2933048095        7.6951987886
C         20.3960404394       26.7633516570        5.3292065459
C         22.1709949419       24.1300597757        8.2819765422
C         21.8064587318       25.4362486539        8.6529387469
O         20.1377693020       26.3569694266        4.2075999566
C         20.0966989499       28.2166252006        5.6798261997
N         22.0104749431       25.8860087817        9.9857232377
C         22.6523571609       27.1635344650       10.2761650221
C         21.6551168456       25.2117671694       11.1380957292
C         22.4891312585       27.3049462343       11.7995560851
O         22.0085172677       25.9938697049       12.1972684408
O         21.1251463017       24.1174592203       11.2218768829
C         21.4963509900       28.4293367879       12.1606281796
N         20.3219039677       28.0253220013       12.7549135338
O         21.7027393310       29.5996886120       11.8869767890
C         19.1200141770       28.8627331009       12.8538952276
C         19.0807174694       29.5982204218       14.2226164559
C         17.8613888377       28.0062595441       12.5646256228
O         18.8907294162       28.6627906353       15.2886552659
C         17.9785641519       30.6903528406       14.2607699130
C         17.8955683787       27.3808795674       11.1757056459
N         18.1563019131       31.7201235707       15.3206702218
C         18.3039410041       26.0453607325       11.0032475660
C         17.5265141919       28.1401832796       10.0504830467
S         17.5741745048       31.3233023507       16.8777662789
C         19.4064614898       32.5265926436       15.2666835729
C         18.3458954976       25.4761011491        9.7196054672
C         17.5604941971       27.5697181669        8.7671055382
C         17.5228338703       32.9141451249       17.7366494937
O         16.1743040923       30.9372681228       16.6632967915
O         18.5516311669       30.4037762778       17.4748843650
C         19.7006850088       33.1865744319       13.8941696199
C         17.9712786678       26.2373006127        8.6010156122
C         18.4465227593       33.2014975621       18.7607039800
C         16.5730184070       33.8859767216       17.3671565865
C         18.5672517155       34.1509590989       13.4760569782
C         21.0412221052       33.9486356450       13.9514706839
C         18.4186722890       34.4472146124       19.4111180923
C         16.5471064423       35.1306325369       18.0182775955
C         17.4659385261       35.4177507296       19.0403089607
O         17.3928108220       36.6571836578       19.6417082419
C         18.2805989728       37.0761190230       20.6964389212
H         21.2232249690       24.1837000698        5.0064758618
H         22.2392472667       22.6730363157        6.6866263376
H         20.9366855387       27.2931527970        7.9962961149
H         22.6174696904       23.4574272363        9.0100702777
H         19.6972946128       28.7392685329        4.8028474582
H         19.3574097319       28.2639817408        6.4860603184
H         21.0145689521       28.7202626685        6.0034880657
H         22.1634597301       27.9893438134        9.7439841151
H         23.7138790342       27.1217175006       10.0015029421
H         23.4473499186       27.5346081004       12.2813161020
H         20.2459697993       27.0428893262       12.9840018670
H         19.1804219502       29.6314023698       12.0702299579
H         20.0578217784       30.0853749898       14.3349851567
H         17.7654698684       27.2244352495       13.3290853191
H         16.9615610818       28.6257819415       12.6557047536
H         18.9756571436       29.1604252904       16.1360399840
H         17.9506350695       31.1860282951       13.2831632070
H         17.0017918068       30.2022751549       14.3754005556
H         18.5932202979       25.4478464755       11.8636765437
H         17.2107684297       29.1729556098       10.1713136194
H         19.3609655577       33.3361739484       16.0057994693
H         20.2607790920       31.8981841047       15.5521947653
H         18.6696409991       24.4457506326        9.5929593097
H         17.2662512685       28.1600768307        7.9032477793
H         19.8042350991       32.4065144998       13.1273148782
H         18.0001003809       25.7949662156        7.6083876974
H         19.1877951922       32.4602554444       19.0505910088
H         15.8598536707       33.6763214279       16.5731317581
H         17.6097603838       33.6241639359       13.3801718327
H         18.4380769518       34.9518523199       14.2154259913
H         18.7877503975       34.6164540074       12.5070098120
H         21.2772309897       34.3979786536       12.9782468612
H         21.0099367370       34.7533590820       14.6974694807
H         21.8653328351       33.2726401396       14.2138183684
H         19.1400947870       34.6468808919       20.1972207684
H         15.8135427250       35.8785114146       17.7300264375
H         18.0316430072       38.0965654737       21.0140310734
H         18.1884601295       36.4136114756       21.5668200121
H         19.3227885427       37.0684444157       20.3518248936
    84
VM2 Rank=23     G=214.845           E=114.771           -TS=100.074             
C         21.1678286663       26.0340625107        5.8739933161
C         20.3062000370       26.9936363051        6.4481116201
C         22.2070853124       25.4671169710        6.6292138925
C         20.5173668385       27.3741843596        7.7892834556
C         19.1655136828       27.6079323704        5.6721142309
C         22.3964610290       25.8473243756        7.9663768426
C         21.5496719331       26.8023162130        8.5551868095
O         18.3984243209       28.4013996014        6.1939185261
C         18.9623814257       27.2281416832        4.2098466398
N         21.7289432776       27.1853705585        9.9116286483
C         21.7758364158       28.5873229478       10.3082627369
C         21.8771056087       26.3330754230       10.9884792638
C         21.9442898891       28.5255638196       11.8364039846
O         22.0176297490       27.1008954072       12.1061999627
O         21.8861024981       25.1143311994       10.9706259700
C         20.7838265712       29.2158737502       12.5795879117
N         20.0456075501       28.4091174764       13.4186376533
O         20.4968260625       30.3869979135       12.3999969961
C         18.6670374146       28.7133212450       13.8356683079
C         18.6038196447       29.1865855048       15.3162403993
C         17.7799326611       27.4723879118       13.5650553675
O         17.2439893611       29.4129642738       15.6916985329
C         19.4254293397       30.4861557118       15.5409185762
C         17.8682421691       26.9812927840       12.1244042460
N         19.6309136207       30.8631420311       16.9681408917
C         18.5119024098       25.7664481870       11.8238469820
C         17.3108187567       27.7433310731       11.0810970283
S         18.4065798630       31.7383405178       17.7797812926
C         20.3619019101       29.8839031324       17.8133439140
C         18.5877339445       25.3133927033       10.4963678167
C         17.3883716639       27.2923394962        9.7526599943
C         17.8096266592       32.9242532459       16.5497824288
O         17.3662655020       30.7653179880       18.1387694973
O         19.1247876424       32.5245808420       18.7903266740
C         21.7190637609       29.3992717670       17.2367243454
C         18.0214069569       26.0736278360        9.4613450717
C         16.5647785286       32.7345817522       15.9183084656
C         18.6009615189       34.0357848616       16.1993748632
C         22.6953856599       30.5762551780       17.0111582824
C         22.3577838374       28.3642751574       18.1864354550
C         16.1195359051       33.6476838563       14.9478393287
C         18.1535624809       34.9483660753       15.2286532764
C         16.9078436972       34.7554690492       14.5980704444
O         16.4184269821       35.6159992516       13.6372206605
C         17.1357972418       36.7792656821       13.1808993965
H         21.0400147184       25.7147240982        4.8439276991
H         22.8641610524       24.7273866805        6.1782173504
H         19.8564648753       28.1064608149        8.2446897579
H         23.2009412051       25.3979742971        8.5432649930
H         19.8590659915       27.4757032570        3.6306015305
H         18.7642082963       26.1536602478        4.1261608375
H         18.1100189709       27.7785149771        3.7946758309
H         20.8458578372       29.1016731841       10.0333322305
H         22.6314541730       29.0894036524        9.8393842587
H         22.8758979629       29.0180144998       12.1409606570
H         20.3634087657       27.4500189773       13.4856670829
H         18.2837766674       29.5341345012       13.2128614183
H         19.0284846243       28.3838005660       15.9329036943
H         18.0595890146       26.6696915193       14.2588870944
H         16.7343664524       27.7149489472       13.7935581003
H         17.2302594364       29.6089891067       16.6580818647
H         20.4088540174       30.3591670413       15.0769405689
H         18.9523667130       31.2989049592       14.9771766361
H         18.9545938589       25.1711298102       12.6178875110
H         16.8166106528       28.6858552849       11.3010790802
H         20.5622811394       30.3375135454       18.7939979006
H         19.7204881762       29.0123122965       18.0007149683
H         19.0892541195       24.3755279520       10.2703342354
H         16.9584356886       27.8858372956        8.9491747680
H         21.5475185867       28.8948257577       16.2760283825
H         18.0807460652       25.7236280059        8.4338457890
H         15.9453606791       31.8780856286       16.1739771763
H         19.5659268612       34.1880614912       16.6776310123
H         22.8979000987       31.1055332881       17.9510747938
H         23.6522077356       30.2194244458       16.6093912579
H         22.2867591791       31.3026884580       16.2977988795
H         22.5668899231       28.8040956041       19.1702394471
H         21.6926707479       27.5035442545       18.3332044876
H         23.3036100364       27.9879590598       17.7758768225
H         15.1599913834       33.4964580301       14.4611455911
H         18.7814435319       35.7964342400       14.9742393981
H         16.5511119287       37.3050126577       12.4154745884
H         17.3170106076       37.4736188116       14.0115526975
H         18.0992516246       36.4921588459       12.7400871614
    84
VM2 Rank=24     G=214.855           E=115.430           -TS=99.425              
C         21.2087612251       24.4678196475        5.3967158677
C         21.6241735503       23.6945836089        6.5000705881
C         20.8959326967       25.8268262240        5.5519015217
C         21.7183865233       24.3162891876        7.7647314125
C         21.9548612891       22.2333023279        6.3064786890
C         20.9922814206       26.4305588594        6.8139689174
C         21.3987484892       25.6780469577        7.9311787233
O         21.8809101474       21.7056595382        5.2080230093
C         22.3876742809       21.3956613026        7.5047416277
N         21.4955040057       26.2879823120        9.2140971701
C         22.0880563955       27.6087702822        9.3901169678
C         21.0871280748       25.7409089437       10.4161184917
C         22.0063724835       27.8486498961       10.9096215429
O         21.4014721801       26.6258758774       11.4031754174
O         20.5452559851       24.6628192956       10.5906231316
C         21.1826717741       29.0977879481       11.2845716766
N         20.3439930110       28.9496763902       12.3681575302
O         21.2256607300       30.1350713598       10.6439439144
C         19.1767497253       29.8042629914       12.6269201787
C         19.1737041085       30.2699220534       14.1100928639
C         17.8777237501       29.0683263607       12.2023059671
O         19.0662343657       29.1391604206       14.9812170271
C         18.0371630583       31.2868417234       14.4004652353
C         17.9271801033       28.5391710061       10.7733591070
N         18.2004641084       32.0696847707       15.6559722605
C         17.9725429630       27.1538329163       10.5295020177
C         17.9382511280       29.4313949786        9.6856470533
S         17.6674455073       31.3292320980       17.1011748623
C         19.4134334197       32.9256938406       15.7573980317
C         18.0216520981       26.6657078367        9.2132462460
C         17.9916637120       28.9445903912        8.3688719939
C         17.5449182417       32.7054238520       18.2681834250
O         16.2865395103       30.9180411692       16.8206801041
O         18.7023082955       30.3620364549       17.4897240633
C         19.6153774931       33.9092143768       14.5755767098
C         18.0289677608       27.5611801057        8.1324157748
C         18.4615918708       32.8224624450       19.3313916605
C         16.5455410062       33.6838150541       18.1036306667
C         18.4193316113       34.8785791729       14.4363693220
C         20.9186756333       34.7115287979       14.7729565367
C         18.3777334821       33.9055521299       20.2233139148
C         16.4637321903       34.7658611010       18.9959575820
C         17.3754988733       34.8828458124       20.0572018788
O         17.2463379926       35.9675716584       20.8997630319
C         18.1203937287       36.2047765232       22.0204262855
H         21.1277129915       24.0137272790        4.4120288361
H         20.5766568363       26.4120992744        4.6929628502
H         22.0422627898       23.7457015671        8.6293879782
H         20.7396371208       27.4818773108        6.9188916246
H         22.5734624934       20.3615271465        7.1919254616
H         23.3082539098       21.8054185444        7.9353652070
H         21.6005807282       21.3980325948        8.2674024500
H         21.5139188033       28.3643187270        8.8387381718
H         23.1305797169       27.6105408551        9.0479927825
H         23.0100227994       27.9705073394       11.3347782441
H         20.3850448123       28.0588194234       12.8485166350
H         19.2649567882       30.7066484397       12.0060421119
H         20.1380606967       30.7665855598       14.2774796879
H         17.6877506102       28.2414611097       12.8984568614
H         17.0211643259       29.7456589448       12.2992983774
H         19.1579974330       29.4681201358       15.9065918612
H         17.9710578542       31.9793713974       13.5529417841
H         17.0804872997       30.7485177855       14.4211314881
H         17.9739158048       26.4531389059       11.3603470125
H         17.9115527052       30.5033172578        9.8615373981
H         19.3682193930       33.5316376007       16.6709219938
H         20.3045653142       32.2912492284       15.8545857037
H         18.0586703433       25.5941997051        9.0320413727
H         18.0017264311       29.6393933370        7.5329297639
H         19.7211317990       33.3411119706       13.6413660220
H         18.0659743778       27.1833047368        7.1137651022
H         19.2407282275       32.0753816041       19.4647248192
H         15.8372729813       33.6059929285       17.2818455287
H         18.2811104776       35.4686484793       15.3515491434
H         18.5761194828       35.5760038562       13.6036764439
H         17.4861491521       34.3354462160       14.2419201868
H         21.0912776393       35.3910086830       13.9283760942
H         20.8793880813       35.3143696305       15.6895680473
H         21.7852297744       34.0414971750       14.8434241690
H         19.0947588371       33.9756072862       21.0352500740
H         15.6920318475       35.5195024845       18.8654772932
H         19.1590874323       36.3196164776       21.6844168351
H         17.8240429510       37.1247710063       22.5399851506
H         18.0674171761       35.3741068329       22.7360730162
    84
VM2 Rank=25     G=214.860           E=115.541           -TS=99.319              
C         21.3470936511       23.2801322927        6.3294511884
C         21.5037833110       24.6809398218        6.4049965832
C         21.1514556046       22.5214765050        7.4945178369
C         21.4655415165       25.2977164825        7.6726264168
C         21.7001796811       25.5288992216        5.1708290963
C         21.1054479111       23.1512543598        8.7472789280
C         21.2588646580       24.5455074524        8.8437850862
O         21.7864914689       26.7443862379        5.2441684294
C         21.7883686800       24.8576175774        3.8050179596
N         21.2050574148       25.1895876019       10.1101995325
C         22.2013817909       26.1757987149       10.5105545167
C         20.2582633631       24.9792348623       11.0936834865
C         21.7322043344       26.6200195417       11.9091673174
O         20.5829046132       25.7687944895       12.1555201833
O         19.2993962981       24.2280174105       11.0466106360
C         21.3674570292       28.1175844660       11.9791878417
N         20.2334355476       28.4152740805       12.7036003816
O         22.0070472631       28.9823190133       11.4037149050
C         19.4873564424       29.6766576376       12.5938696923
C         19.1906148484       30.2326537611       14.0159239728
C         18.2218118002       29.4609749606       11.7204443086
O         18.3313463426       29.3453891421       14.7390115762
C         18.5782974219       31.6591818590       13.9971383611
C         18.5285041896       28.8442135145       10.3605185053
N         18.2246071311       32.2167504859       15.3355158307
C         18.1589280841       27.5152306254       10.0810549260
C         19.1873597174       29.5991376281        9.3730467659
S         19.4412733382       32.1032460902       16.5418503978
C         17.4545495295       33.4913871914       15.2767232277
C         18.4367022054       26.9503230433        8.8251335434
C         19.4682067354       29.0345100547        8.1176855620
C         18.9248493823       33.2070932846       17.8820784623
O         19.3233046962       30.7290661313       17.0471208595
O         20.6711867056       32.6211443604       15.9305559486
C         16.1408059025       33.4433933780       14.4506249752
C         19.0871202991       27.7120406791        7.8413467409
C         17.9602547634       32.7819804673       18.8170454087
C         19.4664717137       34.5034171864       17.9876891995
C         15.2030414607       32.3129591150       14.9338133203
C         15.4119494064       34.8009531411       14.5423828513
C         17.5414078145       33.6424681516       19.8462758869
C         19.0464889356       35.3618119909       19.0176547172
C         18.0852044637       34.9387027893       19.9492973335
O         17.7113739484       35.8267459338       20.9366046495
C         16.7316085848       35.5170072660       21.9466826515
H         21.3714799068       22.7665561667        5.3728888121
H         21.0312310005       21.4429614470        7.4257048159
H         21.5841618776       26.3752021688        7.7426260573
H         20.9502968593       22.5531095257        9.6417328205
H         22.6213114651       24.1456722984        3.7907459665
H         20.8552889529       24.3254085519        3.5884395272
H         21.9543679590       25.6117212776        3.0268345098
H         22.2172707691       27.0189224912        9.8081802759
H         23.1957323370       25.7145907002       10.5598245272
H         22.5114005583       26.4313299740       12.6575947905
H         19.7717238978       27.6354721495       13.1562781953
H         20.1234669895       30.4137425890       12.0842170181
H         20.1610280314       30.2864062435       14.5281484402
H         17.5103550957       28.8273043470       12.2651943074
H         17.7115875108       30.4172477023       11.5608727298
H         18.3872451952       29.6297838160       15.6812528098
H         19.2874182921       32.3330384867       13.4980423130
H         17.6819862302       31.6106936605       13.3738157777
H         17.6570787989       26.9180086263       10.8378981280
H         19.4849529575       30.6233873688        9.5803969683
H         17.1565297681       33.7982515692       16.2856845183
H         18.0977985065       34.2876532978       14.8773483533
H         18.1497185288       25.9225930761        8.6159980582
H         19.9789833108       29.6219775627        7.3588553810
H         16.3786796215       33.2787250958       13.3913322356
H         19.3016181412       27.2771644594        6.8680345174
H         17.5319267636       31.7849874564       18.7419870290
H         20.2090545517       34.8465781322       17.2710156908
H         14.9414571793       32.4425110957       15.9917468569
H         14.2721838864       32.3016487628       14.3527823093
H         15.6743124114       31.3280686054       14.8214575144
H         16.0517102710       35.6151385296       14.1781973019
H         14.4991345612       34.7966863576       13.9328387857
H         15.1262221017       35.0300979881       15.5772855805
H         16.7961339081       33.2930964874       20.5539173952
H         19.4656295502       36.3612455882       19.0954851625
H         17.0531526514       34.6566677743       22.5478453839
H         16.6000204785       36.3748731226       22.6181773284
H         15.7609872329       35.2880196940       21.4879424604
    84
VM2 Rank=26     G=214.867           E=115.171           -TS=99.696              
C         20.7733522457       25.1154668965        5.4129764615
C         22.0121503816       25.4523146254        5.9958586399
C         19.5704244424       25.5674706850        5.9763876969
C         22.0170726575       26.2538138968        7.1587472143
C         23.2930448369       24.9524107011        5.3701232413
C         19.5903269311       26.3610990774        7.1323654192
C         20.8139541298       26.7051566496        7.7358748209
O         23.2810428134       24.2690473716        4.3585221541
C         24.6303368464       25.3035079242        6.0129290729
N         20.8356453015       27.5090227904        8.9109394515
C         19.9712683557       28.6751120429        9.0536380762
C         21.6479095317       27.3294491574       10.0156033558
C         20.3865129252       29.2739668332       10.4085873636
O         21.3808739638       28.3359552168       10.8951357080
O         22.4644456615       26.4425974661       10.1971911932
C         19.1968973356       29.4430327689       11.3732595950
N         19.3056693470       28.7766573213       12.5744946932
O         18.1967646839       30.0739567791       11.0769291703
C         18.1458604942       28.3688970883       13.3843025052
C         18.0670808157       29.1752545506       14.7115012743
C         18.2104563771       26.8367828028       13.6068779664
O         16.9981742865       28.6803628967       15.5209046365
C         17.8523921543       30.6923154028       14.4494667240
C         18.3789610129       26.0560276102       12.3077376670
N         18.1756281987       31.5797075597       15.5996117518
C         19.5744851589       25.3621394818       12.0435798590
C         17.3455915010       26.0376632643       11.3529938827
S         16.9543185464       31.7928262885       16.7751016182
C         19.5793207831       31.5445996212       16.0933370187
C         19.7319560286       24.6520252789       10.8418340653
C         17.5037212127       25.3312519350       10.1490050247
C         17.5030517431       33.2420164832       17.7076338000
O         15.7773406522       32.2282838129       16.0137389284
O         16.9408947136       30.5768291244       17.5990316848
C         20.6612439325       31.7458906149       14.9996753391
C         18.6962822558       24.6353875366        9.8947378094
C         17.4898943949       34.5155014246       17.1060478059
C         17.9710368831       33.1041697505       19.0288686512
C         20.5012258583       33.1086249498       14.2878480597
C         22.0689123212       31.6434771237       15.6232644307
C         17.9373328560       35.6413528622       17.8183755481
C         18.4172851960       34.2311332636       19.7395377826
C         18.4034137689       35.5013239875       19.1412757525
O         18.8557970635       36.5693079099       19.8882486133
C         18.8996493997       37.9198091716       19.3878984727
H         20.7414253417       24.4994614781        4.5174970174
H         18.6215959092       25.3000575518        5.5176395246
H         22.9572918164       26.5334794019        7.6232560099
H         18.6500953375       26.6951562520        7.5618851830
H         25.4504908845       24.8509068893        5.4434541854
H         24.7662652081       26.3907897952        6.0248958323
H         24.6628286521       24.9246773627        7.0408487142
H         18.9165291155       28.3709650639        9.0683544654
H         20.1434611674       29.3881262693        8.2375243452
H         20.8428827504       30.2608863801       10.2639050180
H         20.1749068291       28.2740447118       12.7068210721
H         17.2272394235       28.5801650150       12.8188900384
H         19.0218579999       29.0288072973       15.2322344669
H         19.0314171298       26.6072491134       14.2977260668
H         17.2933721037       26.5026189327       14.1084397499
H         17.0337334664       29.1604289342       16.3824723788
H         18.4642002765       30.9958809235       13.5936798700
H         16.8129476163       30.8470310589       14.1308131663
H         20.3849435706       25.3741766744       12.7673803604
H         16.4199517154       26.5739810321       11.5440299253
H         19.7324320743       32.3319172342       16.8419377668
H         19.7628152757       30.5916238266       16.6073692174
H         20.6595449390       24.1210253217       10.6422223565
H         16.7018160765       25.3214026855        9.4151862755
H         20.5786012723       30.9452953243       14.2522641842
H         18.8199292708       24.0876697660        8.9637648556
H         17.1365233119       34.6294167348       16.0836639610
H         17.9914279609       32.1254837901       19.5028397666
H         19.5269453545       33.1863160634       13.7894347395
H         20.5814479722       33.9383792246       15.0018339280
H         21.2761265207       33.2433072156       13.5225876412
H         22.8455937040       31.7528242831       14.8554363683
H         22.2269024531       32.4246540064       16.3781768015
H         22.2139125993       30.6688250041       16.1067847684
H         17.9188539353       36.6124913910       17.3338655376
H         18.7779924422       34.1219224618       20.7586328501
H         19.2957150616       38.5933583024       20.1583638423
H         19.5507365346       37.9856920744       18.5065748126
H         17.8940977309       38.2647619986       19.1143245825
    84
VM2 Rank=27     G=214.880           E=115.370           -TS=99.511              
C         21.4261710693       24.2277483285        5.9457770567
C         20.9985866816       25.5438724477        6.2252857360
C         22.0174335238       23.4421383215        6.9484034421
C         21.1858489370       26.0525350785        7.5270886082
C         20.3393081123       26.4081048134        5.1768276496
C         22.1862198143       23.9586723236        8.2418613915
C         21.7693623267       25.2676727037        8.5380480429
O         19.9297782719       27.5268384608        5.4429848605
C         20.1757107897       25.8738554268        3.7585382341
N         21.9280523638       25.7936231982        9.8474862004
C         22.5711771645       27.0805761955       10.0813665538
C         21.5183017819       25.1943452418       11.0220366716
C         22.4049389094       27.2941575302       11.5969246620
O         21.8486468111       26.0302914852       12.0467785405
O         20.9669601951       24.1144012691       11.1468171614
C         21.4837371221       28.4894197214       11.9176610637
N         20.4131717234       28.2159599845       12.7397455404
O         21.6559476489       29.5977913614       11.4385753472
C         19.2318234800       29.0793107218       12.8717784639
C         19.2088412372       29.7616541638       14.2676752360
C         17.9512876391       28.2727005915       12.5376482421
O         19.0437605705       28.7803036963       15.2960628241
C         18.0970741489       30.8402478266       14.3679065481
C         18.0102350800       27.6228448558       11.1602781653
N         18.2653565236       31.8114947130       15.4832190168
C         18.1929645479       26.2330430435       11.0356917955
C         17.8904375441       28.4097970091       10.0000492202
S         17.6906368734       31.3265600794       17.0179475024
C         19.5034001928       32.6374180310       15.4695902406
C         18.2443742551       25.6350786407        9.7656235469
C         17.9438216599       27.8130518125        8.7291397249
C         17.6044525130       32.8727312203       17.9521148442
O         16.2991191202       30.9228802814       16.7826402068
O         18.6860100095       30.3988882047       17.5712179708
C         19.7654051569       33.3969530749       14.1430416426
C         18.1132772362       26.4244598043        8.6123340591
C         16.6436112530       33.8469439797       17.6181914889
C         18.5119139646       33.1242837545       18.9994387234
C         18.6080839024       34.3655233224       13.8082801093
C         21.0920717122       34.1795886719       14.2358818688
C         16.5878581803       35.0601341962       18.3254462951
C         18.4540140659       34.3375322400       19.7057728132
C         17.4958602388       35.3089782654       19.3745039598
O         17.4896751387       36.4809709295       20.1022380906
C         16.5642805089       37.5576229781       19.8560806382
H         21.3011720765       23.7988996394        4.9559293115
H         22.3409771515       22.4287183441        6.7233450036
H         20.8539084585       27.0611806332        7.7583612639
H         22.6397548353       23.3404695530        9.0126333308
H         21.1558086833       25.6227460671        3.3375772959
H         19.5460985912       24.9770223443        3.7665656628
H         19.7024333487       26.6327244681        3.1245603322
H         22.0803285050       27.8770096463        9.5073658430
H         23.6328683698       27.0275285174        9.8094948002
H         23.3740099049       27.4812248520       12.0752833926
H         20.3624132431       27.2767367665       13.1140510694
H         19.3111292199       29.8811163473       12.1243560515
H         20.1836852759       30.2522328848       14.3847282938
H         17.7921483419       27.5076164632       13.3083109608
H         17.0761020484       28.9313707113       12.5830169779
H         19.1310904567       29.2427471764       16.1628835028
H         18.0628366862       31.3884299903       13.4189323865
H         17.1253155134       30.3369939887       14.4566908438
H         18.2977803549       25.6143410979       11.9230400357
H         17.7567296325       29.4849092397       10.0836002165
H         19.4580334891       33.3922317858       16.2645578121
H         20.3706092513       32.0034983968       15.6981556267
H         18.3896004935       24.5612062947        9.6763114848
H         17.8539769000       28.4252317449        7.8349741623
H         19.8713446933       32.6741799830       13.3224581550
H         18.1532432766       25.9629348230        7.6289069536
H         15.9435807800       33.6632262671       16.8062158137
H         19.2620750523       32.3823710435       19.2635012090
H         18.4728976446       35.1087845601       14.6045730174
H         18.8067514433       34.9033958785       12.8725516353
H         17.6599821659       33.8272996118       13.6858245210
H         21.3063225853       34.6990426954       13.2929827201
H         21.0554670868       34.9308714194       15.0354750103
H         21.9324255617       33.5041018638       14.4417650238
H         15.8395108660       35.7964371601       18.0496917162
H         19.1554405845       34.5291238285       20.5131702791
H         15.5294003712       37.2185604349       19.9940233124
H         16.7516222899       38.3816284106       20.5561313116
H         16.6798270823       37.9420839335       18.8344019967
    84
VM2 Rank=28     G=214.887           E=116.051           -TS=98.836              
C         21.5618045927       23.3505875295        6.2513533699
C         21.4453879224       24.7573251376        6.2591799431
C         21.6932737651       22.6400784929        7.4551453081
C         21.4701436704       25.4304667989        7.4981407544
C         21.2867617451       25.5512785256        4.9843255469
C         21.7057593865       23.3235656494        8.6802335437
C         21.5905885808       24.7245142531        8.7094446763
O         21.1388629729       26.7628352730        5.0064861580
C         21.3068521693       24.8284309054        3.6423435268
N         21.5946348140       25.4213342122        9.9487672517
C         22.4226428621       26.6025143654       10.1603396859
C         20.8616558711       25.0929804522       11.0725134129
C         22.0810319718       27.0333119884       11.5995674636
O         21.1735846657       25.9928090747       12.0468365218
O         20.0748936990       24.1702236917       11.1969838999
C         21.4371097285       28.4333529352       11.6769482480
N         20.3856479502       28.5509975447       12.5601221663
O         21.7980711886       29.3675015437       10.9804566629
C         19.3933603948       29.6345596827       12.5276163743
C         19.1984564324       30.2073590767       13.9602254433
C         18.0838060144       29.1250677763       11.8674084688
O         18.6545651829       29.2137492045       14.8361119856
C         18.3119440046       31.4808347656       13.9921103733
C         18.3065615763       28.4998565494       10.4950545046
N         18.0557742338       32.0181767044       15.3532512063
C         18.1752945719       27.1101245853       10.3153253723
C         18.6487913555       29.3082522027        9.3957513816
S         19.3921253722       32.2125715905       16.4119722910
C         16.9215265383       32.9707477334       15.4068588905
C         18.3749828414       26.5361524707        9.0487160102
C         18.8514819760       28.7351920151        8.1292035711
C         18.8719713281       33.3664126042       17.7109908886
O         19.5808183201       30.8861340945       17.0134743556
O         20.4250315617       32.8752099423       15.6068124271
C         15.8229235837       32.5188755275       16.4001591819
C         18.7083105764       27.3497710113        7.9541742977
C         18.9910416326       34.7575271887       17.5172376108
C         18.3669798102       32.8823069633       18.9343236464
C         14.7820696382       33.6404119900       16.5956906366
C         15.1303807298       31.2245225976       15.9183181886
C         18.5837632118       35.6531491342       18.5207194866
C         17.9603628920       33.7791151100       19.9363520555
C         18.0622006039       35.1645527890       19.7353011444
O         17.6442620533       35.9953195799       20.7542126441
C         17.6815060075       37.4329387367       20.6654394228
H         21.5483926585       22.7946050480        5.3185780222
H         21.7817273246       21.5564347645        7.4385345369
H         21.3804340683       26.5128609067        7.5162316240
H         21.8049980069       22.7617783169        9.6056769931
H         22.2538325274       24.2905319513        3.5208686654
H         20.4771940149       24.1145511119        3.5891286346
H         21.2038857809       25.5520805234        2.8253202565
H         22.1699979982       27.3885770828        9.4373658201
H         23.4851927913       26.3437516768       10.0714555850
H         22.9819619958       27.0457149918       12.2249187334
H         20.1617544593       27.7268574709       13.1049592131
H         19.7875638356       30.4489708966       11.9039089583
H         20.2000073034       30.4851047115       14.3164076111
H         17.6018616606       28.3987109251       12.5341922794
H         17.3739941270       29.9528981577       11.7615811272
H         18.7643214567       29.5685188934       15.7491020188
H         18.7890164126       32.2552027104       13.3767070969
H         17.3500426057       31.2378710489       13.5256074515
H         17.9197193685       26.4729306700       11.1579463083
H         18.7611368782       30.3813233116        9.5243882441
H         17.2746086542       33.9760514700       15.6661142588
H         16.4542518261       33.0655728249       14.4171535246
H         18.2733798418       25.4616250264        8.9168240345
H         19.1173962225       29.3644695196        7.2835485253
H         16.2774930261       32.3120852364       17.3760018551
H         18.8618197244       26.9076520774        6.9726284128
H         19.3937955203       35.1446904141       16.5840327688
H         18.2809022099       31.8116472647       19.1050387836
H         14.0100483396       33.3363976738       17.3141699838
H         15.2567793548       34.5512768160       16.9832793120
H         14.2853714643       33.8905020538       15.6493082033
H         14.6524214317       31.3708826258       14.9413610670
H         15.8520812211       30.4027679465       15.8222387861
H         14.3580176092       30.9059638308       16.6297938528
H         18.6784980529       36.7199923185       18.3443858834
H         17.5635688930       33.4007598242       20.8743913632
H         18.7104462292       37.7858388599       20.5181793082
H         17.0611555546       37.7858909711       19.8314289193
H         17.2958891573       37.8767353329       21.5919852604
    84
VM2 Rank=29     G=214.894           E=114.439           -TS=100.455             
C         19.8621212865       23.6479487311        7.0182123671
C         19.8464556512       25.0561251258        6.9473175900
C         20.3560031793       22.9932057586        8.1571283420
C         20.3365610193       25.7938849016        8.0470857727
C         19.3093985706       25.7368769373        5.7102633719
C         20.8392522651       23.7389074137        9.2422819770
C         20.8293732525       25.1443105917        9.1954153212
O         18.8579225335       25.0926891588        4.7768899152
C         19.3333087726       27.2589038138        5.6189099895
N         21.3168957060       25.9030642553       10.2953231488
C         22.2357314724       27.0197147823       10.1069774547
C         21.0281949961       25.6908707094       11.6300016196
C         22.4003029142       27.5962093044       11.5260344334
O         21.7110447581       26.6229754412       12.3526074218
O         20.3062548735       24.8296003829       12.1022951401
C         21.7926304562       29.0070591818       11.6768551656
N         21.1357017266       29.2434478820       12.8649492372
O         21.8486905008       29.8504362802       10.7971435640
C         20.1858039210       30.3434350276       13.0813406622
C         20.5433847497       31.1003698350       14.3914825236
C         18.7316233878       29.8003747468       13.0512913384
O         20.4267162505       30.2186005491       15.5122623079
C         19.6663948385       32.3648431959       14.5944732105
C         18.4145298067       28.9916738621       11.7987134219
N         20.1150804201       33.2724315461       15.6885533716
C         18.2167561990       27.6009766667       11.8820096179
C         18.3133849643       29.6287264804       10.5484307394
S         19.6550688756       32.9198713880       17.2987427186
C         21.4693727349       33.8664066793       15.5476869675
C         17.9120109502       26.8567938492       10.7303306805
C         18.0106473745       28.8852978134        9.3952589729
C         17.9582154348       32.3042074919       17.1591149512
O         20.5673820711       31.8697806334       17.7707053621
O         19.5647886867       34.2318104200       17.9511880863
C         21.7292626591       34.5995123103       14.2052483238
C         17.8038614968       27.4995493335        9.4873573374
C         16.9032964111       33.1983386755       16.8915797107
C         17.6834256761       30.9278293597       17.2834497231
C         20.7273651144       35.7559044561       13.9854655710
C         23.1727195494       35.1442094747       14.1713827229
C         15.5903545899       32.7191229890       16.7483902424
C         16.3699307472       30.4501624200       17.1374806956
C         15.3169231536       31.3472825876       16.8678843179
O         14.0097464453       30.9352999823       16.7108445139
C         13.6051095571       29.5539575745       16.7756400773
H         19.4904132227       23.0559278691        6.1853019958
H         20.3640965787       21.9066850453        8.1983350898
H         20.3239095251       26.8783732003        8.0232653708
H         21.2213339169       23.2214145197       10.1186715928
H         20.3613586300       27.6245942010        5.7203407941
H         18.9382702043       27.5820055744        4.6486638505
H         18.7163089778       27.6930286285        6.4129917700
H         21.8183744005       27.7626836911        9.4162294278
H         23.1966147836       26.6557584641        9.7220851730
H         23.4591653309       27.6572350362       11.8052137605
H         21.1476873870       28.4934303869       13.5455875965
H         20.2901518093       31.0597263825       12.2545646900
H         21.5890438719       31.4199959515       14.2907724838
H         18.5568799782       29.1865021378       13.9441166672
H         18.0231862966       30.6340168761       13.1174782125
H         20.7784981554       30.6919116363       16.3020004899
H         19.6579765238       32.9221740848       13.6502246922
H         18.6282231120       32.0543875762       14.7539094300
H         18.3001230569       27.0942554031       12.8399112692
H         18.4702485689       30.7011124347       10.4708478255
H         21.6257169287       34.5941326068       16.3562144249
H         22.2289296825       33.0849148885       15.6840835058
H         17.7614276560       25.7823029967       10.8022128937
H         17.9311057718       29.3848342521        8.4332107842
H         21.6320167062       33.8859719661       13.3758256458
H         17.5615065238       26.9232643131        8.5984086834
H         17.1037782299       34.2623482916       16.7880686481
H         18.4888069089       30.2255110228       17.4850135406
H         19.6943214810       35.3880842702       13.9530274527
H         20.7957006113       36.4952162347       14.7938072370
H         20.9258741422       36.2708007479       13.0368718493
H         23.3821326570       35.6382782247       13.2138658532
H         23.3403020718       35.8750814286       14.9731419828
H         23.9014315301       34.3324987223       14.2935730609
H         14.7797681052       33.4118059556       16.5394427175
H         16.1840312312       29.3850704692       17.2331001408
H         13.8393912886       29.1269517758       17.7593599127
H         12.5227740541       29.4715075688       16.6147619649
H         14.1134214536       28.9647103809       16.0013920908
    84
VM2 Rank=30     G=214.901           E=115.039           -TS=99.861              
C         21.4580876930       23.7304635311        6.0909693349
C         21.1207826643       25.0969073052        6.1766224493
C         21.9259975571       23.0358143264        7.2171657995
C         21.2618548983       25.7514101384        7.4198800301
C         20.6193091376       25.8219259546        4.9498392306
C         22.0609565283       23.6987323241        8.4457787583
C         21.7265805293       25.0601513162        8.5554633970
O         20.4665135301       25.2406446698        3.8874116179
C         20.3005502362       27.3108193367        5.0338396520
N         21.8598583917       25.7342192578        9.8007073573
C         22.5115822795       27.0349274526        9.9009134091
C         21.4362401627       25.2723639431       11.0322962567
C         22.3166187635       27.4234112800       11.3787924763
O         21.7678162120       26.2129186041       11.9611758033
O         20.8750945006       24.2173066269       11.2730998950
C         21.3680010501       28.6271449782       11.5630862852
N         20.4951059841       28.5350239044       12.6254902042
O         21.3546191227       29.5823171306       10.8043232253
C         19.2862050812       29.3567750893       12.7772487528
C         19.2540710892       30.0024360605       14.1909137699
C         18.0270842197       28.5129251206       12.4463181407
O         19.1890812224       28.9848907794       15.1954859020
C         18.0739758450       30.9982316991       14.3519984727
C         18.0933596828       27.8474135426       11.0765082873
N         18.1998748465       31.9408679996       15.4971416341
C         18.2430209478       26.4522511906       10.9705571799
C         18.0044721924       28.6220635272        9.9054563979
S         17.6949179777       31.3675286892       17.0259776233
C         19.3749443387       32.8538785218       15.4858971800
C         18.2941662352       25.8372501619        9.7087120040
C         18.0571013566       28.0084382893        8.6425771139
C         17.5147819724       32.8735735557       18.0109935872
O         16.3323241269       30.8687347193       16.8041920535
O         18.7675896781       30.4997801836       17.5297369285
C         19.5409831995       33.6839429154       14.1865466847
C         18.1962190888       26.6146858822        8.5443017373
C         18.4250367454       33.1611157829       19.0469290757
C         16.4760863283       33.7816764942       17.7289506437
C         18.3061380504       34.5760497160       13.9241409209
C         20.8086919354       34.5591116006       14.2773206055
C         18.2959968940       34.3436531442       19.7956557051
C         16.3491245644       34.9633052612       18.4782163267
C         17.2545239137       35.2503745194       19.5121821546
O         17.0802428502       36.4265020676       20.2118748799
C         17.9434163760       36.8390414065       21.2893110561
H         21.3584936377       23.2025296797        5.1455790721
H         22.1842269929       21.9826233057        7.1371757036
H         20.9964571287       26.7988833106        7.5162392926
H         22.4259880341       23.1515982656        9.3113745211
H         19.9833693098       27.6817867685        4.0522056094
H         19.4928269296       27.4825133312        5.7534017482
H         21.1898501689       27.8674215905        5.3504578791
H         22.0456671638       27.7644458913        9.2271036237
H         23.5783583962       26.9402069109        9.6623250006
H         23.2742996873       27.6778622087       11.8488588168
H         20.5827073698       27.7143031320       13.2125609099
H         19.3331224942       30.1789305030       12.0496592243
H         20.1955101432       30.5567607650       14.2960922717
H         17.8883657245       27.7516130703       13.2245511581
H         17.1350779089       29.1488910900       12.4864262532
H         19.2623226150       29.4297381725       16.0728345699
H         17.9806768773       31.5736968698       13.4233451381
H         17.1412141538       30.4263992620       14.4436103389
H         18.3214450430       25.8421585760       11.8666410504
H         17.8948427282       29.7008901285        9.9746627884
H         19.2996843776       33.5704871988       16.3132645129
H         20.2916842136       32.2759281294       15.6637889648
H         18.4111422889       24.7587130552        9.6346506802
H         17.9845070029       28.6130841168        7.7422633279
H         19.6747397460       33.0048199660       13.3335550790
H         18.2294344447       26.1365794135        7.5688860209
H         19.2341815753       32.4693403081       19.2698442466
H         15.7722580357       33.5719847916       16.9266505820
H         18.1394237267       35.2734054232       14.7552480194
H         18.4373337911       35.1656609664       13.0078937282
H         17.3972816590       33.9736607564       13.8027690542
H         20.9565718455       35.1303530763       13.3517851066
H         20.7400845250       35.2731933274       15.1082934336
H         21.7021664460       33.9408316288       14.4330631051
H         19.0089239347       34.5447915441       20.5890987643
H         15.5471590790       35.6622687590       18.2572550642
H         18.9765755441       36.9530322760       20.9363727944
H         17.6091496847       37.8043642239       21.6900267818
H         17.9245994245       36.1039726409       22.1043503506
