    83
VM2 Rank=1      G=215.462           E=117.178           -TS=98.284              
C         22.6341069502       24.7766488821        6.0369169522
C         23.6939173477       25.0159526478        6.9266133089
C         21.3822239259       25.3846191697        6.2551919431
C         23.5067248266       25.8568607659        8.0355477266
O         20.3010733054       25.1840497931        5.4220659539
C         21.2038453674       26.2283691859        7.3621257749
C         22.2582893834       26.4657027246        8.2644706364
C         20.3443742679       24.3239960525        4.2671443866
N         22.0644825130       27.3145615977        9.3895292057
C         22.4885272744       27.0725126724       10.6825949628
C         21.3772040219       28.5950869052        9.2693074983
O         23.0819498562       26.0910035346       11.0954179124
O         22.1272435566       28.1436384686       11.4442570964
C         21.4310459872       29.1728663941       10.6943416076
C         20.0309136124       29.4812341668       11.2598522738
N         19.7001320783       28.8209887941       12.4233701327
O         19.2420687956       30.2170969891       10.6920740776
C         18.3148979829       28.5817268635       12.8603601615
C         18.1206465083       27.0601348955       13.0789921421
C         17.9616297815       29.4272727367       14.1169614364
C         18.5282361614       26.2310236148       11.8659650468
O         16.6511020307       29.0929115393       14.5788250951
C         18.0268129469       30.9519560542       13.8214499401
C         17.7658568474       26.2834004024       10.6846583328
C         19.6756512787       25.4173950690       11.9111004610
N         18.1168665867       31.8212753361       15.0259748205
C         18.1425750036       25.5269181433        9.5623556948
C         20.0516494128       24.6584259756       10.7903726779
S         16.6472660631       32.2185477129       15.8013347804
C         19.3027665129       31.6223056725       15.9031261830
C         19.2834238771       24.7105625774        9.6168056779
C         17.0868368849       33.6105496738       16.8691642160
O         15.8053930289       32.7797220867       14.7379031824
O         16.2401607958       31.0364721917       16.5724244425
C         20.6698796884       31.6547502511       15.1702516402
C         17.1322829277       33.4496147746       18.2676438298
C         17.4124690534       34.8589273842       16.3040130333
C         20.8990695782       33.0068722769       14.4571937795
C         21.8132711717       31.3914051663       16.1722643658
C         17.4966996466       34.5292283738       19.0897525807
C         17.7774103332       35.9373313121       17.1280262236
C         17.8202540316       35.7744843131       18.5274992174
O         18.1725084670       36.7957935858       19.3854125277
C         18.5332603287       38.1158032725       18.9343470608
H         22.7961840693       24.1212154674        5.1871200273
H         24.6607478025       24.5480529951        6.7576184503
H         24.3358459740       26.0337612436        8.7160410168
H         20.2312987134       26.6831945232        7.5220125856
H         21.0977045852       24.6753932084        3.5502563500
H         20.5848283346       23.2938176540        4.5601674601
H         19.3685702266       24.3195456888        3.7652591953
H         20.3389175913       28.4470886472        8.9450435912
H         21.9003297817       29.2484214488        8.5597038109
H         22.0096978915       30.1046270916       10.7075670523
H         20.4269979235       28.2249540600       12.8000830298
H         17.6313299147       28.8886354529       12.0561410272
H         18.6897617562       26.7465429237       13.9631347932
H         17.0677593959       26.8567960168       13.3120505383
H         18.6995019172       29.1760852683       14.8893803952
H         16.4986836656       29.5894144200       15.4180357218
H         18.8922663137       31.1542770052       13.1822056125
H         17.1514168813       31.2277309942       13.2185166485
H         16.8810866631       26.9125858516       10.6368624922
H         20.2794782499       25.3734933083       12.8135283455
H         17.5498514175       25.5717681082        8.6521635939
H         20.9413504092       24.0346500932       10.8303761468
H         19.3346010823       32.4041371807       16.6721692038
H         19.2060393486       30.6681963822       16.4382554378
H         19.5753168824       24.1241835398        8.7489259884
H         20.7026500911       30.8511063377       14.4222916898
H         16.8884605430       32.4892340241       18.7160763355
H         17.3866028297       34.9895083802       15.2244852648
H         20.1275964051       33.1941877899       13.6999496147
H         20.8775584853       33.8387371815       15.1729068536
H         21.8717707608       33.0210730115       13.9493758262
H         21.6856798039       30.4197330667       16.6665692969
H         22.7851772338       31.3803258725       15.6623378798
H         21.8472539763       32.1664449509       16.9489561095
H         17.5311649611       34.4021899929       20.1683001756
H         18.0252039148       36.8896671841       16.6699194158
H         18.7742276450       38.7539001789       19.7939578972
H         19.4135123412       38.0745815356       18.2797801448
H         17.7027375561       38.5783619639       18.3854821855
    83
VM2 Rank=2      G=215.512           E=117.220           -TS=98.292              
C         22.6254636001       24.6989215648        6.0704287872
C         23.6905773599       24.9704252080        6.9444096005
C         21.3686298359       25.2972725430        6.2868416714
C         23.5038112540       25.8339790127        8.0358730300
O         20.2822354773       25.0654697206        5.4687790281
C         21.1906381574       26.1637620035        7.3761322139
C         22.2505154449       26.4334831161        8.2628639547
C         20.3247332281       24.1795428622        4.3335520379
N         22.0571975245       27.3051766220        9.3703930791
C         22.4955671565       27.0968821872       10.6645469949
C         21.3544160692       28.5749707878        9.2279786206
O         23.1035957946       26.1314398774       11.0936777409
O         22.1292335535       28.1808057544       11.4053888000
C         21.4137384606       29.1846837113       10.6394338429
C         20.0149620162       29.4881724627       11.2109257295
N         19.7032106622       28.8500783585       12.3919242930
O         19.2118440841       30.2014737280       10.6344378055
C         18.3253250324       28.6053714600       12.8486619613
C         18.1500296513       27.0867622128       13.1013948900
C         17.9764758046       29.4735232014       14.0910042076
C         18.5538081266       26.2365714928       11.9017638229
O         16.6751586534       29.1345751049       14.5749966633
C         18.0208215926       30.9922322617       13.7626015606
C         17.7772774039       26.2541843982       10.7286807972
C         19.7116425946       25.4380632515       11.9508270823
N         18.1198632954       31.8876369155       14.9471735626
C         18.1503197910       25.4781894952        9.6185360710
C         20.0840539529       24.6596569191       10.8422984478
S         16.6578704996       32.2840411800       15.7373280085
C         19.3214901380       31.7200900820       15.8094357639
C         19.3017063283       24.6770488273        9.6770553637
C         17.0980710786       33.7000021269       16.7730415814
O         15.7939285873       32.8160577861       14.6766088326
O         16.2756361516       31.1123337593       16.5364702615
C         20.6766624152       31.7489773094       15.0545135258
C         17.1734419247       33.5631877122       18.1730755102
C         17.3938846045       34.9431497878       16.1812115209
C         20.8815012402       33.0867219841       14.3077433473
C         21.8380500165       31.5191591729       16.0440038670
C         17.5377608012       34.6595037026       18.9736861943
C         17.7581955641       36.0376219639       16.9832069810
C         17.8318905036       35.9031802446       18.3788119264
O         18.1965869241       37.0123081028       19.1136770187
C         18.3151776448       37.0033100249       20.5496040003
H         22.7873311767       24.0263332871        5.2341027424
H         24.6612038982       24.5099353505        6.7768250608
H         24.3370367894       26.0356977172        8.7043441906
H         20.2143646513       26.6109092754        7.5349831696
H         19.3444368130       24.1524912095        3.8412185461
H         21.0672963533       24.5227897398        3.6016383010
H         20.5797357761       23.1591830046        4.6478613214
H         20.3151868566       28.4083132358        8.9160241774
H         21.8641478441       29.2182378630        8.4996765411
H         21.9807946684       30.1235557957       10.6269717150
H         20.4408031526       28.2714312824       12.7748346008
H         17.6299781319       28.8879159443       12.0456130619
H         18.7318740254       26.7980541062       13.9857288229
H         17.1019525721       26.8771650116       13.3500711341
H         18.7257897832       29.2470363859       14.8600309435
H         16.5276898921       29.6457647612       15.4062572806
H         18.8740783345       31.1900903129       13.1058216344
H         17.1333662230       31.2461098358       13.1677272409
H         16.8843398086       26.8714808705       10.6778177537
H         20.3263367580       25.4210117262       12.8468031864
H         17.5466178184       25.4961669351        8.7146531676
H         20.9818019514       24.0477109026       10.8851872562
H         19.3576442179       32.5194910013       16.5599847658
H         19.2427425302       30.7774650184       16.3673841041
H         19.5907534770       24.0755780463        8.8186001446
H         20.7057470428       30.9289910585       14.3243886581
H         16.9523694642       32.6062750988       18.6403766127
H         17.3453535798       35.0571311414       15.1006154917
H         20.0964546655       33.2497367864       13.5588795742
H         20.8631542171       33.9343104621       15.0048660897
H         21.8459272742       33.0985503872       13.7843240465
H         22.8019523540       31.5057245334       15.5191578235
H         21.8765502818       32.3118582511       16.8024466910
H         21.7277053324       30.5577518369       16.5619635801
H         17.5895441763       34.5309891740       20.0502909942
H         17.9867301312       36.9950280925       16.5231335524
H         17.3551403031       36.7473456881       21.0162848899
H         19.0724908169       36.2767383355       20.8714136010
H         18.6172718689       37.9955302216       20.9079378095
    83
VM2 Rank=3      G=215.513           E=117.313           -TS=98.200              
C         22.0107709805       23.4890170644        6.2620713424
C         22.6870628794       23.0508968082        7.4121938967
C         21.4279232585       24.7712386974        6.2349966121
C         22.7796367207       23.8870540024        8.5365683170
O         20.7455948740       25.2567393426        5.1386578964
C         21.5293404657       25.6037205605        7.3600080422
C         22.1971609542       25.1684723569        8.5204740616
C         20.5509964867       24.4961989892        3.9307169963
N         22.2840299552       26.0146426002        9.6607019934
C         22.0679189052       25.6439673713       10.9741941126
C         22.6441789166       27.4227015673        9.5427203571
O         21.7592852612       24.5401788948       11.3894889957
O         22.2890644682       26.7389905433       11.7542709418
C         22.5637816552       27.9420697787       10.9909985966
C         21.4701379522       29.0125223623       11.1899236935
N         20.7379005221       28.9004001068       12.3521852035
O         21.2327559808       29.8779508477       10.3635811192
C         19.4273576821       29.5294458913       12.5674016200
C         18.3013521040       28.4731494807       12.4103646993
C         19.4077539683       30.2642843149       13.9371573249
C         18.3647876445       27.7220796809       11.0854563704
O         19.6002953660       29.3271502555       15.0018657290
C         18.0954994674       31.0654192955       14.1521567280
C         18.0622261832       28.3824965385        9.8807033490
C         18.7316981315       26.3637918693       11.0542840640
N         18.1579903679       32.0965048578       15.2239020692
C         18.1218999651       27.6921962114        8.6585337778
C         18.7890173058       25.6716487286        9.8331992073
S         17.8859387291       31.5626330924       16.8244928212
C         19.1578946230       33.1844110896       15.0478935542
C         18.4806102305       26.3350608920        8.6351288816
C         17.5385287891       33.0879497702       17.7320649857
O         16.6122401880       30.8356979905       16.7622032228
O         19.1265789858       30.9184516160       17.2752239997
C         19.0687511148       33.9360523528       13.6944695510
C         18.4671928915       33.5900711670       18.6643373971
C         16.3459439762       33.7973261724       17.4904884292
C         17.6834932341       34.5951120258       13.5043003226
C         20.1742448675       35.0095089151       13.6127630191
C         18.2011227399       34.7880082159       19.3487189992
C         16.0820690712       34.9957606778       18.1754997674
C         17.0120724003       35.4954097222       19.1094867928
O         16.8079644906       36.6662585306       19.8099240314
C         15.6349352463       37.4873587514       19.6492271080
H         21.9463221271       22.8279181562        5.4036866934
H         23.1382560027       22.0618268383        7.4329700660
H         23.3059400040       23.5354448789        9.4204487742
H         21.0701464058       26.5866842828        7.3265741128
H         19.9943892538       23.5733921648        4.1394411856
H         19.9783765819       25.0858046848        3.2036828331
H         21.5160208055       24.2351961667        3.4773680173
H         21.9398485966       27.9516077409        8.8882813413
H         23.6632876351       27.5221424590        9.1485093768
H         23.5199755395       28.3804646112       11.3014500944
H         21.0126909382       28.1613229855       12.9880626570
H         19.2779221108       30.2920087758       11.7903947495
H         18.3544030599       27.7623067789       13.2448450963
H         17.3230247581       28.9608066864       12.4928931874
H         20.2483004609       30.9698046948       13.9184389122
H         19.6693175271       29.8420241865       15.8403973898
H         17.8292659841       31.5493572508       13.2049606335
H         17.2827340689       30.3586746054       14.3650434409
H         17.7849485415       29.4330420560        9.8915782298
H         18.9763222150       25.8433810301       11.9765979374
H         17.8885016518       28.2085550867        7.7308673197
H         19.0760277257       24.6229901784        9.8159033461
H         19.0356158854       33.9361830040       15.8375820644
H         20.1704655464       32.7764905806       15.1676349174
H         18.5245484611       25.7996550313        7.6897056396
H         19.2402451959       33.2287570259       12.8716771270
H         19.3942681930       33.0545830714       18.8558321754
H         15.6267879036       33.4198624596       16.7670137459
H         16.8819401352       33.8460086118       13.5052086265
H         17.4745339089       35.3129831517       14.3079294953
H         17.6338489470       35.1320299314       12.5484706739
H         21.1690083821       34.5569600597       13.7150823324
H         20.1431680997       35.5300639852       12.6469197644
H         20.0587698186       35.7600478499       14.4055420356
H         18.9194325849       35.1732574057       20.0671958708
H         15.1568894168       35.5257430600       17.9721142833
H         15.6965033984       38.3635017060       20.3070612810
H         15.5482425991       37.8408849416       18.6136085902
H         14.7292245462       36.9248337191       19.9104447910
    83
VM2 Rank=4      G=215.554           E=116.690           -TS=98.863              
C         22.7283384344       24.7415557023        6.1073510853
C         23.7910298964       24.9993008914        6.9877346181
C         21.4757555257       25.3388526683        6.3158129406
C         23.6009716490       25.8560773143        8.0835988974
O         20.4663321557       25.0455621849        5.4220295240
C         21.2895243244       26.2012217551        7.4143943564
C         22.3487088442       26.4594215692        8.3058620885
C         19.1388885518       25.5971934919        5.5194270943
N         22.1552336816       27.3245577582        9.4177117610
C         22.5546973818       27.0865747714       10.7188730415
C         21.4986308771       28.6186035774        9.2732950213
O         23.1253666822       26.0988478512       11.1483503666
O         22.1998774121       28.1704635192       11.4652310984
C         21.5009438905       29.1888112738       10.7026111161
C         20.0774437044       29.4545163192       11.2313827290
N         19.7359102051       28.7828497521       12.3853234589
O         19.2839679125       30.1715492201       10.6462996564
C         18.3487370425       28.5384126424       12.8133544116
C         18.1615574387       27.0166567354       13.0362356897
C         17.9844377256       29.3864682092       14.0654573643
C         18.5367584057       26.1909037731       11.8109964077
O         16.6714734965       29.0508098252       14.5194061249
C         18.0475432795       30.9107138127       13.7668781761
C         17.6995058794       26.1850074605       10.6805633560
C         19.7239911701       25.4354922372       11.7943802829
N         18.1276076970       31.7830499560       14.9698944530
C         18.0407488054       25.4270971863        9.5479918795
C         20.0665375622       24.6774859106       10.6622650923
S         16.6519557328       32.1789542789       15.7343769514
C         19.3080181182       31.5888829830       15.8554997015
C         19.2230757804       24.6698309154        9.5402053948
C         17.0811132915       33.5749848355       16.8011586652
O         15.8158404458       32.7351669988       14.6638249723
O         16.2425675271       30.9979876607       16.5059518592
C         20.6799808266       31.6210844033       15.1316828495
C         17.1173928590       33.4181875075       18.2003727946
C         17.4076177008       34.8225051826       16.2346205022
C         20.9120554415       32.9712924816       14.4159517250
C         21.8170176581       31.3624661754       16.1421119583
C         17.4735712731       34.5010566121       19.0218124697
C         17.7643210943       35.9041644450       17.0579690626
C         17.7979574856       35.7454694218       18.4581691319
O         18.1418417828       36.7701184954       19.3154946199
C         18.5021533510       38.0897902344       18.8630852507
H         22.8733763166       24.0766705856        5.2604578864
H         24.7600169857       24.5348600169        6.8216853533
H         24.4300562057       26.0498181196        8.7596161186
H         20.3226331872       26.6594867653        7.5898767146
H         18.6668548939       25.3057239057        6.4660698980
H         19.1689393698       26.6927956310        5.4585690982
H         18.5160665398       25.2244756037        4.6964421377
H         20.4739060544       28.4962798505        8.8994445060
H         22.0688833262       29.2635690095        8.5929397852
H         22.0531089287       30.1358988703       10.7389153943
H         20.4670917975       28.2044597033       12.7803927896
H         17.6685955278       28.8391071605       12.0038334362
H         18.7533984706       26.7012662030       13.9046834646
H         17.1153320767       26.8112271278       13.2958326496
H         18.7174682869       29.1390828242       14.8436895569
H         16.5125400482       29.5489873332       15.3564054857
H         18.9164578550       31.1143027161       13.1329123876
H         17.1753322861       31.1827657886       13.1576628292
H         16.7824910837       26.7682431749       10.6814562865
H         20.3842041719       25.4360358400       12.6575822977
H         17.3866831012       25.4242451273        8.6799898194
H         20.9869695692       24.0985919990       10.6544347459
H         19.3334216209       32.3732558871       16.6222032378
H         19.2092409286       30.6363426665       16.3930536162
H         19.4882377845       24.0810787724        8.6654880282
H         20.7189556656       30.8151844891       14.3865033637
H         16.8727785277       32.4585263309       18.6499127413
H         17.3887889431       34.9499163420       15.1545679149
H         20.1453216653       33.1553217061       13.6531175246
H         20.8847420541       33.8053047451       15.1289659485
H         21.8880740211       32.9852705905       13.9145352043
H         21.6874821349       30.3921678109       16.6386062149
H         22.7923328353       31.3511713909       15.6387393148
H         21.8447289292       32.1399660247       16.9165931928
H         17.5009309019       34.3772290974       20.1009367619
H         18.0129437261       36.8557723076       16.5988009059
H         18.7357898939       38.7309181933       19.7224635444
H         19.3868148141       38.0490248979       18.2144612521
H         17.6740839456       38.5486478526       18.3074457989
    83
VM2 Rank=5      G=215.577           E=117.365           -TS=98.212              
C         22.1042347149       23.4721837165        6.3052583395
C         22.8368558436       23.1031313173        7.4450550560
C         21.4500320778       24.7191007472        6.2634930352
C         22.9148126142       23.9730168270        8.5446691761
O         20.7103648787       25.1365604235        5.1763550164
C         21.5370703726       25.5858493363        7.3635669301
C         22.2612573014       25.2194285516        8.5139740765
C         20.5234030717       24.3339237495        3.9947227102
N         22.3334416022       26.0993590141        9.6294578008
C         22.1784571310       25.7522115520       10.9579388105
C         22.6083124600       27.5219391758        9.4651510663
O         21.9447286574       24.6444795597       11.4100124321
O         22.3604589047       26.8781719848       11.7032770221
C         22.5460209867       28.0737457410       10.9022866800
C         21.4038503907       29.0901807807       11.1113540035
N         20.7154547894       28.9693633272       12.2992604655
O         21.0949468485       29.9206355600       10.2728591122
C         19.3801333648       29.5329226697       12.5418030945
C         18.3080951471       28.4152163446       12.4421814605
C         19.3623171612       30.2960003356       13.8960953312
C         18.3726489531       27.6375884683       11.1327411514
O         19.6373939469       29.3942843859       14.9732050808
C         18.0158385295       31.0306322544       14.1357330536
C         17.9986847879       28.2521565333        9.9237913296
C         18.8118612809       26.3006184491       11.1200102067
N         18.0544707544       32.0862116578       15.1845642645
C         18.0592377175       27.5373692172        8.7158226419
C         18.8701908367       25.5838891019        9.9132448214
S         17.8587520951       31.5727472312       16.8029163333
C         18.9893789687       33.2213038819       14.9569253714
C         18.4904162729       26.2012887565        8.7110789764
C         17.4566356336       33.0961579518       17.6910002095
O         16.6251173191       30.7773211928       16.7939263020
O         19.1453346191       31.0057556060       17.2278102679
C         18.8220706719       33.9373325433       13.5916384769
C         18.3866051109       33.6698522354       18.5800869246
C         16.2184216536       33.7320793004       17.4775551798
C         17.3989052664       34.5183182046       13.4288812545
C         19.8661507305       35.0653781927       13.4555425777
C         18.0801100683       34.8659429882       19.2516878133
C         15.9141951125       34.9277946708       18.1494764011
C         16.8393293180       35.4997010687       19.0373255340
O         16.4851125041       36.6751136286       19.6667115264
C         17.3458895298       37.3637417652       20.5945526823
H         22.0521954993       22.7857103262        5.4661661318
H         23.3431469386       22.1414087180        7.4770942878
H         23.4852757164       23.6748251604        9.4207500933
H         21.0230011864       26.5407985840        7.3191260086
H         20.0253096619       23.3879824895        4.2438267733
H         19.8979941957       24.8712259249        3.2706543042
H         21.4878851596       24.1140212892        3.5189730131
H         21.8533235363       27.9928033577        8.8229480305
H         23.6063678304       27.6686253494        9.0335925931
H         23.4869121156       28.5695438439       11.1702172043
H         21.0490949847       28.2620904997       12.9431157547
H         19.1669462855       30.2688742658       11.7540774081
H         18.4234691895       27.7278540809       13.2899365841
H         17.3079379328       28.8523565542       12.5438782950
H         20.1625886116       31.0447702526       13.8365225001
H         19.7031890205       29.9304057857       15.7985754497
H         17.6959541016       31.4794472737       13.1878390733
H         17.2489522837       30.2863630097       14.3873970128
H         17.6651285666       29.2862633410        9.9202270837
H         19.1119049750       25.8160519948       12.0454837440
H         17.7704032752       28.0183795448        7.7847637466
H         19.2131260392       24.5520248550        9.9100656730
H         18.8494390189       33.9826943229       15.7343677086
H         20.0252713871       32.8701001830       15.0550947613
H         18.5350309487       25.6468008260        7.7767513612
H         19.0075728019       33.2221645459       12.7787517526
H         19.3480584777       33.1900325894       18.7483694172
H         15.4964517699       33.3006873745       16.7878625166
H         16.6386483444       33.7283449493       13.4687905380
H         17.1748991735       35.2417434602       14.2234385401
H         17.2937063846       35.0307021481       12.4641268910
H         20.8860772608       34.6681194140       13.5377563393
H         19.7800937302       35.5622681250       12.4806105955
H         19.7333978481       35.8260212892       14.2358877495
H         18.8118916682       35.2900488808       19.9320604629
H         14.9583011325       35.4162848725       17.9816568191
H         16.8511673102       38.2710120044       20.9637103812
H         17.5776468908       36.7242696016       21.4561485036
H         18.2842941462       37.6584226887       20.1071629215
    83
VM2 Rank=6      G=215.593           E=117.944           -TS=97.649              
C         22.6665874302       24.2493528509        6.2826609777
C         23.5768313027       24.1147522764        7.3435335983
C         21.6299453339       25.1999316568        6.3621645795
C         23.4529685907       24.9231459552        8.4850550128
O         20.7005887834       25.3747696182        5.3577064866
C         21.5157790212       26.0086714139        7.5031713268
C         22.4181986636       25.8731856472        8.5753176700
C         20.6892785064       24.5913232197        4.1488013956
N         22.2866583762       26.6894203937        9.7328123270
C         22.3771733595       26.2698710828       11.0465687625
C         22.0459091546       28.1241053907        9.6311304526
O         22.5699426609       25.1358372527       11.4499632124
O         22.2141068834       27.3641743591       11.8428223912
C         22.0014023853       28.5908066986       11.0965505300
C         20.6723931714       29.2862900503       11.4508327265
N         19.9092809923       28.6607018900       12.4126147103
O         20.2853931096       30.2898327142       10.8768880692
C         18.4524417506       28.8296177722       12.5305926692
C         17.7885904042       27.4319100735       12.5916942119
C         18.0726936168       29.7270119981       13.7410763718
C         18.1834843585       26.5406560463       11.4195707085
O         16.6521825682       29.8699183854       13.8238735711
C         18.7196228803       31.1342772104       13.6396229578
C         17.7114804454       26.8247258313       10.1249899786
C         19.0321696567       25.4356637146       11.6176396099
N         18.2691386389       32.1018519718       14.6727922009
C         18.0792685811       26.0106624232        9.0406540634
C         19.3985531055       24.6196392688       10.5344414890
S         18.3112628074       31.5893758037       16.3098177997
C         18.5891021625       33.5082778145       14.3313278117
C         18.9199012867       24.9052131196        9.2462324071
C         18.2867698873       33.0858073024       17.3343164966
O         17.0444473463       30.8717101515       16.5017970742
O         19.6200997081       30.9475505058       16.4801342412
C         17.3354051983       34.4171841853       14.3441378907
C         19.4879157751       33.7520120083       17.6499169801
C         17.0698670759       33.5812773470       17.8447021700
C         17.7451680768       35.8987211517       14.2159088253
C         16.3555313948       34.0334568764       13.2131101999
C         19.4664997277       34.9136199252       18.4396735703
C         17.0503317401       34.7436889234       18.6343199053
C         18.2520637293       35.4170633797       18.9315068494
O         18.2937016171       36.5629807725       19.6983889841
C         17.1168687348       37.1899535667       20.2441667332
H         22.7756269215       23.6135155995        5.4098319936
H         24.3777937474       23.3820097477        7.2819545097
H         24.1641938191       24.8084938159        9.2992030475
H         20.7065582953       26.7303414501        7.5544402972
H         20.5608844553       23.5257455842        4.3790320775
H         19.8584762812       24.9062209525        3.5048261753
H         21.6254978833       24.7249909473        3.5915454707
H         21.0907585059       28.3214011707        9.1273473971
H         22.8629905975       28.6142400879        9.0868922350
H         22.8140005360       29.2999100043       11.2965734364
H         20.3257637800       27.8327116761       12.8206328312
H         18.0831248254       29.3301153099       11.6241660284
H         18.0475325364       26.9487893022       13.5422527495
H         16.6973130305       27.5477363043       12.6012252480
H         18.4446179894       29.2329664938       14.6491288787
H         16.4732147166       30.3110157510       14.6874804458
H         19.8106417050       31.0258423311       13.6976293629
H         18.4880107400       31.5296928798       12.6415707571
H         17.0596305676       27.6784684869        9.9598834293
H         19.4113681869       25.2084996250       12.6103723955
H         17.7123149796       26.2354583378        8.0423359732
H         20.0580991145       23.7698991167       10.6931894356
H         19.3519779672       33.9051756895       15.0118905005
H         19.0274684204       33.5668541116       13.3255660708
H         19.2056687244       24.2751024262        8.4074536067
H         16.8083319290       34.2987822400       15.2976373102
H         20.4366946065       33.3728348438       17.2771599276
H         16.1362920795       33.0702229635       17.6207611244
H         18.4045497091       36.1948916443       15.0422110320
H         18.2755106822       36.0836251756       13.2727991198
H         16.8636225628       36.5519918843       14.2433990359
H         15.4654227558       34.6749899037       13.2318677330
H         16.8279910980       34.1364251245       12.2279226416
H         16.0183396254       32.9940285691       13.3191230212
H         20.3945964322       35.4280300842       18.6732457792
H         16.0994603578       35.1101393752       19.0081545031
H         17.3974553975       38.0866216119       20.8110958559
H         16.4310680009       37.4914070382       19.4417852679
H         16.5919822932       36.5050982996       20.9227074607
    83
VM2 Rank=7      G=215.596           E=117.390           -TS=98.206              
C         22.6460217727       24.2565628113        6.3877574790
C         23.4727675691       24.0139122152        7.4966925193
C         21.6822691799       25.2826950099        6.4405589774
C         23.3376317726       24.7896019603        8.6594319587
O         20.8358721695       25.5649337574        5.3883440255
C         21.5568651670       26.0579991891        7.6033801372
C         22.3750328435       25.8146916529        8.7230193298
C         20.8425152138       24.8268674272        4.1511841250
N         22.2316881917       26.5981547423        9.9015384631
C         22.2034743196       26.1273611686       11.2006605735
C         22.1096213957       28.0501195572        9.8420803426
O         22.2819033757       24.9683262763       11.5699648367
O         22.0729566851       27.2028267956       12.0280017342
C         22.0040337133       28.4675530298       11.3191461778
C         20.7111427118       29.2523057629       11.6154985619
N         19.8334938640       28.6486526400       12.4898184605
O         20.4463829041       30.3084021749       11.0670059637
C         18.3892092532       28.9286885649       12.5133175964
C         17.6172991085       27.5867004045       12.4807631635
C         17.9923302328       29.8180342195       13.7246370843
C         18.0241029651       26.7021583470       11.3076695784
O         16.5872727524       30.0799878000       13.7017797575
C         18.7594692698       31.1676988611       13.7218953079
C         17.6644907467       27.0590596518        9.9951478996
C         18.7726944716       25.5302074398       11.5236455126
N         18.3270742195       32.1552761953       14.7530010286
C         18.0443171054       26.2511563875        8.9103553384
C         19.1509741407       24.7204846548       10.4398114428
S         18.2351631053       31.5554411536       16.3586685166
C         18.9271707307       33.5080797370       14.5790251871
C         18.7844659563       25.0792121516        9.1332395447
C         18.1171576868       33.0116829586       17.4295874416
O         16.9353536463       30.8739701380       16.4177192387
O         19.5043790002       30.8637401657       16.6133932248
C         18.6951709218       34.1713283732       13.1945304115
C         19.2596517163       33.5076807819       18.0881394406
C         16.8828786115       33.6710798239       17.5941324700
C         17.1918719068       34.2429994036       12.8404607593
C         19.3021874139       35.5904767474       13.1830748603
C         19.1653328364       34.6495553715       18.9013117878
C         16.7909657078       34.8133264365       18.4077768890
C         17.9357170433       35.3069259193       19.0653847593
O         17.9061429816       36.4239428976       19.8743974527
C         16.7104836200       37.1901392439       20.1180506400
H         22.7622355396       23.6446526834        5.4988998944
H         24.2175242809       23.2227672914        7.4558185468
H         23.9837755447       24.5910535002        9.5108438715
H         20.8035993868       26.8390082562        7.6331063929
H         20.0816314626       25.2284420012        3.4700888698
H         21.8202418887       24.9051595945        3.6584077284
H         20.6181224835       23.7674994281        4.3309984344
H         21.2081813510       28.3403809593        9.2869313040
H         22.9964801640       28.4922609589        9.3708647810
H         22.8530729079       29.1035191404       11.5981493026
H         20.1535024861       27.7724871829       12.8840556207
H         18.1254997849       29.4823079432       11.6008785870
H         17.7709682706       27.0567436223       13.4292155531
H         16.5401673993       27.7880777463       12.4204119327
H         18.2495657860       29.2655570931       14.6386984257
H         16.3766979474       30.4854079194       14.5759252419
H         19.8297342269       30.9602487032       13.8517434654
H         18.6347811827       31.5848062791       12.7171109201
H         17.0908054552       27.9646129762        9.8165190522
H         19.0648695082       25.2458771191       12.5309701860
H         17.7645777630       26.5323364904        7.8981718830
H         19.7331676866       23.8185942032       10.6127309700
H         18.5067683497       34.2035454727       15.3143850196
H         20.0077929433       33.4540049288       14.7704796602
H         19.0797232016       24.4539140389        8.2941478419
H         19.2156325210       33.5937702811       12.4185975723
H         20.2198064491       33.0113623965       17.9674256975
H         15.9955709008       33.2996436163       17.0864072469
H         16.7489660555       33.2405349657       12.7798801632
H         16.6352265196       34.8126982732       13.5954296562
H         17.0417298945       34.7294775273       11.8683602829
H         20.3765423979       35.5591515133       13.4057603381
H         19.1797383914       36.0600351364       12.1985485912
H         18.8190620498       36.2359656207       13.9281099906
H         20.0487407156       35.0298293172       19.4068660704
H         15.8295759948       35.3050538112       18.5181763626
H         15.9402966716       36.5669466488       20.5907309060
H         16.9323058312       38.0295678920       20.7891111284
H         16.3127392922       37.5968403210       19.1792281252
    83
VM2 Rank=8      G=215.615           E=116.746           -TS=98.869              
C         22.7194314045       24.6649096644        6.1365633281
C         23.7871343553       24.9543404063        7.0008839909
C         21.4617229724       25.2516511298        6.3441344411
C         23.5969953020       25.8323679873        8.0797783601
O         20.4476035273       24.9270217259        5.4666486968
C         21.2753836665       26.1354260797        7.4255546747
C         22.3396598274       26.4254546344        8.3010348829
C         19.1142167790       25.4638487074        5.5655567283
N         22.1462132078       27.3122166299        9.3957322077
C         22.5613257281       27.1076636884       10.6976859388
C         21.4722579169       28.5947038151        9.2297835011
O         23.1479004923       26.1363626452       11.1429117870
O         22.2008105653       28.2034047127       11.4237256281
C         21.4834293158       29.1970491604       10.6458092881
C         20.0628873309       29.4603960755       11.1835737684
N         19.7402630426       28.8113387516       12.3557392739
O         19.2561132172       30.1562009374       10.5910984282
C         18.3601969263       28.5622790063       12.8035799656
C         18.1909628545       27.0438553925       13.0609055847
C         18.0004465375       29.4332615224       14.0411704034
C         18.5637807292       26.1955388636       11.8504211700
O         16.6960099948       29.0940707160       14.5165343481
C         18.0444360215       30.9513718923       13.7096132356
C         17.7169343408       26.1569760016       10.7278015724
C         19.7583733985       25.4517047728       11.8395690940
N         18.1321518932       31.8497830355       14.8927771591
C         18.0560119967       25.3781566506        9.6088400625
C         20.0987377343       24.6727846432       10.7210772650
S         16.6629376539       32.2466326681       15.6691718217
C         19.3264218516       31.6858931082       15.7658893839
C         19.2457465310       24.6325394522        9.6069493754
C         17.0922669106       33.6666522729       16.7038715617
O         15.8073090252       32.7739710725       14.5994201188
O         16.2755768583       31.0769139107       16.4687474829
C         20.6880909602       31.7134140308       15.0226586463
C         17.1547453127       33.5349335811       18.1050253528
C         17.3922549528       34.9079927299       16.1103536812
C         20.8986614722       33.0490667430       14.2737556886
C         21.8409789311       31.4871574949       16.0228401960
C         17.5103286188       34.6345441474       18.9050501132
C         17.7478589410       36.0057501548       16.9117630571
C         17.8085909958       35.8764222342       18.3084737021
O         18.1650356884       36.9886411044       19.0427139595
C         18.2688042179       36.9853360468       20.4798110742
H         22.8645581641       23.9835619763        5.3028740219
H         24.7600787836       24.4979822575        6.8355643026
H         24.4299935127       26.0505981383        8.7434067887
H         20.3047434083       26.5859720094        7.6003141009
H         18.6551068581       25.1865934518        6.5227693180
H         19.1296490938       26.5582033712        5.4813063237
H         18.4883092325       25.0659448537        4.7568266848
H         20.4449883512       28.4515176827        8.8705960681
H         22.0268288799       29.2309718790        8.5285945262
H         22.0262116667       30.1501946545       10.6548637235
H         20.4814097767       28.2492208193       12.7557001094
H         17.6686098821       28.8387344509       11.9951174519
H         18.7939108773       26.7534841238       13.9304395167
H         17.1493309954       26.8334288238       13.3346003936
H         18.7442845850       29.2100104726       14.8164324324
H         16.5415292336       29.6076390649       15.3450386187
H         18.9025580153       31.1498217036       13.0595297147
H         17.1613804315       31.2020643064       13.1068855677
H         16.7941628031       26.7310474800       10.7242202300
H         20.4259773502       25.4774391842       12.6966808010
H         17.3945741209       25.3501160253        8.7468917278
H         21.0248282298       24.1029429025       10.7175932137
H         19.3553980457       32.4876483629       16.5142498304
H         19.2435299692       30.7449323586       16.3260528233
H         19.5092389239       24.0275940472        8.7428426781
H         20.7240240928       30.8913257719       14.2952489830
H         16.9303302815       32.5794645915       18.5736841851
H         17.3536499692       35.0180447001       15.0289503729
H         20.8739059060       33.8986495031       14.9682517899
H         21.8675602819       33.0599107219       13.7586420029
H         20.1199824319       33.2095614848       13.5177407269
H         22.8094124058       31.4727460764       15.5064287751
H         21.8724533312       32.2820954054       16.7792625912
H         21.7266853178       30.5272167897       16.5426625460
H         17.5521695401       34.5099673578       19.9825500699
H         17.9796086178       36.9617610896       16.4503976396
H         17.3042332961       36.7302546417       20.9375427031
H         19.0234270768       36.2607591386       20.8122570524
H         18.5662555345       37.9792350159       20.8373757010
    83
VM2 Rank=9      G=215.635           E=117.414           -TS=98.221              
C         21.7843667164       24.0378333867        5.6337260870
C         21.4242768534       25.3932612305        5.6896215160
C         22.1794936609       23.3623474669        6.7983707861
C         21.4574173458       26.0772524432        6.9150349592
O         22.5237778161       22.0310255336        6.6837996750
C         22.2127518088       24.0522869955        8.0267573861
C         21.8464268410       25.4109613696        8.0933790673
C         22.9112165824       21.2159404776        7.8071108734
N         21.8797697760       26.1049552527        9.3359698289
C         21.4419109627       25.6256919069       10.5563813557
C         22.4341597610       27.4492333225        9.4455161774
O         20.9280117572       24.5439038841       10.7841996159
O         21.7043878665       26.5782893663       11.4944702416
C         22.2909642872       27.7848033428       10.9421724308
C         21.4182533516       29.0293301952       11.2051647286
N         20.5442444433       28.9253128431       12.2657132387
O         21.4561439731       30.0244224716       10.5004743720
C         19.3458871276       29.7602573924       12.4285225469
C         18.0831031645       28.9603870974       12.0105283196
C         19.2782357108       30.3218833469       13.8764654811
C         18.1961924340       28.3438163386       10.6208181169
O         19.1695965061       29.2484915633       14.8171961019
C         18.1059542408       31.3228847481       14.0601010525
C         18.2174311132       29.1654958589        9.4790430607
C         18.2905964581       26.9479926104       10.4678915279
N         18.2049264781       32.1914413473       15.2648768281
C         18.3295445631       28.5984879073        8.1985536817
C         18.3985809480       26.3795541549        9.1878795143
S         17.6399887471       31.5345335067       16.7380293882
C         19.3909483153       33.0862138454       15.3486457154
C         18.4158083014       27.2047949047        8.0526188794
C         17.4431635919       32.9815364591       17.8049866955
O         16.2799257863       31.0696304724       16.4401686407
O         18.6831259186       30.6226373848       17.2254945543
C         19.6077751507       33.9950140787       14.1110208203
C         18.3143427319       33.1896590149       18.8919097999
C         16.4313611858       33.9240317477       17.5370486784
C         18.3924997539       34.9190352809       13.8686338202
C         20.8821937532       34.8449879690       14.2967682228
C         18.1701233475       34.3281876012       19.7025778425
C         16.2892972924       35.0625691558       18.3486307142
C         17.1611404252       35.2678349038       19.4370432209
O         17.0707257685       36.3665341000       20.2664093826
C         16.0869573827       37.4052557205       20.0952750534
H         21.7584654471       23.5072777242        4.6860017659
H         21.1186168859       25.9126628428        4.7846486429
H         21.1697349131       27.1244484746        6.9440904096
H         22.5231754201       23.5407967506        8.9317005821
H         23.8138036115       21.6181437819        8.2851174376
H         22.1043293275       21.1717996543        8.5502224664
H         23.1267953139       20.1932475333        7.4727671909
H         21.8634364631       28.1523277833        8.8254817449
H         23.4883231657       27.4554295079        9.1412001104
H         23.2745806115       27.9656787338       11.3923960278
H         20.5922270172       28.0686061266       12.8040414068
H         19.4312425916       30.6223021699       11.7524112648
H         17.8926561361       28.1739187274       12.7518901327
H         17.2052422238       29.6165724184       12.0361063260
H         20.2226992547       30.8557539197       14.0426272915
H         19.2173981823       29.6409003041       15.7209065806
H         18.0513683711       31.9556634656       13.1663064174
H         17.1635912763       30.7600803672       14.0853061531
H         18.1531554256       30.2449908923        9.5849704430
H         18.2847572447       26.3016079720       11.3416318193
H         18.3472786830       29.2391104317        7.3205285765
H         18.4736053993       25.3004640105        9.0770445258
H         19.2985011881       33.7494566648       16.2177190406
H         20.2943700085       32.4849630993       15.5170712584
H         18.4986329920       26.7647537104        7.0620108766
H         19.7602446656       33.3697951478       13.2207860287
H         19.1031403865       32.4721385730       19.1060313131
H         15.7588798189       33.7741438055       16.6953945756
H         18.2076877232       35.5637923384       14.7375158487
H         18.5596792327       35.5643218636       12.9968476594
H         17.4810335160       34.3380908517       13.6805441580
H         21.7628710427       34.2056669209       14.4399557514
H         21.0659682834       35.4720287746       13.4148135410
H         20.7957316468       35.5054048447       15.1694172943
H         18.8437826502       34.4864234806       20.5402766924
H         15.5029791223       35.7757651925       18.1222226281
H         16.2111394774       38.1718792792       20.8705385248
H         16.1983329581       37.8868183773       19.1151239004
H         15.0719934413       36.9952496619       20.1772879504
    83
VM2 Rank=10     G=215.640           E=116.850           -TS=98.790              
C         21.1675039474       23.2429825897        7.5536112198
C         22.1502935208       23.1498148189        8.5523383485
C         20.4837461990       24.4579426092        7.3515779797
C         22.4494573764       24.2642612914        9.3526117809
O         19.5048917537       24.6114930043        6.3916183930
C         20.7918004018       25.5691538211        8.1511464085
C         21.7686699020       25.4815102375        9.1612743340
C         19.0802580017       23.5452691032        5.5208212095
N         22.0661433657       26.6102107941        9.9747600026
C         22.2354068815       26.6101786437       11.3462482692
C         22.2461516357       27.9392142868        9.4023392138
O         22.1494991825       25.6572015979       12.1015962405
O         22.5481952134       27.8812594172       11.7242782872
C         22.5108528466       28.8325479633       10.6293128811
C         21.4272897268       29.9110151359       10.8388118419
N         21.0441845977       30.1169887745       12.1465676249
O         20.9081196369       30.5161511861        9.9155100279
C         19.7903550309       30.7695593175       12.5477976973
C         18.7502999438       29.6983285675       12.9748544764
C         20.0763933071       31.8330444466       13.6453439033
C         18.5384508323       28.6125747619       11.9262579905
O         20.6155678892       31.2006805157       14.8101426312
C         18.8114708782       32.6576640868       14.0046462060
C         17.8931624752       28.9143424839       10.7131769609
C         18.9891469448       27.3000584629       12.1601158957
N         19.0618691447       33.8533118650       14.8588900567
C         17.6969022764       27.9145853214        9.7458595469
C         18.7907697312       26.2987504366       11.1950253426
S         19.1847190533       33.6499237234       16.5536179549
C         19.9523111883       34.8999501764       14.2946577853
C         18.1412028484       26.6051717595        9.9889023212
C         17.9401227118       32.3960125651       16.9496004076
O         20.5430644237       33.1559433846       16.8154839948
O         18.6886674423       34.9133420083       17.1128316873
C         19.5517389981       35.4148870586       12.8870352581
C         16.5720800763       32.7309877204       16.9356347690
C         18.3249908990       31.0724211466       17.2418225281
C         18.1274818739       36.0154693318       12.8851625756
C         20.5660336021       36.4722392775       12.4027945128
C         15.6022640251       31.7518526787       17.2089737533
C         17.3533920419       30.0939434735       17.5125784046
C         15.9852824022       30.4320417499       17.4959702012
O         14.9882385469       29.5130821092       17.7499196727
C         15.2485572235       28.1226362957       18.0234794030
H         20.9472462675       22.3704479668        6.9468182052
H         22.6794624158       22.2127071826        8.7075009684
H         23.2128095118       24.1782576172       10.1218575077
H         20.2526898636       26.4968605945        7.9872753868
H         19.9185094391       23.1873445068        4.9091462508
H         18.6804136680       22.7052740992        6.1034750989
H         18.2913071194       23.9022764622        4.8468707247
H         21.3434732508       28.2563413025        8.8649381260
H         23.1059983510       27.9466956696        8.7208128148
H         23.4767322064       29.3438199342       10.5368359858
H         21.5379618146       29.5814955001       12.8505044342
H         19.3827099898       31.3023415688       11.6774377910
H         19.0678566562       29.2435130091       13.9218525932
H         17.7867622672       30.1783687068       13.1807744991
H         20.8257008247       32.5180828436       13.2270857485
H         20.8962505037       31.9117976536       15.4322287869
H         18.3447059528       32.9813804512       13.0667652566
H         18.0783265174       31.9947753866       14.4765327868
H         17.5476631121       29.9259323843       10.5184207156
H         19.4967926607       27.0549200415       13.0893613777
H         17.1989589620       28.1544621996        8.8098302675
H         19.1437648775       25.2872392884       11.3809359959
H         19.9599856282       35.7651234879       14.9722464318
H         20.9839477325       34.5247069824       14.2606358337
H         17.9867859930       25.8302815603        9.2418674243
H         19.5844400773       34.5820153520       12.1716519615
H         16.2624476424       33.7480520367       16.7060391488
H         19.3773084787       30.7984778191       17.2511252735
H         17.8587643388       36.3824298155       11.8864224518
H         17.3790065913       35.2680439761       13.1761571161
H         18.0536466569       36.8560797408       13.5870093668
H         20.3137332203       36.8232171265       11.3938559020
H         20.5806750478       37.3434667425       13.0704973816
H         21.5805711397       36.0548619509       12.3661943559
H         14.5478844964       32.0137613896       17.1946465355
H         17.6744214650       29.0802424087       17.7304651240
H         14.3039760105       27.5885010948       18.1865920807
H         15.7678266997       27.6522801651       17.1783818557
H         15.8647358069       28.0136343855       18.9253568281
    83
VM2 Rank=11     G=215.647           E=116.895           -TS=98.752              
C         22.7026686779       24.2510676020        6.3811863398
C         23.6305935992       24.1438707696        7.4291412560
C         21.6492671767       25.1748154744        6.4601826949
C         23.5043419958       24.9619604922        8.5630708481
O         20.7647395538       25.2333817216        5.4028731291
C         21.5272146907       25.9965835443        7.5982731605
C         22.4505476186       25.8905920576        8.6562978811
C         19.6528969865       26.1481564556        5.3519359526
N         22.3212386466       26.7166121309        9.8064097954
C         22.4104387409       26.3055352002       11.1224669765
C         22.0891341092       28.1519585772        9.6941339541
O         22.5951774648       25.1726599823       11.5325433717
O         22.2508290251       27.4056094443       11.9111717716
C         22.0174697211       28.6239058375       11.1570079315
C         20.6658305146       29.2843716987       11.4934412511
N         19.9088770319       28.6405005484       12.4482281262
O         20.2606822493       30.2783318379       10.9154280142
C         18.4516288007       28.7967589381       12.5779262000
C         17.8018168187       27.3929672663       12.6451071992
C         18.0739317541       29.6911499155       13.7917526288
C         18.1485828399       26.5301014525       11.4375917312
O         16.6541884344       29.8370846499       13.8717187676
C         18.7223646402       31.0982210877       13.6913177679
C         17.5387210064       26.7797678402       10.1948251700
C         19.0854946177       25.4859992681       11.5493850721
N         18.2871947043       32.0819206193       14.7249385313
C         17.8565039974       25.9910893092        9.0766174001
C         19.4053159366       24.6975927041       10.4314090531
S         18.3683678271       31.5322170515       16.3490295243
C         18.7553020304       33.4728015595       14.4665514313
C         18.7884126500       24.9476130697        9.1954351373
C         18.2109264825       33.0099571231       17.3848538188
O         17.1385608503       30.7495895937       16.5291548190
O         19.7068211615       30.9552901615       16.5221126219
C         18.3634745571       34.0664386435       13.0864709221
C         16.9418579439       33.5715751544       17.6285176466
C         19.3548904088       33.6201008207       17.9362833244
C         16.8370270132       34.0014323082       12.8495356688
C         18.8450290482       35.5296263616       12.9876601439
C         16.8169989643       34.7298659879       18.4146231182
C         19.2276361257       34.7778109326       18.7221181985
C         17.9633322252       35.3377719336       18.9649981843
O         17.9021531608       36.4758040465       19.7423256219
C         16.6685181981       37.1495388265       20.0589478433
H         22.7978975554       23.6169876873        5.5041423471
H         24.4456597484       23.4272729644        7.3630598168
H         24.2281076720       24.8720768787        9.3692998733
H         20.7103242213       26.7056268184        7.6739949323
H         18.9632856434       25.9659716168        6.1855530855
H         20.0033772731       27.1873004976        5.3998078102
H         19.0997196157       26.0150040711        4.4136458933
H         21.1468516533       28.3542286859        9.1687231292
H         22.9211981539       28.6348921528        9.1663913019
H         22.8080911891       29.3555607273       11.3637738269
H         20.3402147892       27.8236733405       12.8628652306
H         18.0700645394       29.2933899699       11.6743374587
H         18.1077262931       26.8931216378       13.5727999816
H         16.7112098380       27.4985164835       12.7067954003
H         18.4451020326       29.1930187486       14.6978481415
H         16.4771967059       30.2538274798       14.7479739068
H         19.8130194662       30.9838487183       13.7433322424
H         18.4877306854       31.4688090180       12.6879413012
H         16.8165473950       27.5860395646       10.0969770932
H         19.5691841089       25.2852847348       12.5016242997
H         17.3775897397       26.1872142273        8.1209232972
H         20.1332061692       23.8949962039       10.5231389438
H         18.3342329612       34.1561506886       15.2128127435
H         19.8479961049       33.5147751744       14.5741453724
H         19.0356993762       24.3359855013        8.3311859987
H         18.8707970723       33.5074230468       12.2885800760
H         16.0525366770       33.1115829852       17.2035717284
H         20.3412724994       33.2000477266       17.7535064017
H         16.2927951875       34.5489001571       13.6295864798
H         16.5728075807       34.4400239747       11.8789655012
H         16.4776394188       32.9643167471       12.8519732423
H         18.6088150165       35.9532076948       12.0030018080
H         18.3666528295       36.1583347662       13.7499097289
H         19.9319351968       35.5948585794       13.1261763714
H         15.8289826121       35.1448855911       18.5873560311
H         20.1121668898       35.2462138262       19.1449767484
H         16.8698546979       38.0268981700       20.6865382116
H         16.1667766701       37.4897778096       19.1438038640
H         15.9922965011       36.4820616091       20.6086583174
    83
VM2 Rank=12     G=215.649           E=117.439           -TS=98.210              
C         22.8438542479       24.2503748490        6.3607622112
C         23.7803477193       24.1990394430        7.4053209275
C         21.7543092512       25.1320516337        6.4296041683
C         23.6264781100       25.0309779666        8.5256893137
O         20.8629896054       25.1363532368        5.3763870337
C         21.6046088531       25.9680058811        7.5539654914
C         22.5364283566       25.9177958826        8.6086647947
C         19.7131314767       26.0023615062        5.3172256109
N         22.3791773070       26.7578536760        9.7450671730
C         22.4915806125       26.3739240759       11.0675403234
C         22.0877868373       28.1802842740        9.6092751411
O         22.7248566681       25.2569557547       11.4961239298
O         22.2911478545       27.4802697195       11.8379376942
C         22.0046342598       28.6746874894       11.0641349686
C         20.6292224415       29.2860084383       11.3974354333
N         19.9107086427       28.6378637323       12.3784907756
O         20.1755916366       30.2448994374       10.7966407060
C         18.4497142343       28.7363873612       12.5218495443
C         17.8583540159       27.3083049460       12.6138260905
C         18.0502478697       29.6306410348       13.7284133416
C         18.2307866320       26.4425045632       11.4160456568
O         16.6263822194       29.7107790865       13.8347473138
C         18.6306515524       31.0644416882       13.5986210126
C         17.6065851096       26.6529544274       10.1731265365
C         19.2053700459       25.4345528183       11.5371252306
N         18.1542329972       32.0240007654       14.6276789851
C         17.9474968411       25.8609822310        9.0640798866
C         19.5481272347       24.6427653399       10.4283800465
S         18.2489853481       31.5346792511       16.2696514277
C         18.4063258009       33.4386256124       14.2638119190
C         18.9168290860       24.8533325309        9.1923384971
C         18.1738909525       33.0406966683       17.2775098345
O         17.0204899520       30.7617194452       16.4933571849
O         19.5889738018       30.9559759529       16.4230904715
C         17.1157910114       34.2940211016       14.2934261028
C         19.3479216614       33.7680334305       17.5595381482
C         16.9457538029       33.4826888196       17.8090016106
C         17.4596656003       35.7895845523       14.1373265631
C         16.1286204385       33.8542056706       13.1894862900
C         19.2911281344       34.9375402950       18.3366717899
C         16.8909195828       34.6519880739       18.5858120984
C         18.0577976463       35.3859639911       18.8502054479
O         17.9407693016       36.5271880371       19.6163002648
C         19.0583352469       37.3757353095       19.9433130084
H         22.9604602267       23.6054308452        5.4942847527
H         24.6234231948       23.5148965883        7.3471368699
H         24.3571131519       24.9844343929        9.3293850818
H         20.7601787537       26.6448401571        7.6218015311
H         19.1612614883       25.8306230667        4.3844497254
H         19.0361497979       25.8048431658        6.1576993249
H         20.0195043654       27.0560411421        5.3462697671
H         21.1351880368       28.3344040313        9.0861514814
H         22.8964587317       28.6875082457        9.0681296947
H         22.7661613497       29.4410759248       11.2535193372
H         20.3809521676       27.8520067034       12.8103649622
H         18.0383145757       29.2055911875       11.6167424193
H         18.1914217824       26.8349347905       13.5460350439
H         16.7648499618       27.3702428877       12.6828892416
H         18.4597529216       29.1654022058       14.6355116088
H         16.4426657990       30.1541228058       14.6961962844
H         19.7262863939       31.0064624802       13.6389634446
H         18.3644223698       31.4358977054       12.5999826398
H         16.8552847622       27.4312133080       10.0680735140
H         19.7005019993       25.2645975336       12.4894720029
H         17.4574880759       26.0266337517        8.1082353581
H         20.3048779399       23.8682039803       10.5272828235
H         19.1660297762       33.8755483019       14.9230508527
H         18.8201333290       33.5036518104       13.2480963631
H         19.1818672440       24.2390042806        8.3353042669
H         16.6150852114       34.1666440476       15.2598876633
H         20.3050507139       33.4290941437       17.1696804503
H         16.0325565208       32.9258090017       17.6120638607
H         18.1238892772       36.1243422006       14.9447787461
H         17.9608384709       35.9838388216       13.1802482345
H         16.5520929794       36.4055642716       14.1764729045
H         15.8382031358       32.8030164956       13.3159890605
H         15.2127329835       34.4578802735       13.2201515180
H         16.5746652158       33.9637379005       12.1927608081
H         20.2080845241       35.4841402634       18.5332390992
H         15.9400971977       34.9933525768       18.9857158538
H         18.7212435870       38.2218234908       20.5554025490
H         19.8139092788       36.8194190437       20.5130279586
H         19.5218966778       37.7744091954       19.0316284592
    83
VM2 Rank=13     G=215.650           E=117.444           -TS=98.206              
C         22.7707516863       24.1777755793        6.3573688613
C         23.6937655836       24.0849021607        7.4110199763
C         21.7135098671       25.0982766125        6.4215584746
C         23.5587176207       24.9141164688        8.5358261505
O         20.8339976313       25.1425279992        5.3593725467
C         21.5827321450       25.9313280378        7.5504275980
C         22.5010264272       25.8396911506        8.6141703747
C         19.7170891309       26.0502772254        5.2949503296
N         22.3627306691       26.6770352036        9.7550313292
C         22.4469539814       26.2800412912       11.0757416239
C         22.1250982445       28.1101093554        9.6266862339
O         22.6346412670       25.1523095925       11.4984908397
O         22.2788345553       27.3875789584       11.8521405800
C         22.0447369933       28.5971076693       11.0842007256
C         20.6893164623       29.2564818098       11.4076501614
N         19.9369742618       28.6286239234       12.3764760056
O         20.2776958485       30.2354699356       10.8090184036
C         18.4789871953       28.7792521112       12.5044289677
C         17.8352431046       27.3730538974       12.5804965764
C         18.0983399357       29.6800084815       13.7122498558
C         18.1886056970       26.5021011667       11.3806911497
O         16.6772041084       29.8118568554       13.8020954699
C         18.7325953941       31.0922190374       13.5990465455
C         17.5857202762       26.7433604111       10.1328596900
C         19.1243706436       25.4583846500       11.5049029396
N         18.2791463538       32.0626603063       14.6282917983
C         17.9092136247       25.9467020091        9.0219595254
C         19.4497110749       24.6618368411       10.3943194990
S         18.3353298133       31.5613367832       16.2683490111
C         18.5881620531       33.4690396823       14.2765839414
C         18.8396825921       24.9034414278        9.1532839332
C         18.2925667293       33.0640885830       17.2829312083
O         17.0792024155       30.8278764912       16.4706225116
O         19.6535063024       30.9385397565       16.4372344492
C         17.3278968816       34.3688439745       14.2853189225
C         19.4853152511       33.7475866400       17.5933464660
C         17.0697053705       33.5475719484       17.7905768748
C         17.7266292229       35.8523503056       14.1455810979
C         16.3486406610       33.9698609764       13.1590453737
C         19.4495213019       34.9141347365       18.3752781340
C         17.0357843781       34.7149426787       18.5723368127
C         18.2290160946       35.4054682660       18.8643477907
O         18.2564272268       36.5569828819       19.6234496709
C         17.0719039222       37.1728461274       20.1652415699
H         22.8727484885       23.5350248843        5.4874250514
H         24.5118197913       23.3707459635        7.3564247030
H         24.2787132861       24.8352484576        9.3465722512
H         20.7629489881       26.6381593329        7.6146120007
H         20.0612675978       27.0918594632        5.3348962484
H         19.1690757987       25.9053259362        4.3553789290
H         19.0246562937       25.8716693885        6.1270227027
H         21.1843679905       28.3027202629        9.0949131607
H         22.9574768403       28.5910589733        9.0976337224
H         22.8319304989       29.3335217762       11.2870856872
H         20.3733881674       27.8230820099       12.8075938720
H         18.0950878743       29.2686238201       11.5979189722
H         18.1410126623       26.8818422704       13.5128290375
H         16.7440356703       27.4742375978       12.6386568069
H         18.4794789683       29.1943800752       14.6210300199
H         16.4995377048       30.2550263940       14.6649201557
H         19.8247626856       30.9935986642       13.6524301075
H         18.4927598823       31.4793544749       12.5996722574
H         16.8644812054       27.5492438323       10.0254190294
H         19.6028126140       25.2641942424       12.4611398771
H         17.4357240193       26.1364048782        8.0622698322
H         20.1765611654       23.8594597497       10.4957024983
H         19.3491768765       33.8762158036       14.9531666342
H         19.0245203530       33.5239784739       13.2697419481
H         19.0911864082       24.2854424294        8.2948114267
H         16.8036071346       34.2535246820       15.2407315946
H         20.4386574406       33.3779757433       17.2226360793
H         16.1425628554       33.0233012040       17.5705035454
H         16.8404167100       36.4993908639       14.1701764120
H         18.3854870848       36.1592527811       14.9683759124
H         18.2537294109       36.0342883457       13.2000799950
H         15.4539594844       34.6050782806       13.1749254078
H         16.8184427327       34.0690794152       12.1722039757
H         16.0191673871       32.9288258852       13.2732613501
H         20.3711226572       35.4418407568       18.6048766593
H         16.0804999595       35.0718459744       18.9441527011
H         17.3413029980       38.0767816350       20.7260214360
H         16.3822609401       37.4602330151       19.3609923711
H         16.5557339743       36.4860830475       20.8485250520
    83
VM2 Rank=14     G=215.652           E=117.990           -TS=97.662              
C         22.7135241638       24.3143473842        6.2793947344
C         23.6388596639       24.2095739424        7.3305382279
C         21.6513119315       25.2355173878        6.3671186575
C         23.5047532885       25.0184718780        8.4705488609
O         20.7062795716       25.3801211717        5.3725268829
C         21.5269037354       26.0450484522        7.5064842893
C         22.4445732295       25.9392230829        8.5689819440
C         20.7034951867       24.5917306248        4.1667946412
N         22.3025900111       26.7556894929        9.7250716800
C         22.4184190673       26.3435720782       11.0391929369
C         22.0207985077       28.1827183275        9.6211516135
O         22.6480107398       25.2170283637       11.4442913483
O         22.2323812202       27.4356401372       11.8334982397
C         21.9757422585       28.6527717902       11.0854865087
C         20.6294030245       29.3086698043       11.4497528219
N         19.8941645836       28.6633828811       12.4202244131
O         20.2069682291       30.2980628713       10.8762299704
C         18.4338837925       28.7881205361       12.5502881893
C         17.8138909140       27.3710386263       12.6246149573
C         18.0368923360       29.6800260027       13.7593430563
C         18.2245313542       26.4862606284       11.4530116451
O         16.6134281362       29.7799078277       13.8530237709
C         18.6396019562       31.1058181909       13.6453715634
C         17.7320772686       26.7495294171       10.1616515366
C         19.1076708717       25.4081002920       11.6482636536
N         18.1679103450       32.0659208856       14.6762038158
C         18.1138184731       25.9413160687        9.0777632561
C         19.4880567168       24.5978778008       10.5655357167
S         18.2408242025       31.5650943951       16.3157922402
C         18.4489968094       33.4782264054       14.3246177273
C         18.9890096399       24.8625035069        9.2805991859
C         18.1610747420       33.0653265170       17.3318738265
O         17.0044858969       30.7994544111       16.5208316715
O         19.5749525210       30.9762680570       16.4811314779
C         17.1725299340       34.3548363388       14.3391049501
C         19.3360303428       33.7811298301       17.6384733965
C         16.9276245324       33.5144434374       17.8447891152
C         17.5435450605       35.8451867985       14.1957755303
C         16.1949738685       33.9369320639       13.2182177891
C         19.2754792110       34.9464123180       18.4216586452
C         16.8690493076       34.6794713790       18.6277069350
C         18.0372095026       35.4020657637       18.9166153293
O         17.9163650183       36.5396850590       19.6874606567
C         19.0349088334       37.3774777723       20.0379925918
H         22.8308772431       23.6785250179        5.4076347804
H         24.4595002968       23.4995180810        7.2626173169
H         24.2278189581       24.9270360361        9.2771710529
H         20.6981079806       26.7436362682        7.5642905547
H         20.6077880220       23.5239125761        4.4024895995
H         19.8569643210       24.8804811023        3.5311007077
H         21.6292562823       24.7494242370        3.5984582991
H         21.0563319265       28.3517133883        9.1248995904
H         22.8192673862       28.6936907540        9.0685174817
H         22.7681169700       29.3869866203       11.2758106819
H         20.3391888691       27.8497795186       12.8270506910
H         18.0415093816       29.2720254245       11.6445381369
H         18.0966308300       26.9009823006       13.5749438154
H         16.7197121367       27.4533647929       12.6442022979
H         18.4311198623       29.2025465868       14.6668617177
H         16.4283591989       30.2173361547       14.7172285375
H         19.7338274095       31.0308725482       13.6954969147
H         18.3885833007       31.4880919960       12.6468867195
H         17.0534076120       27.5825356072        9.9986983170
H         19.5027739838       25.1973535541       12.6384120562
H         17.7309551045       26.1499946062        8.0819229272
H         20.1741766347       23.7690225303       10.7220469400
H         19.2052374867       33.8987789133       14.9983463034
H         18.8800177815       33.5421510242       13.3159992257
H         19.2856342166       24.2369912167        8.4421479705
H         16.6553275183       34.2311924600       15.2973418180
H         20.2969116607       33.4365851181       17.2630360043
H         16.0133585035       32.9665368132       17.6285990642
H         16.6458486629       36.4760380732       14.2243927075
H         18.2009567336       36.1649126014       15.0148091460
H         18.0622918534       36.0356493986       13.2473359541
H         16.6579248465       34.0435058552       12.2289063469
H         15.8849609050       32.8902419354       13.3351814896
H         15.2890415452       34.5558886911       13.2379765046
H         20.1933761016       35.4841710277       18.6372954158
H         15.9143064754       35.0264186370       19.0132065728
H         18.6942466449       38.2227544465       20.6492295759
H         19.7764430646       36.8119825060       20.6170391057
H         19.5167861331       37.7775849759       19.1364887356
    83
VM2 Rank=15     G=215.669           E=117.430           -TS=98.239              
C         21.6702189278       23.9311730728        5.6766826320
C         21.0267102119       25.1780326348        5.7114064199
C         22.4056417111       23.4836838824        6.7846965004
C         21.1166984446       25.9814388407        6.8590236439
O         23.0182818563       22.2505869784        6.6940394327
C         22.4949501584       24.2932352260        7.9347825244
C         21.8465400566       25.5430677971        7.9810533079
C         23.7702750066       21.6611012092        7.7726094151
N         21.9374068311       26.3580486385        9.1448407380
C         21.8411997442       25.9311047864       10.4560660497
C         22.1802271514       27.7931552863        9.0554743094
O         21.6355523136       24.7960209998       10.8504653909
O         22.0393831908       27.0129670968       11.2601887768
C         22.2293902886       28.2497019734       10.5259314993
C         21.1563047774       29.3025678845       10.8717607007
N         20.5294160132       29.1307479337       12.0870661370
O         20.8420046363       30.2015345527       10.1093290378
C         19.2199946302       29.7057219140       12.4254648228
C         18.1191983911       28.6172755426       12.3125038084
C         19.2808391548       30.3893157002       13.8203200378
C         18.1246186229       27.8952258519       10.9698049903
O         19.5868026504       29.4222559273       14.8303431290
C         17.9618660986       31.1322294935       14.1644481310
C         17.7576869825       28.5772801267        9.7953225585
C         18.5062490740       26.5428801131       10.8914023969
N         18.0693914603       32.1233740965       15.2698105279
C         17.7698566843       27.9146702370        8.5565660126
C         18.5148791181       25.8780565672        9.6540085857
S         17.9369331512       31.5192654089       16.8630721010
C         19.0158615614       33.2532339775       15.0651383436
C         18.1444107365       26.5634062611        8.4864506295
C         17.6044854040       32.9946065832       17.8550325002
O         16.6891197227       30.7462198047       16.8650420346
O         19.2302258711       30.9071352745       17.1947434146
C         18.8008650596       34.0516109019       13.7532449286
C         16.3704171124       33.6624008620       17.7356464184
C         18.5843731792       33.4999627790       18.7318898738
C         17.3837857318       34.6660235278       13.6914076625
C         19.8602340231       35.1672867512       13.6344136265
C         16.1197937889       34.8218129522       18.4884476977
C         18.3314761543       34.6598105840       19.4844990538
C         17.0947761758       35.3255670557       19.3641551971
O         16.7918906226       36.4679900915       20.0757124751
C         17.7067675182       37.0872128212       21.0006925261
H         21.6006937532       23.3082374591        4.7892937047
H         20.4578292425       25.5207299026        4.8505265913
H         20.6079749102       26.9412288641        6.8738157409
H         23.0666643569       23.9592182519        8.7941290058
H         24.6269273844       22.2935805337        8.0391353733
H         23.1365477549       21.5279477580        8.6591148239
H         24.1509961017       20.6769885400        7.4713916525
H         21.3639876943       28.2882895658        8.5140730979
H         23.1346909932       27.9901342365        8.5513851266
H         23.2093354923       28.6816059108       10.7627554726
H         20.8652448444       28.3665010369       12.6608293973
H         18.9873655569       30.4902585246       11.6920270259
H         18.2453384753       27.8911201961       13.1256496481
H         17.1334402972       29.0718954299       12.4657066149
H         20.0926026523       31.1259943990       13.7655897060
H         19.7016721301       29.9086169969       15.6807665795
H         17.6086175260       31.6417284827       13.2600781324
H         17.1921765840       30.3879934755       14.4075801692
H         17.4687598478       29.6236965953        9.8421922353
H         18.8009916963       26.0060523243       11.7892969126
H         17.4870275712       28.4479650760        7.6525505742
H         18.8131268145       24.8337842052        9.6002308711
H         18.9271957412       33.9696348909       15.8913522999
H         20.0477823571       32.8785803119       15.0939910182
H         18.1503486090       26.0486117018        7.5289806952
H         18.9345406607       33.3826433801       12.8922704226
H         15.6100106000       33.2840222182       17.0562143312
H         19.5430080143       32.9952422055       18.8278981956
H         17.2109558266       35.3449174893       14.5364395385
H         17.2450251361       35.2364175738       12.7641796635
H         16.6103345202       33.8884886685       13.7206507556
H         20.8746079009       34.7480643313       13.6454948423
H         19.7397827684       35.7224122349       12.6951989475
H         19.7786970794       35.8826425209       14.4631221391
H         15.1669119773       35.3350856530       18.3931129822
H         19.1011315757       35.0313135866       20.1537472709
H         17.2467018556       37.9795296071       21.4437213779
H         17.9649597874       36.3950013936       21.8125795285
H         18.6276442597       37.3941980490       20.4881170772
    83
VM2 Rank=16     G=215.687           E=116.921           -TS=98.766              
C         22.8166880031       24.2303957603        6.4777997056
C         23.6847252685       24.0812336731        7.5709661704
C         21.7894750460       25.1857324518        6.5147925328
C         23.5244674779       24.8888960583        8.7080715500
O         20.9637468859       25.2850320316        5.4138676039
C         21.6332891584       25.9968731437        7.6563277908
C         22.4962813702       25.8489627151        8.7593050776
C         19.8848335797       26.2349436701        5.3178868548
N         22.3323383621       26.6644352877        9.9125139324
C         22.3392049106       26.2345325163       11.2255542918
C         22.1510333484       28.1076798229        9.8083178097
O         22.4671151969       25.0914301619       11.6288546477
O         22.1720093031       27.3292575638       12.0201183615
C         22.0161984899       28.5634745201       11.2718559669
C         20.6692898162       29.2614544268       11.5457212029
N         19.8434090761       28.6298445303       12.4502607015
O         20.3258148225       30.2744683361       10.9608887199
C         18.3866634320       28.8293543559       12.5044891327
C         17.6922193501       27.4455435047       12.5189517220
C         17.9714296394       29.7212134180       13.7078946908
C         18.0757369734       26.5867189746       11.3197120615
O         16.5545697001       29.9106159129       13.7130020540
C         18.6672276439       31.1083282819       13.6609984950
C         17.5394620124       26.8695179448       10.0503957942
C         18.9737306271       25.5131184292       11.4661016722
N         18.2063484431       32.0937335420       14.6817946144
C         17.8914540807       26.0846251462        8.9398006890
C         19.3277764029       24.7284455008       10.3558368682
S         18.1811789920       31.5238930809       16.3007799953
C         18.7305577601       33.4720396337       14.4674416851
C         18.7841541869       25.0117564996        9.0929328721
C         18.0128672743       32.9944626975       17.3451261856
O         16.9200575188       30.7780179228       16.4038049029
O         19.4899213191       30.9036889429       16.5390985220
C         18.4365812737       34.0923886039       13.0748516042
C         19.1438950013       33.5647733221       17.9626066250
C         16.7497944876       33.5904059179       17.5297647025
C         16.9248356193       34.0782809149       12.7510854225
C         18.9681365791       35.5405605704       13.0216354533
C         19.0135134358       34.7175768454       18.7560046543
C         16.6218625183       34.7427510723       18.3231960361
C         17.7482828248       35.3112947804       18.9386693977
O         17.5605528928       36.4434547024       19.7042340993
C         18.6342698952       37.1247928121       20.3816871276
H         22.9381774662       23.6044564171        5.5981566539
H         24.4797173981       23.3402414323        7.5373669795
H         24.2018878321       24.7664128913        9.5495112187
H         20.8356838079       26.7301950828        7.6993894091
H         19.3776830263       26.1307312663        4.3503836687
H         19.1472488215       26.0644341773        6.1119659376
H         20.2642012688       27.2618669932        5.3982496693
H         21.2448091189       28.3461851555        9.2367099844
H         23.0245831922       28.5705447558        9.3321502868
H         22.8165876525       29.2675840293       11.5302336823
H         20.2270868037       27.7950560889       12.8758204710
H         18.0690839728       29.3476231188       11.5883829999
H         17.9337535560       26.9256298663       13.4545758654
H         16.6035502453       27.5838547340       12.5250596697
H         18.2774096231       29.2014080564       14.6260959590
H         16.3429855769       30.3227322358       14.5837639939
H         19.7493692350       30.9592834418       13.7708652427
H         18.4994028820       31.4971346299       12.6511410820
H         16.8478933445       27.6986296471        9.9259333933
H         19.4006756601       25.2864797337       12.4394230656
H         17.4692303036       26.3065118130        7.9632423323
H         20.0254363008       23.9028675548       10.4745455908
H         18.2885436714       34.1601063170       15.1971103099
H         19.8161113395       33.4787864274       14.6372914056
H         19.0578436451       24.4030284901        8.2346141567
H         18.9710106270       33.5261201070       12.3000967542
H         20.1251917522       33.1165113031       17.8248709028
H         15.8698441127       33.1628112591       17.0545258163
H         16.5338151621       33.0531286506       12.7205468012
H         16.3543194581       34.6345835741       13.5056972805
H         16.7300987699       34.5351230446       11.7725377723
H         20.0468851285       35.5698670946       13.2222561425
H         18.8016569935       35.9818478629       12.0305142492
H         18.4668240283       36.1759649833       13.7633189329
H         19.8990112721       35.1395606632       19.2208785337
H         15.6461075284       35.2001394405       18.4619960427
H         18.2439797470       37.9952432797       20.9240494535
H         19.1202308417       36.4584626725       21.1061375921
H         19.3849714102       37.4767449160       19.6622646025
    83
VM2 Rank=17     G=215.690           E=117.472           -TS=98.219              
C         22.6649595560       24.3511794161        6.3375716599
C         23.5731007507       24.2125595729        7.3997367270
C         21.6217533960       25.2940274774        6.4231042820
C         23.4406200377       25.0092162234        8.5485212363
O         20.6939881585       25.4721270295        5.4177495926
C         21.4990044352       26.0911319298        7.5713779099
C         22.3992966303       25.9514603254        8.6447610391
C         20.6908704170       24.6996669482        4.2017536436
N         22.2588714934       26.7555986577        9.8096198963
C         22.3469784351       26.3237206898       11.1195330306
C         22.0100987372       28.1897876877        9.7210048092
O         22.5457209462       25.1870905443       11.5125592591
O         22.1736653884       27.4090770400       11.9258314170
C         21.9548661405       28.6413710177       11.1907515475
C         20.6184313684       29.3224398544       11.5447886797
N         19.8483480173       28.6733878117       12.4854360110
O         20.2321706321       30.3352833672       10.9869072902
C         18.3891576197       28.8311152598       12.5894649271
C         17.7350479659       27.4283952355       12.6379709927
C         17.9885299133       29.7202778693       13.7996949246
C         18.1469725703       26.5461051506       11.4649721781
O         16.5671893044       29.8618143885       13.8556015313
C         18.6351066396       31.1292075403       13.7160825782
C         19.0052869131       25.4488136251       11.6643454284
C         17.6814231837       26.8311983687       10.1682847677
N         18.1799688418       32.1075306562       14.7462101516
C         19.3876408598       24.6413626220       10.5802459377
C         18.0650858257       26.0256494888        9.0830912214
S         18.2334786409       31.5508144493       16.3690627170
C         18.6494169605       33.5005865168       14.5023888377
C         18.9154082613       24.9278611924        9.2898748640
C         18.0587476104       33.0240878971       17.4085489946
O         17.0012771547       30.7667080142       16.5247901018
O         19.5691684613       30.9738912813       16.5623155763
C         18.2837981136       34.0987882873       13.1170971778
C         16.7853408617       33.5810403421       17.6384097018
C         19.1941216247       33.6354088523       17.9768645051
C         16.7624662985       34.0318507521       12.8497289115
C         18.7643364817       35.5632606520       13.0334733143
C         16.6515348453       34.7354336348       18.4278939343
C         19.0578553307       34.7901812257       18.7663896128
C         17.7822957627       35.3448325798       18.9943698967
O         17.5883247473       36.4768343423       19.7586112617
C         18.6652746676       37.1978241821       20.3882079229
H         22.7806855438       23.7243926878        5.4590771978
H         24.3790892522       23.4857552801        7.3335326159
H         24.1502176471       24.8915275734        9.3636571725
H         20.6847380638       26.8067552849        7.6272648196
H         20.5687242044       23.6312396830        4.4219595053
H         19.8597447611       25.0150967187        3.5584564863
H         21.6276618584       24.8443973192        3.6482360006
H         21.0566360933       28.3867379446        9.2139025553
H         22.8273120934       28.6901186978        9.1863229182
H         22.7605805965       29.3551214296       11.4018093927
H         20.2650493243       27.8397682511       12.8815794921
H         18.0260034240       29.3324246516       11.6809546499
H         17.9890808582       26.9423603573       13.5883742295
H         16.6429026329       27.5362055157       12.6383635679
H         18.3452759908       29.2195981521       14.7101658435
H         16.3737348281       30.2750942559       14.7300234605
H         19.7250092124       31.0170144906       13.7859577535
H         18.4165245247       31.5034566347       12.7104623614
H         19.3795957862       25.2210146659       12.6587860889
H         17.0222603805       27.6791215570       10.0022156147
H         20.0546077354       23.7976283135       10.7400052621
H         17.7031080897       26.2511915832        8.0831237385
H         18.2116756212       34.1798201574       15.2428340271
H         19.7396478740       33.5448611965       14.6318264468
H         19.2135844371       24.3044572644        8.4504061443
H         18.8079909939       33.5438218648       12.3273047477
H         15.9016852908       33.1215895725       17.2013062280
H         20.1831992445       33.2174919162       17.8038688157
H         16.4050073760       32.9941061342       12.8414037632
H         16.2018685406       34.5755450206       13.6207836884
H         16.5166962164       34.4734488607       11.8756804387
H         19.8481600300       35.6300075822       13.1937150373
H         18.5468115432       35.9902169787       12.0459702158
H         18.2697267372       36.1880897313       13.7885211330
H         15.6677435183       35.1626460844       18.6017093135
H         19.9468261968       35.2440899928       19.1929860156
H         19.3754227397       37.5674712651       19.6371798827
H         18.2687117375       38.0599227228       20.9392880949
H         19.2005328197       36.5535085766       21.0976721495
    83
VM2 Rank=18     G=215.700           E=116.414           -TS=99.286              
C         21.8520827433       25.9286007533        5.8473882064
C         22.8792849303       25.4954094989        6.7005974354
C         20.8923882946       26.8451515754        6.3035617692
C         22.9468724857       25.9782538888        8.0171669406
O         19.9027967238       27.2319220790        5.4232814459
C         20.9653441617       27.3306649719        7.6242748435
C         21.9888273215       26.8957378441        8.4883419413
C         18.8616742208       28.1673017519        5.7651839945
N         22.0558053478       27.3825298842        9.8227715498
C         22.2634165583       26.6259956228       10.9602320283
C         21.9228867148       28.8029120717       10.1250866243
O         22.4065355808       25.4174624418       11.0286695715
O         22.2822906609       27.4765734070       12.0250713735
C         22.0623353922       28.8632016975       11.6563224228
C         20.8193251681       29.4707371017       12.3358467398
N         20.1623895715       28.6461202281       13.2233853674
O         20.4076682441       30.5872846603       12.0714273159
C         18.7549413845       28.8231906332       13.6158013763
C         18.0041783874       27.4886880334       13.3810554314
C         18.6294105055       29.3414839174       15.0768048669
C         18.1308297171       26.9878770331       11.9469627756
O         17.2510167409       29.4344496717       15.4408970751
C         19.3038137512       30.7303924490       15.2518902861
C         17.4233315997       27.6261491645       10.9121146750
C         18.9601042518       25.8924033339       11.6425719692
N         19.4800937043       31.1706827473       16.6647506027
C         17.5374316200       27.1709763851        9.5879971873
C         19.0754914268       25.4366531211       10.3187031334
S         18.1711050967       31.9239392162       17.4664359263
C         20.3254348451       30.3053859423       17.5276133134
C         18.3612866767       26.0733488429        9.2915202779
C         17.4427361702       33.0103917732       16.2154942228
O         17.2450764257       30.8517474823       17.8547449942
O         18.8033297923       32.8066246577       18.4545534762
C         21.7207764954       29.9549947245       16.9449204735
C         18.1078221658       34.1921292454       15.8338150910
C         16.2212918516       32.6741648514       15.5995163423
C         22.5588339997       31.2243493685       16.6699303093
C         22.4808591877       29.0262946960       17.9148567952
C         17.5585735543       35.0293732977       14.8476039164
C         15.6741378950       33.5121428002       14.6134959003
C         16.3365460660       34.6899319058       14.2327312232
O         15.7512194869       35.4711547813       13.2578827526
C         16.3354030817       36.6952204467       12.7717260363
H         21.7971766959       25.5537766984        4.8291412444
H         23.6211499142       24.7857891713        6.3424238825
H         23.7464017957       25.6372957864        8.6701675724
H         20.2227695616       28.0313900798        7.9893247679
H         19.2897964106       29.1378864291        6.0473543335
H         18.1982023259       28.3216379581        4.9048838739
H         18.2588329614       27.7875760841        6.5995917120
H         20.9427349584       29.1787783815        9.8042847561
H         22.7203682368       29.3758928545        9.6354121552
H         22.9294615503       29.4724227840       11.9393769107
H         20.5854507965       27.7366045035       13.3612125322
H         18.2972225601       29.5778312454       12.9604054002
H         18.3767935377       26.7330634427       14.0839954720
H         16.9409122318       27.6205499286       13.6182948583
H         19.1341627648       28.6129956308       15.7244949631
H         17.2120861946       29.6582242483       16.4006190657
H         20.2901298242       30.7005007989       14.7775723882
H         18.7364982843       31.4680623713       14.6720798969
H         16.7833357391       28.4755190448       11.1359556931
H         19.5180425733       25.3937215769       12.4306105824
H         16.9842471838       27.6665795854        8.7945514690
H         19.7206067741       24.5918850952       10.0894294528
H         20.4862335756       30.8091444388       18.4908930456
H         19.7867611801       29.3747962281       17.7511745320
H         18.4499651507       25.7185000811        8.2676524601
H         21.5944349062       29.4051774824       16.0023127069
H         19.0539629468       34.4577232380       16.3000145077
H         15.6991248234       31.7622375912       15.8794100861
H         22.0640944078       31.8791985603       15.9419486755
H         22.7131229958       31.8013563029       17.5907147414
H         23.5441896402       30.9623079966       16.2641516108
H         21.9163699772       28.1027307243       18.0969437955
H         23.4574501112       28.7435901973       17.5012035441
H         22.6518170461       29.5166839401       18.8819814535
H         18.0900658455       35.9339091730       14.5691799629
H         14.7331484234       33.2479693740       14.1389226495
H         15.6926862533       37.1378824630       12.0002869056
H         16.4449664889       37.4227830236       13.5863527783
H         17.3217875221       36.5048084335       12.3292481061
    83
VM2 Rank=19     G=215.701           E=116.947           -TS=98.754              
C         21.7741325342       26.0039082481        5.8222675914
C         22.7889193926       25.5423484875        6.6762100311
C         20.8291379918       26.9364115149        6.2933475070
C         22.8607522237       26.0055476970        7.9999154069
O         19.8053757737       27.4221475020        5.5064666893
C         20.9104257230       27.3995504562        7.6154292156
C         21.9186430591       26.9342718329        8.4811041795
C         19.5944597538       27.0081614868        4.1428257678
N         21.9859151324       27.4016104862        9.8230613094
C         22.2055512620       26.6318120165       10.9498387359
C         21.8362684078       28.8156662301       10.1465048812
O         22.3619891148       25.4240448526       11.0022402530
O         22.2211924128       27.4681195740       12.0261304612
C         22.0149542050       28.8608852642       11.6739590413
C         20.8031755008       29.4876860178       12.3905890506
N         20.1463244022       28.6662742713       13.2810984163
O         20.4101086203       30.6158813281       12.1480469357
C         18.7396852377       28.8522540768       13.6722651596
C         17.9785915521       27.5241003489       13.4341403089
C         18.6133835026       29.3697024507       15.1333090591
C         18.1418873498       26.9966739700       12.0129736702
O         17.2341650710       29.4716179526       15.4918655660
C         19.2979063780       30.7530745661       15.3122120249
C         17.5413356380       27.6720485318       10.9347044366
C         18.9035059708       25.8396585371       11.7644664503
N         19.4630206924       31.1957312241       16.7257189156
C         17.6955883788       27.1937283869        9.6227843634
C         19.0560990145       25.3590175010       10.4533049791
S         18.1533278517       31.9644150036       17.5114841807
C         20.2906304941       30.3249230129       17.6000517985
C         18.4497265528       26.0342043899        9.3825195978
C         17.4438398198       33.0487306384       16.2478778755
O         17.2155723804       30.9018440524       17.8980736781
O         18.7842226945       32.8479767387       18.4996639860
C         21.6898659800       29.9621730106       17.0346327614
C         18.1207334415       34.2234480969       15.8652763848
C         16.2256177272       32.7174978427       15.6228785066
C         22.5413268960       31.2242561307       16.7674670524
C         22.4307729826       29.0291862198       18.0152457111
C         17.5864056300       35.0586126616       14.8691548865
C         15.6933756273       33.5533943611       14.6269855447
C         16.3676086021       34.7241257529       14.2452226509
O         15.7967444288       35.5035464171       13.2604093993
C         16.3947345959       36.7197308588       12.7712755791
H         21.7321440440       25.6322594786        4.8033828758
H         23.5193380357       24.8236978764        6.3125108499
H         23.6516062872       25.6401031580        8.6501498546
H         20.1702167879       28.1114396319        7.9669428991
H         20.4671178402       27.2536443907        3.5238623684
H         19.4131802222       25.9268222058        4.0899803761
H         18.7208385227       27.5238271121        3.7245235835
H         20.8397754581       29.1744128071        9.8576838604
H         22.6079577023       29.4107144428        9.6420589176
H         22.9013562361       29.4509023138       11.9373227224
H         20.5536569579       27.7465061563       13.3976031459
H         18.2890393645       29.6111733158       13.0169820708
H         18.3205185123       26.7758461574       14.1601774204
H         16.9107428495       27.6740291714       13.6378119237
H         19.1105583734       28.6369297597       15.7820559067
H         17.1924667092       29.6988077312       16.4506429790
H         20.2889798127       30.7125651092       14.8485375315
H         18.7436464549       31.4941564549       14.7242159597
H         16.9553474606       28.5694049183       11.1146606094
H         19.3803852338       25.3121399832       12.5861751365
H         17.2297551860       27.7200456411        8.7934586579
H         19.6490592805       24.4667849434       10.2673775442
H         20.4440664365       30.8290096586       18.5643656210
H         19.7416080928       29.3991981278       17.8185935997
H         18.5695402168       25.6632106878        8.3675060863
H         21.5702664909       29.4117246485       16.0914834496
H         19.0645277430       34.4851039567       16.3384065014
H         15.6944863007       31.8109509039       15.9033885015
H         22.0606680296       31.8815126217       16.0322440728
H         22.6890472820       31.8018700309       17.6889465986
H         23.5293878213       30.9535571794       16.3741399855
H         21.8566748321       28.1105649509       18.1922252875
H         23.4099019219       28.7378151684       17.6137897648
H         22.5941496187       29.5200053788       18.9834616760
H         18.1268392780       35.9576626210       14.5901765903
H         14.7548623909       33.2930286926       14.1454566687
H         16.5029541556       37.4518544294       13.5819838960
H         17.3833904488       36.5186547657       12.3386903146
H         15.7622296602       37.1622237766       11.9913463445
    83
VM2 Rank=20     G=215.712           E=116.906           -TS=98.806              
C         20.8343034647       23.3402769865        7.2806409776
C         21.6556227697       23.0244465541        8.3750328628
C         20.3783237567       24.6611530784        7.1021976623
C         22.0194984151       24.0220133903        9.2939326069
O         19.5652677179       25.0333227504        6.0516328814
C         20.7505061716       25.6541272915        8.0211571211
C         21.5654259734       25.3439811551        9.1266092776
C         19.0947744476       24.1081919244        5.0525299429
N         21.9281118962       26.3549864382       10.0596377144
C         21.9193066057       26.2404898504       11.4367469497
C         22.3830853846       27.6700759525        9.6239015936
O         21.5911990525       25.2686910319       12.0955663805
O         22.3744378664       27.4166591077       11.9523612303
C         22.6245785813       28.4285400268       10.9429952626
C         21.7033668571       29.6545243785       11.1145326609
N         21.1930467192       29.8370374059       12.3816910445
O         21.4063064374       30.3939540545       10.1908402724
C         20.0144529862       30.6593262692       12.6878083945
C         18.7753766369       29.7481363213       12.9014454649
C         20.3191310169       31.5905765266       13.8949448306
C         18.5323659380       28.7822844522       11.7475744816
O         20.6023677930       30.8070832798       15.0582494879
C         19.1604875090       32.5849591502       14.1736762380
C         18.0998653648       29.2639403059       10.4985752317
C         18.7420350890       27.4013476432       11.9195205768
N         19.4875587211       33.6778980634       15.1330633613
C         17.8756064718       28.3749782091        9.4340582713
C         18.5152111267       26.5110587534       10.8568286450
S         19.3818771164       33.3643289664       16.8119176457
C         20.5853274433       34.5997908931       14.7432515067
C         18.0783896953       26.9975457717        9.6146153776
C         17.9149973018       32.3173170145       16.9843017370
O         20.6048363762       32.6377521356       17.1782128512
O         19.0329187226       34.6602755334       17.4067262559
C         20.4349347638       35.2454237156       13.3405467687
C         16.6292698343       32.8760066649       16.8450578400
C         18.0459880626       30.9360331910       17.2283343049
C         19.1275170887       36.0622031172       13.2275633876
C         21.6466063769       36.1539525424       13.0443973382
C         15.4869210733       32.0637196867       16.9476780684
C         16.9029866647       30.1255248305       17.3291873903
C         15.6216163881       30.6817434516       17.1897907338
O         14.5375395175       29.8352336892       17.2961880910
C         13.1736528041       30.2790884449       17.1594792779
H         20.5605835680       22.5557111342        6.5823845644
H         22.0091421051       22.0053935082        8.5122232765
H         22.6561298848       23.7636792206       10.1364334233
H         20.3869187908       26.6661092052        7.8734227771
H         18.4628734579       24.6314700385        4.3238409021
H         19.9383349532       23.6570157990        4.5142285309
H         18.4987798355       23.3100375557        5.5137178707
H         23.3133731052       27.5797187074        9.0492112765
H         21.6162095175       28.1641452224        9.0139850027
H         23.6618027334       28.7794629073       11.0053909887
H         21.5040601407       29.1842382620       13.0910757514
H         19.8084102223       31.3054377554       11.8231417748
H         18.8962852252       29.1870169669       13.8369018412
H         17.8798102586       30.3656095648       13.0355609111
H         21.2116984242       32.1694273206       13.6231770225
H         20.9140260635       31.4223364698       15.7624595347
H         18.8612975052       33.0287095442       13.2166825997
H         18.2853719362       32.0219110296       14.5158112446
H         17.9419526385       30.3289081625       10.3518681883
H         19.0841864248       27.0164663969       12.8766571191
H         17.5429501479       28.7535590430        8.4709076582
H         18.6816003415       25.4455193535       10.9956393426
H         20.6435624562       35.4158167497       15.4770101573
H         21.5456054143       34.0692401188       14.7942548237
H         17.9020193173       26.3087318801        8.7919397869
H         20.4257560076       34.4569880131       12.5758167450
H         16.5175711118       33.9404167468       16.6510809727
H         19.0316931535       30.4887847156       17.3325297979
H         19.0992286371       36.8655307860       13.9749127533
H         19.0362605493       36.5193818114       12.2340790213
H         18.2460894108       35.4277473626       13.3827234869
H         21.5702566515       36.5934173169       12.0414833173
H         21.7137416117       36.9752584484       13.7696747767
H         22.5839466920       35.5844579373       13.0879518199
H         14.5069374362       32.5166679529       16.8351129998
H         17.0086905006       29.0600514390       17.5137021612
H         12.4884652278       29.4305502244       17.2805059255
H         12.9311885511       31.0280345359       17.9244952520
H         13.0062924572       30.7168452291       16.1668375945
    83
VM2 Rank=21     G=215.720           E=116.950           -TS=98.770              
C         21.7260402321       25.9647258554        5.8302526522
C         22.7277644769       25.4782664400        6.6857886237
C         20.8057264405       26.9228200621        6.2988308394
C         22.8110505313       25.9421436866        8.0085832744
O         19.7957179606       27.4339286244        5.5102471950
C         20.8983817601       27.3862912854        7.6200503905
C         21.8934998128       26.8963874924        8.4873118209
C         19.5760524818       27.0243927174        4.1466422871
N         21.9724556387       27.3647237346        9.8283052127
C         22.1721955136       26.5920345271       10.9568168675
C         21.8592812695       28.7828817198       10.1486292945
O         22.2976989367       25.3807794631       11.0119215110
O         22.2095559507       27.4300763152       12.0312216038
C         22.0387975710       28.8268712197       11.6760255149
C         20.8431769640       29.4856612700       12.3911310092
N         20.1676485206       28.6839386504       13.2855794062
O         20.4771814414       30.6220247974       12.1444058525
C         18.7664835546       28.9055552291       13.6777842806
C         17.9722099296       27.5964979628       13.4422521868
C         18.6551722744       29.4282670316       15.1381432762
C         18.1213349203       27.0629337928       12.0218042435
O         17.2795423220       29.5616403270       15.5000812201
C         19.3708493003       30.7963675493       15.3125863259
C         17.5392421795       27.7527405341       10.9425381102
C         18.8516847751       25.8855894232       11.7749322138
N         19.5516729261       31.2367008662       16.7248992820
C         17.6808503527       27.2687754242        9.6312645439
C         18.9915227146       25.3993173663       10.4644245594
S         18.2618910018       32.0333071195       17.5158374456
C         20.3644657302       30.3491761154       17.5963419814
C         18.4036822023       26.0891487883        9.3926413758
C         17.5694700256       33.1312904830       16.2545013676
O         17.3038068482       30.9907126941       17.9069815042
O         18.9153643585       32.9039154464       18.5008431949
C         21.7528876448       29.9556682017       17.0248336913
C         18.2665778010       34.2936127350       15.8712496518
C         16.3438651519       32.8226233357       15.6317976323
C         22.6301363885       31.1987460196       16.7520440181
C         22.4781428295       29.0080820824       18.0031413748
C         17.7421686848       35.1360918459       14.8766922878
C         15.8215230589       33.6660062214       14.6363256862
C         16.5216361434       34.8283189192       14.2549561572
O         16.0585947576       35.6913103931       13.2833276748
C         14.8299966217       35.4796562313       12.5610313585
H         21.6748700209       25.5922477962        4.8120911157
H         23.4391721422       24.7398453373        6.3240146849
H         23.5916662956       25.5573245920        8.6600091557
H         20.1770211580       28.1182042047        7.9696158955
H         20.4556787724       27.2465987579        3.5287469638
H         19.3668191119       25.9480849809        4.0944053938
H         18.7167208284       27.5622203892        3.7266544204
H         20.8724413073       29.1665970332        9.8587690019
H         22.6461733442       29.3566952358        9.6430677147
H         22.9398265665       29.3947733269       11.9383616812
H         20.5527025045       27.7550191701       13.4052401321
H         18.3342041862       29.6745525946       13.0218941700
H         18.2957860932       26.8410954909       14.1692945597
H         16.9085787310       27.7734374673       13.6463026066
H         19.1374679814       28.6857117965       15.7869991228
H         17.2456555936       29.7892211680       16.4590814806
H         20.3587356503       30.7335774238       14.8446073943
H         18.8305721836       31.5489745512       14.7262198571
H         16.9775033241       28.6657195174       11.1211989572
H         19.3141642836       25.3465656964       12.5974039937
H         17.2294362077       27.8063259206        8.8011724327
H         19.5603792286       24.4912684980       10.2797703630
H         20.5332649524       30.8508732081       18.5593328790
H         19.7966462218       29.4357432796       17.8185446787
H         18.5136848831       25.7137573562        8.3781350036
H         21.6169884103       29.4067864517       16.0829822049
H         19.2160500140       34.5393935122       16.3414575072
H         15.7980292201       31.9254816054       15.9143491402
H         22.1602675542       31.8654328014       16.0183378424
H         22.7947634236       31.7740596980       17.6720957900
H         23.6102046115       30.9063061539       16.3543078039
H         21.8852089695       28.1022761347       18.1840217864
H         23.4488397286       28.6951770954       17.5974356651
H         22.6566752861       29.4964201775       18.9699347289
H         18.2837981409       36.0309366515       14.5827561398
H         14.8770341473       33.4058239411       14.1690000984
H         14.6726847411       36.2924888645       11.8408188664
H         14.8641867669       34.5322062039       12.0076905421
H         13.9745482507       35.4597859699       13.2486199291
    83
VM2 Rank=22     G=215.741           E=117.227           -TS=98.514              
C         21.7773683261       24.8619077928        5.5875514939
C         20.5446083753       25.4409882734        5.9264865175
C         22.9101446873       25.0938294221        6.3824219876
C         20.4421935623       26.2545958690        7.0658190223
O         24.0957332345       24.4999165335        6.0006721796
C         22.8041532889       25.9120634022        7.5249230795
C         21.5692364809       26.4916240146        7.8767394221
C         25.3198595821       24.6268985136        6.7501194207
N         21.4637819943       27.3169925213        9.0320076135
C         22.0439577619       27.0841466898       10.2654449462
C         20.7136075490       28.5675229989        9.0095269919
O         22.7202470806       26.1253311557       10.5962529084
O         21.7328342868       28.1355069074       11.0752915146
C         20.9452586817       29.1574452008       10.4113713068
C         19.6294194024       29.4759160823       11.1472306188
N         19.4517460649       28.8334267900       12.3532202613
O         18.7716242543       30.2006943684       10.6728112946
C         18.1300565860       28.5707899018       12.9458718885
C         17.9893995212       27.0467770642       13.1878753801
C         17.9048210868       29.4158297936       14.2315630243
C         18.2988492748       26.2188960267       11.9450961648
O         16.6614002483       29.0587176226       14.8389792557
C         17.9070647415       30.9395952215       13.9246061565
C         17.4513263155       26.2805320867       10.8236851621
C         19.4428811000       25.4005176078       11.9009515080
N         18.1097578575       31.8180435167       15.1086663459
C         17.7419254635       25.5304053590        9.6719624779
C         19.7321304156       24.6469111544       10.7513201872
S         16.7252000705       32.1928472149       16.0366673636
C         19.3868888173       31.6466970379       15.8534924202
C         18.8811595361       24.7106480014        9.6370080109
C         17.2498368244       33.6019122922       17.0418519803
O         15.7616662803       32.7288181604       15.0676986036
O         16.4281574677       31.0093376517       16.8543973279
C         20.6660392739       31.7026997732       14.9773308093
C         17.4486000536       33.4538750378       18.4283152207
C         17.4882693000       34.8512765359       16.4367787478
C         20.7895715486       33.0557827136       14.2403714184
C         21.9158675071       31.4667730011       15.8508438523
C         17.8781081223       34.5471699916       19.1993268435
C         17.9185475679       35.9433801358       17.2096302581
C         18.1148547774       35.7934002195       18.5973786126
O         18.5372669868       36.8284805427       19.4056753237
C         18.8215786422       38.1510797994       18.9097650767
H         21.8576864391       24.2313982937        4.7064520757
H         19.6692451997       25.2579895640        5.3080898901
H         19.4796337337       26.6890550817        7.3206969677
H         23.6757533503       26.1029272404        8.1419316693
H         25.1935722623       24.2342725409        7.7675344994
H         26.1212089048       24.0597485282        6.2598776570
H         25.6305639178       25.6779795604        6.8101658707
H         19.6468175649       28.3712105793        8.8402365115
H         21.0988661876       29.2375509630        8.2306038533
H         21.5229173580       30.0872874957       10.3412142169
H         20.2244147333       28.2457189723       12.6417970905
H         17.3541138626       28.8617078889       12.2237614899
H         18.6466542835       26.7510328603       14.0152146711
H         16.9678832035       26.8236288844       13.5209994388
H         18.7298948702       29.1829323782       14.9165548897
H         16.5930913227       29.5586228491       15.6871722626
H         18.6939753773       31.1542734854       13.1941556110
H         16.9661158601       31.1945222513       13.4191242219
H         16.5679278582       26.9130725099       10.8446520705
H         20.1117255838       25.3493652549       12.7558780130
H         17.0835347351       25.5828994237        8.8086002672
H         20.6197338226       24.0195759080       10.7221397174
H         19.4855857683       32.4326720834       16.6125794281
H         19.3675934047       30.6934414406       16.3984463414
H         19.1071740715       24.1291214370        8.7466576856
H         20.6341019368       30.8963970778       14.2321457414
H         17.2732699725       32.4929789225       18.9066551953
H         17.3438599502       34.9720633823       15.3654907205
H         20.8282522796       33.8904164824       14.9521289397
H         21.7014645300       33.0870176991       13.6306955961
H         19.9374155553       33.2239985126       13.5701340553
H         21.8619573767       30.4950949900       16.3584837779
H         22.8271724063       31.4725677770       15.2390966989
H         22.0176984312       32.2459680381       16.6173786063
H         18.0308577923       34.4300841085       20.2686954135
H         18.0969222045       36.8962269679       16.7212965050
H         17.9279843030       38.5932881991       18.4505016187
H         19.1410767835       38.8009332944       19.7342499108
H         19.6269762704       38.1207097835       18.1645047037
    83
VM2 Rank=23     G=215.753           E=117.976           -TS=97.777              
C         21.7962856282       24.5133648377        6.0525087366
C         22.5347902905       23.8013235236        7.0118831000
C         21.2604343076       25.7765323074        6.3724283895
C         22.7369394415       24.3448081795        8.2908564124
O         20.5154327340       26.5181124688        5.4790190751
C         21.4728889275       26.3170583212        7.6497705633
C         22.2047011584       25.6054177729        8.6185157154
C         20.1809982598       26.0554425728        4.1564760819
N         22.3960876435       26.1523838572        9.9157164055
C         22.1720056205       25.5057031512       11.1156434655
C         22.8751229034       27.5162083474       10.1084618662
O         21.8015581601       24.3560482424       11.2788594248
O         22.4694065500       26.3822280683       12.1165902544
C         22.7895340535       27.7131414267       11.6321270726
C         21.7166735307       28.7543997340       12.0104942246
N         20.6055881426       28.2635707121       12.6584350516
O         21.8065295528       29.9307389420       11.7014846351
C         19.3267172911       28.9795051815       12.7428862747
C         18.1561423133       27.9816265166       12.5549355196
C         19.2462436714       29.8048042721       14.0577204829
C         18.2528578457       27.2173554264       11.2401928181
O         19.1896746864       28.9362113985       15.1935003599
C         18.0325055318       30.7719615798       14.0583413307
C         17.9193534003       27.8498444903       10.0285226627
C         18.6902298205       25.8798819698       11.2232967808
N         18.1216304989       31.8855592123       15.0418559576
C         18.0165736552       27.1515019449        8.8132508867
C         18.7883557216       25.1809523305       10.0087202893
S         17.6206984407       31.5392393499       16.6386555874
C         19.2753240997       32.8150093477       14.8966913744
C         18.4472773562       25.8153037597        8.8038207584
C         17.4108182843       33.1723303940       17.3870460475
O         16.2679272755       30.9886198055       16.4921054127
O         18.7060901732       30.7765394605       17.2692403215
C         19.4616311948       33.4091206584       13.4761259794
C         18.3129264891       33.6281919456       18.3679173298
C         16.3563993112       34.0090791018       16.9724128554
C         18.2200142914       34.2167573330       13.0339383535
C         20.7123800359       34.3120838943       13.4415569846
C         18.1571793856       34.9070617936       18.9286826109
C         16.2027862041       35.2881817054       17.5340515693
C         17.1057186085       35.7415455096       18.5169299159
O         17.0057416761       36.9868669755       19.1020292063
C         15.9788258325       37.9383821775       18.7613018553
H         21.6460117411       24.0755715883        5.0708164979
H         22.9476023946       22.8261450258        6.7652583601
H         23.3063394204       23.7832435622        9.0273266826
H         21.0425256389       27.2846833829        7.8890466660
H         19.6011538241       25.1247701313        4.2070609900
H         19.5764351460       26.8092857371        3.6365786989
H         21.0895298925       25.8775084818        3.5667575763
H         22.2429268151       28.2386073256        9.5763321678
H         23.9125256761       27.6042775376        9.7620271776
H         23.7486647394       28.0559455509       12.0390591336
H         20.6256935476       27.2834695347       12.9085032795
H         19.2872652022       29.6916968529       11.9063739570
H         18.1340329254       27.2797517831       13.3985163025
H         17.2014597335       28.5197177825       12.5867409752
H         20.1668905978       30.4008612466       14.1004606206
H         19.2387198108       29.5019477487       15.9999556977
H         17.9274733823       31.1933036146       13.0515458767
H         17.1181188382       30.1904515203       14.2350198345
H         17.5864330746       28.8842366081       10.0288064830
H         18.9594190129       25.3813088728       12.1506918092
H         17.7601978026       27.6454542679        7.8793707166
H         19.1341174108       24.1501138092       10.0017059515
H         19.1609321488       33.6626669277       15.5838486690
H         20.1995004782       32.3015277433       15.1941581241
H         18.5269840890       25.2759695573        7.8631150317
H         19.6300324884       32.5948586268       12.7578717878
H         19.1344663326       32.9938361337       18.6928005908
H         15.6594324602       33.6672205177       16.2105382446
H         17.3235361717       33.5852154446       13.0023334815
H         18.0229087347       35.0466418928       13.7247452601
H         18.3644387199       34.6375511521       12.0307306303
H         21.6113196409       33.7469094031       13.7198680412
H         20.8736550770       34.7179587878       12.4345705065
H         20.6125218360       35.1568752273       14.1354088444
H         18.8547439086       35.2562887851       19.6850158118
H         15.3833259438       35.9157613180       17.1981360402
H         16.1032746509       38.8538076362       19.3534775190
H         16.0361752537       38.2065029317       17.6983696412
H         14.9833349322       37.5262447663       18.9713552763
    83
VM2 Rank=24     G=215.753           E=116.890           -TS=98.864              
C         22.5258626175       25.8493346761        5.8243631078
C         23.1714795003       26.1512026317        7.0334852636
C         21.1314903464       25.6977612171        5.7857712678
C         22.4207188520       26.3042083648        8.2097258258
O         20.5507397184       25.3997534463        4.5700359347
C         20.3809140525       25.8508416919        6.9686695336
C         21.0197120660       26.1609908986        8.1854484383
C         19.1286125032       25.2554015084        4.3882969719
N         20.2586687299       26.3160240332        9.3787668500
C         19.0508948384       26.9770316618        9.5030880954
C         20.6951431956       25.7364333654       10.6437118818
O         18.4383369373       27.5676252589        8.6300182606
O         18.6344348817       26.8411939247       10.7931937834
C         19.5705326908       26.1114306741       11.6273163461
C         20.0630550064       26.9516736583       12.8234366556
N         19.2391052218       27.9925772081       13.1934702481
O         21.1292882188       26.7482053606       13.3802385649
C         19.6846482344       29.1595135229       13.9673384700
C         19.9122621924       30.3677209936       13.0180853089
C         18.6764986362       29.4504372710       15.1147176830
C         20.8103490368       30.0414508634       11.8302428638
O         17.3922910322       29.7668957685       14.5687347999
C         19.1693895615       30.5856270238       16.0514686546
C         22.1760739181       29.7669612778       12.0267259453
C         20.2797826908       30.0043418623       10.5272843652
N         18.3795873175       30.7550534993       17.3042701936
C         23.0029465595       29.4608267818       10.9329912764
C         21.1064057399       29.7027284904        9.4323453951
S         16.9368074141       31.6742265216       17.2571405527
C         18.3445543592       29.5947094701       18.2310676075
C         22.4689233585       29.4331604315        9.6348441424
C         17.3067459430       33.0387515477       16.1259997024
O         15.8996832379       30.7911918944       16.7073179661
O         16.8334788792       32.2658440378       18.5966572520
C         19.7336315399       29.0344631684       18.6354945607
C         18.1436674713       34.0925665475       16.5419187706
C         16.7903402879       33.0421052581       14.8149906413
C         20.6019031695       30.1107554110       19.3260837800
C         19.5613709678       27.8206771972       19.5726840661
C         18.4607850839       35.1349539956       15.6548844292
C         17.1106772773       34.0842881333       13.9284519280
C         17.9500642809       35.1361436479       14.3471648034
O         18.3015711990       36.1824485931       13.5196675754
C         17.8735712342       36.2804672097       12.1473902367
H         23.1058161533       25.7313328091        4.9132801185
H         24.2522093451       26.2676834276        7.0587513570
H         22.9337066519       26.5438811515        9.1368657507
H         19.3031353072       25.7286787241        6.9504314001
H         18.7402400026       24.4343102432        5.0046535544
H         18.6072799213       26.1823813612        4.6606094086
H         18.9048371784       25.0312027618        3.3376690028
H         21.6536739959       26.1713984698       10.9545670855
H         20.7917700168       24.6471221466       10.5544342767
H         19.0928022408       25.2089272855       12.0275350604
H         18.3669462432       28.0772080897       12.6852955779
H         20.6487075814       28.9169314706       14.4356075531
H         18.9415516453       30.7330910492       12.6593538502
H         20.3579889500       31.1987148018       13.5768145497
H         18.6003976607       28.5271424190       15.7041650365
H         16.7558889211       29.8268760199       15.3189213359
H         20.2127634396       30.3741053039       16.3139939632
H         19.2000016698       31.5233405919       15.4863584144
H         22.5952775408       29.7848422488       13.0290164469
H         19.2246033180       30.2054196963       10.3617840285
H         24.0569852216       29.2478137117       11.0918579097
H         20.6895411466       29.6735585223        8.4285109569
H         17.8271028374       29.8909326767       19.1542232999
H         17.7464331834       28.7879413726       17.7865126392
H         23.1087697201       29.2007471863        8.7872946208
H         20.2586290843       28.6799538830       17.7381584427
H         18.5527866431       34.0982047354       17.5496857714
H         16.1469981225       32.2324421922       14.4787554112
H         21.5783262493       29.7006100292       19.6137124698
H         20.7836897630       30.9638616613       18.6607208251
H         20.1124068300       30.4896544818       20.2324492591
H         20.5356977758       27.3931533701       19.8423206591
H         19.0480355790       28.1050514809       20.5004204303
H         18.9738169075       27.0306261464       19.0874743889
H         19.1089358089       35.9445907352       15.9787735693
H         16.7044332819       34.0622146700       12.9221715034
H         18.2268247331       35.4169481540       11.5689287841
H         16.7786345320       36.3270218624       12.0850812959
H         18.2823033849       37.1905360524       11.6903860018
    83
VM2 Rank=25     G=215.775           E=116.480           -TS=99.295              
C         21.7944410005       25.9013139402        5.8553453011
C         22.8135057847       25.4448297814        6.7061674946
C         20.8577102580       26.8404466596        6.3133187480
C         22.8959293378       25.9269702799        8.0221503905
O         19.8750936843       27.2496353102        5.4353644890
C         20.9455558350       27.3251090349        7.6334364669
C         21.9609084820       26.8670066141        8.4951122090
C         18.8576033726       28.2100426543        5.7790175902
N         22.0428200742       27.3530978617        9.8289567113
C         22.2352077693       26.5927066825       10.9665165917
C         21.9444532370       28.7764687408       10.1304325967
O         22.3500357487       25.3811931074       11.0355540657
O         22.2767101150       27.4433932583       12.0306305261
C         22.0878419690       28.8344736077       11.6613982733
C         20.8600521228       29.4705070759       12.3425465788
N         20.1861577068       28.6617277460       13.2319430923
O         20.4732345698       30.5958312681       12.0778376701
C         18.7837852574       28.8710475472       13.6265990643
C         18.0026091239       27.5535589299       13.3950492818
C         18.6724526981       29.3943020377       15.0869821481
C         18.1140691695       27.0490345273       11.9610062783
O         17.2970623408       29.5194556799       15.4527454840
C         19.3790945502       30.7675217032       15.2587711484
C         17.4179784295       27.7021456438       10.9276790059
C         18.9179050277       25.9351781207       11.6551079777
N         19.5627731096       31.2087164401       16.6704329772
C         17.5181658002       27.2436346828        9.6035897403
C         19.0193782963       25.4760697147       10.3312573127
S         18.2708671742       31.9964712948       17.4667584822
C         20.3851756310       30.3265448639       17.5383186052
C         18.3165958099       26.1277785316        9.3056106166
C         17.5674652064       33.0914581407       16.2089084155
O         17.3206336147       30.9475758383       17.8601848301
O         18.9223536717       32.8701275864       18.4503785555
C         21.7733353085       29.9413994871       16.9604583126
C         18.2560833396       34.2584854619       15.8246096063
C         16.3418005563       32.7757851809       15.5898426722
C         22.6418223596       31.1897117308       16.6835830625
C         22.5087742054       28.9982480752       17.9354343814
C         17.7232222713       35.0986982122       14.8326344898
C         15.8110078253       33.6169106396       14.5969303840
C         16.5026342277       34.7839522325       14.2145107903
O         16.0311180573       35.6450139839       13.2452486879
C         14.8015758706       35.4264200899       12.5266388940
H         21.7280320778       25.5270993903        4.8375600211
H         23.5375770147       24.7177491394        6.3466016650
H         23.6889944127       25.5678723951        8.6733085953
H         20.2205421283       28.0432616015        7.9999160704
H         19.3096139520       29.1704143043        6.0588682326
H         18.1956330289       28.3792555793        4.9203613530
H         18.2481648598       27.8457892512        6.6155247079
H         20.9731188582       29.1755786431        9.8108982968
H         22.7546911037       29.3297652137        9.6390646795
H         22.9690484381       29.4239905675       11.9426879908
H         20.5887731006       27.7430072745       13.3699544161
H         18.3420710564       29.6348775887       12.9708703082
H         18.3600570908       26.7902918310       14.0976072423
H         16.9432064207       27.7094142832       13.6349954701
H         19.1612418163       28.6554811915       15.7352288049
H         17.2645237230       29.7468696220       16.4118344031
H         20.3654568490       30.7124013581       14.7867697102
H         18.8308348831       31.5163409434       14.6749600997
H         16.7976451484       28.5656723037       11.1526840405
H         19.4668496835       25.4247556168       12.4419449525
H         16.9738702920       27.7508495595        8.8113375071
H         19.6449073577       24.6170159705       10.1007967105
H         20.5553349374       30.8295672621       18.5003779931
H         19.8240703606       29.4096834721       17.7634376381
H         18.3944815200       25.7703610992        8.2817571817
H         21.6364710251       29.3916203993       16.0192964374
H         19.2055325443       34.5096939263       16.2919879140
H         15.8024973596       31.8749531943       15.8732016070
H         22.8074236489       31.7658896826       17.6029213523
H         23.6217124320       30.9031634639       16.2811466596
H         22.1644817486       31.8537056200       15.9522700820
H         21.9221557686       28.0888890667       18.1190651787
H         23.4794716319       28.6911810734       17.5252930657
H         22.6887878951       29.4876994066       18.9013902897
H         18.2583162687       35.9972007512       14.5378880002
H         14.8666641248       33.3513174062       14.1323652678
H         14.6369321196       36.2389540637       11.8077291098
H         14.8399035079       34.4797361647       11.9722602278
H         13.9484541968       35.4005695776       13.2169137104
    83
VM2 Rank=26     G=215.784           E=117.261           -TS=98.524              
C         21.7468912831       24.7634367974        5.6216310563
C         20.5055218379       25.3163287780        5.9726844896
C         22.8894467972       25.0488136966        6.3844712060
C         20.4043192676       26.1572955516        7.0920892234
O         24.0831973607       24.4786867734        5.9920348542
C         22.7845890233       25.8943230743        7.5070396484
C         21.5413384699       26.4479946934        7.8709680113
C         25.3193144389       24.6614985981        6.7095890586
N         21.4371748308       27.3011121533        9.0059876054
C         22.0500085243       27.1180123216       10.2319821293
C         20.6516460118       28.5293154783        8.9669144857
O         22.7597301487       26.1874060269       10.5731491266
O         21.7269380866       28.1821070317       11.0202220572
C         20.8974009485       29.1637935259       10.3467248157
C         19.5896911258       29.4672220447       11.1031192296
N         19.4562245272       28.8541290291       12.3299273229
O         18.7021737310       30.1552373230       10.6286387010
C         18.1556655521       28.5734556884       12.9598765644
C         18.0609550285       27.0533929230       13.2451952173
C         17.9374512879       29.4467783911       14.2277494732
C         18.3649610240       26.2006196385       12.0180007439
O         16.7183674258       29.0739092979       14.8737744453
C         17.8918034017       30.9612564307       13.8807260558
C         17.4911141373       26.2090625435       10.9152923149
C         19.5298063287       25.4124288047       11.9690245405
N         18.1021690534       31.8762871522       15.0353985735
C         17.7763308152       25.4361201186        9.7773906916
C         19.8138322118       24.6360546437       10.8333290061
S         16.7327680970       32.2393525963       15.9902387904
C         19.4024521643       31.7579337276       15.7499319765
C         18.9366252439       24.6466709716        9.7377456354
C         17.2462487659       33.6858742187       16.9469280305
O         15.7307541387       32.7258627494       15.0342825620
O         16.4882424949       31.0696449269       16.8444117000
C         20.6565189078       31.8201441459       14.8385893630
C         17.4293205935       34.9270185893       16.3072259461
C         17.4913346677       33.5757820414       18.3297847767
C         20.7268220658       33.1542430468       14.0611480993
C         21.9342342234       31.6397473372       15.6845579483
C         17.8502203727       36.0459430857       17.0452142698
C         17.9119753752       34.6965414132       19.0663857793
C         18.0929810118       35.9381219438       18.4238567380
O         18.5056298028       37.0705943428       19.0949879025
C         18.7928093948       37.0904463338       20.5067798344
H         21.8263134178       24.1118381901        4.7559290787
H         19.6226360027       25.0919309873        5.3791166564
H         19.4353755085       26.5711549465        7.3568887907
H         23.6634424088       26.1264291875        8.0991242383
H         25.6002215219       25.7223497791        6.7341623804
H         25.2271308614       24.2936369041        7.7398391083
H         26.1259767867       24.1043414669        6.2166095810
H         19.5873657938       28.2989058166        8.8273874326
H         21.0004907125       29.1880314967        8.1616292279
H         21.4477615064       30.1064471350       10.2384280922
H         20.2508103988       28.2955184792       12.6167711402
H         17.3561531307       28.8246286118       12.2486401436
H         18.7439093342       26.7972791692       14.0649007721
H         17.0533178395       26.8128564895       13.6072377291
H         18.7839846856       29.2540648125       14.8988948278
H         16.6571471743       29.5937375633       15.7104725805
H         18.6534367301       31.1761431580       13.1240230889
H         16.9316275081       31.1783645110       13.3940866727
H         16.5913668051       26.8179864461       10.9399723009
H         20.2188239541       25.4024735109       12.8092771088
H         17.0975338763       25.4474878122        8.9284300632
H         20.7174773021       24.0322590917       10.8002031774
H         19.5010606350       32.5676140274       16.4836770848
H         19.4216464119       30.8205110655       16.3217030173
H         19.1585008291       24.0475161086        8.8581088002
H         20.6254944487       30.9923846815       14.1173030025
H         17.2494806419       35.0206270514       15.2386143823
H         17.3584085666       32.6208023745       18.8330441752
H         20.7633099299       34.0095363459       14.7480730503
H         21.6213323733       33.1901780264       13.4264920190
H         19.8534275878       33.2826442626       13.4097088782
H         21.9180070798       30.6819170337       16.2203392337
H         22.8288373562       31.6502945961       15.0486948506
H         22.0364283535       32.4427481791       16.4260663985
H         17.9913671776       37.0017681243       16.5482260584
H         18.0949915251       34.5884394039       20.1308542869
H         19.1026385984       38.0975898119       20.8131018394
H         17.9032636040       36.8134456270       21.0872628526
H         19.6059551908       36.3931635267       20.7467355083
    83
VM2 Rank=27     G=215.794           E=116.972           -TS=98.821              
C         22.0173407442       25.7805133668        5.6879180795
C         22.7709976259       26.2966651892        6.7541933067
C         20.6768849159       25.3995179304        5.8941478984
C         22.1905870042       26.4351856922        8.0250817785
O         19.8871960995       24.8822763046        4.8878467391
C         20.1026148020       25.5416587143        7.1670890483
C         20.8493393336       26.0641878071        8.2405995849
C         20.3539127724       24.6908032369        3.5382390699
N         20.2600178839       26.2028394003        9.5289008930
C         18.9900408967       26.6735108409        9.8050626052
C         20.9730877946       25.8150022601       10.7402544464
O         18.1642745282       27.0843641938        9.0079181630
O         18.8009876841       26.5910834571       11.1518665828
C         19.9603797339       26.0924280767       11.8673120492
C         20.4764110741       27.0996125379       12.9154130802
N         19.5524234560       28.0248722562       13.3506622638
O         21.6327982152       27.1160113615       13.3037375801
C         19.9039409351       29.3095671764       13.9712344337
C         19.7809618279       30.4523806731       12.9264630557
C         19.0419796830       29.5355355268       15.2454009879
C         20.5366609146       30.1713106306       11.6327162056
O         17.6564274519       29.5981581784       14.8935996990
C         19.4695241704       30.8099828737       16.0213628984
C         21.9430924118       30.1397933350       11.6243457857
C         19.8341685391       29.9332329577       10.4367270329
N         18.8538935618       30.9615475965       17.3704463279
C         22.6399349291       29.8755406477       10.4334314740
C         20.5297987397       29.6731105992        9.2444209106
S         17.2868995715       31.6379951755       17.4959032656
C         19.1485140055       29.8938511588       18.3602779773
C         21.9331656212       29.6466165077        9.2421226994
C         17.2538674337       32.9391782631       16.2372604421
O         16.3424827975       30.5599855205       17.1739532050
O         17.2839174188       32.3210979006       18.7952677967
C         20.6555342025       29.5935646883       18.5740227879
C         17.9546729347       34.1426331448       16.4482837591
C         16.5580541673       32.7473077242       15.0271087143
C         21.4230534810       30.8471983684       19.0520669124
C         20.8268251229       28.4527541998       19.5989593960
C         17.9600879332       35.1397867091       15.4585192535
C         16.5667451694       33.7447809346       14.0373260382
C         17.2707728885       34.9468860985       14.2507907627
O         17.3178907965       35.9583741733       13.3139143930
C         16.6848387269       35.8672966117       12.0228306162
H         22.4830108930       25.6802454005        4.7126679732
H         23.8058675820       26.5900570804        6.5954755751
H         22.7867728701       26.8408159001        8.8376332726
H         19.0697407496       25.2396777530        7.3141517746
H         20.6634638385       25.6466279675        3.0960114995
H         21.2040730687       23.9967223643        3.5169185940
H         19.5515020229       24.2699365895        2.9192409008
H         21.8785122955       26.4230136198       10.8634255356
H         21.2403307169       24.7513942724       10.7053043157
H         19.7065878273       25.1639842197       12.3931395618
H         18.6125980523       27.9265793314       12.9857837168
H         20.9536563308       29.2630789876       14.2929178769
H         18.7202807158       30.6273085355       12.7055056794
H         20.1565531594       31.3884305484       13.3555560587
H         19.2105299409       28.6656929757       15.8940095139
H         17.1368999557       29.6226762793       15.7307699844
H         20.5605514971       30.7868685603       16.1282172442
H         19.2603347866       31.6889258030       15.4023079736
H         22.4960563474       30.3142136006       12.5432841266
H         18.7474105273       29.9455191752       10.4304767646
H         23.7266733254       29.8508180160       10.4341139599
H         19.9807987088       29.4878088984        8.3243197969
H         18.7289299520       30.1840907199       19.3336408203
H         18.6352439167       28.9686319044       18.0656958539
H         22.4714467906       29.4464517799        8.3191177960
H         21.0959619855       29.2494458908       17.6284454658
H         18.5000490091       34.3001032838       17.3760616170
H         16.0168483768       31.8211769362       14.8485782609
H         22.4855954131       30.6203324389       19.2066215369
H         21.3609148692       31.6578938400       18.3155507174
H         21.0144774865       31.2216447431       19.9994445888
H         21.8876079085       28.2068848881       19.7371016054
H         20.4139762077       28.7323277782       20.5769541783
H         20.3151024304       27.5421549915       19.2616475193
H         18.5042291974       36.0655378387       15.6240799018
H         16.0272145986       33.5716730489       13.1115498470
H         17.0899188451       35.0218538471       11.4516808871
H         15.6002968210       35.7369521507       12.1310599315
H         16.8646200758       36.7861347812       11.4505069443
    83
VM2 Rank=28     G=215.800           E=117.029           -TS=98.771              
C         21.9296955081       23.5640203515        6.2387734543
C         22.6098268098       23.0671345505        7.3620219277
C         21.3887779490       24.8588036995        6.2543760923
C         22.7477147512       23.8663736378        8.5081185780
O         20.7261240649       25.2940442562        5.1250244179
C         21.5316255192       25.6590497655        7.4049812138
C         22.2066997448       25.1654796451        8.5380228120
C         20.1754615216       26.6191162801        4.9924131028
N         22.3393439327       25.9733531477        9.7005604172
C         22.0949911548       25.5817196991       11.0029415288
C         22.7848702789       27.3596286518        9.6222529614
O         21.7471550612       24.4795403183       11.3905155278
O         22.3618713065       26.6475792117       11.8092561312
C         22.6449961808       27.8643421926       11.0709227524
C         21.5189746024       28.9074990676       11.2360569852
N         20.7585554585       28.7813493093       12.3784788316
O         21.2840185447       29.7661743854       10.4019650484
C         19.4458466208       29.4123978339       12.5743712697
C         18.3219848571       28.3516635573       12.4372891788
C         19.4202562778       30.1814765256       13.9250406992
C         18.3859182789       27.5745385317       11.1274861335
O         19.6064273382       29.2710588195       15.0137346102
C         18.1077956693       30.9889760478       14.1132391852
C         18.0753840789       28.2077200314        9.9100949568
C         18.7546152095       26.2165489788       11.1239747677
N         18.1654928336       32.0455133738       15.1601697393
C         18.1262409423       27.4899290921        8.7032689950
C         18.8042705880       25.4972849144        9.9184413340
S         17.8825466092       31.5508225700       16.7714104170
C         19.1686285235       33.1270486109       14.9644230202
C         18.4851881880       26.1325176063        8.7081914425
C         17.5309287611       33.0980246166       17.6394253523
O         16.6084872766       30.8237749592       16.7185518723
O         19.1195619887       30.9165411833       17.2455318591
C         19.0900206301       33.8456569557       13.5925286223
C         18.4538849817       33.6215755348       18.5655530186
C         16.3408192794       33.8025467039       17.3727476149
C         17.7075475168       34.5028410019       13.3772919862
C         20.1985013438       34.9144236841       13.4919606493
C         18.1845831763       34.8359321929       19.2190402342
C         16.0737094899       35.0174088979       18.0268645372
C         16.9979663416       35.5385126160       18.9548108819
O         16.7904469522       36.7260817998       19.6254636314
C         15.6192438573       37.5439751905       19.4374122080
H         21.8200655305       22.9455136652        5.3523416696
H         23.0281331970       22.0636700773        7.3448643782
H         23.2756447646       23.4729872166        9.3732681272
H         21.1063014399       26.6560969454        7.4313251842
H         20.9625580874       27.3774409907        5.0944766064
H         19.7120087298       26.7358639710        4.0046311184
H         19.4070401487       26.7990110724        5.7548522970
H         22.1609593417       27.9383873486        8.9300175402
H         23.8321197960       27.3994077562        9.2973329872
H         23.5780454008       28.3216097814       11.4218924129
H         21.0303082599       28.0499182907       13.0243009768
H         19.2970653400       30.1556004099       11.7787530615
H         18.3757035516       27.6577356188       13.2858502078
H         17.3429043365       28.8393295292       12.5100429296
H         20.2615808062       30.8855837422       13.8928420485
H         19.6708286386       29.8064666949       15.8396671143
H         17.8475751767       31.4503172987       13.1531794931
H         17.2929373833       30.2884989509       14.3384296901
H         17.7953309013       29.2575401902        9.8996765277
H         19.0052220091       25.7166893140       12.0559905239
H         17.8832239176       27.9849730446        7.7666222246
H         19.0922511241       24.4487577729        9.9230366024
H         19.0425505454       33.8980072845       15.7347895937
H         20.1795778470       32.7203344680       15.1008356601
H         18.5202721478       25.5736162226        7.7764312571
H         19.2652397116       33.1181626218       12.7883343084
H         19.3790201997       33.0899304728       18.7761809964
H         15.6261078679       33.4084402818       16.6537563696
H         16.9042922394       33.7556941058       13.3912342833
H         17.4950299686       35.2405568460       14.1617890494
H         17.6653405160       35.0163797288       12.4083478788
H         21.1915296058       34.4623463836       13.6117357226
H         20.1748858830       35.4113851437       12.5135603435
H         20.0796467183       35.6842781636       14.2654847292
H         18.8984727236       35.2376854867       19.9328683133
H         15.1505229428       35.5432336998       17.8045130391
H         15.6773262150       38.4356367070       20.0743810150
H         15.5396226005       37.8725593862       18.3930489619
H         14.7113350446       36.9885800379       19.7061510029
    83
VM2 Rank=29     G=215.803           E=117.327           -TS=98.475              
C         21.8382614070       24.7916779122        5.6705501292
C         20.5930066253       25.3395959287        6.0176616240
C         22.9760807004       25.0832817304        6.4483211549
C         20.4796461821       26.1765255325        7.1392020530
O         24.2265309502       24.5787813018        6.1556596362
C         22.8553704775       25.9198519121        7.5690167634
C         21.6092007157       26.4687540600        7.9277165638
C         24.4835116273       23.7061758216        5.0383245611
N         21.4948789873       27.3181850804        9.0640529628
C         22.0923192981       27.1284374042       10.2964197917
C         20.7142530438       28.5492147641        9.0195403220
O         22.7909717873       26.1920418501       10.6443088550
O         21.7622465082       28.1902553126       11.0849422853
C         20.9461963663       29.1782927915       10.4041884417
C         19.6308651908       29.4866611072       11.1452011772
N         19.4791949498       28.8714175596       12.3688105663
O         18.7527618877       30.1803602390       10.6615451127
C         18.1695702883       28.5960249547       12.9820993050
C         18.0642557873       27.0760471840       13.2640415932
C         17.9393910273       29.4686551437       14.2483500534
C         18.3768138572       26.2238944486       12.0386092280
O         16.7101739679       29.1008976885       14.8779082113
C         17.9057919993       30.9838145106       13.9029355591
C         17.5122749424       26.2354173595       10.9286281002
C         19.5403023870       25.4332065609       11.9985976497
N         18.1021838437       31.8963883740       15.0620147829
C         17.8052748687       25.4629493588        9.7923824113
C         19.8321316084       24.6573775305       10.8645087146
S         16.7197262786       32.2651017824       15.9956249954
C         19.3903995618       31.7709406546       15.7968484956
C         18.9641201348       24.6709771814        9.7616557008
C         17.2243124189       33.7096522806       16.9599823485
O         15.7345093465       32.7556260956       15.0243818768
O         16.4572669395       31.0964319429       16.8458829300
C         20.6589591485       31.8292771444       14.9055388090
C         17.4230188702       34.9497600882       16.3229417723
C         17.4466938618       33.5989918231       18.3466247559
C         20.7473027619       33.1644481890       14.1317872609
C         21.9223580016       31.6418010663       15.7712439537
C         17.8368730261       36.0671150614       17.0672668479
C         17.8603026331       34.7181872979       19.0895630242
C         18.0569691060       35.9587463016       18.4496663374
O         18.4636129050       37.0896856166       19.1270218065
C         18.7271137233       37.1090740519       20.5434314760
H         21.9067558187       24.1471754424        4.7999599940
H         19.7146514692       25.1146705726        5.4175723066
H         19.5072610721       26.5861537196        7.3979994014
H         23.7409795950       26.1407141478        8.1576861734
H         24.2297086035       24.2023818917        4.0926297931
H         25.5465644211       23.4355511548        5.0095441170
H         23.8962169119       22.7828088061        5.1247187793
H         19.6509325078       28.3228678676        8.8666416593
H         21.0749247920       29.2091932638        8.2205263754
H         21.5029376116       30.1182401228       10.3054241684
H         20.2673154751       28.3079911016       12.6639572172
H         17.3802085813       28.8518303848       12.2612350562
H         18.7372403502       26.8151457702       14.0904567828
H         17.0516692236       26.8399235770       13.6150039299
H         18.7762036419       29.2708520093       14.9301308347
H         16.6399565662       29.6205758656       15.7139797289
H         18.6801403354       31.1963216542       13.1585602543
H         16.9543145426       31.2058278191       13.4016513545
H         16.6137180769       26.8463408584       10.9464120036
H         20.2222450437       25.4209221150       12.8445734510
H         17.1336295342       25.4766684727        8.9377854773
H         20.7347155145       24.0516437019       10.8383127631
H         19.4808850905       32.5788188191       16.5336307035
H         19.3963826513       30.8323784662       16.3670414178
H         19.1920149822       24.0721655827        8.8833304608
H         20.6357121452       31.0029527882       14.1822957727
H         17.2607191830       35.0437706546       15.2515610456
H         17.3015179075       32.6447863853       18.8479652860
H         20.7765705901       34.0183510894       14.8207851214
H         21.6519025682       33.1976466293       13.5114440790
H         19.8848997771       33.2977725480       13.4668326085
H         22.8269331292       31.6495776914       15.1496062029
H         22.0163065086       32.4430279984       16.5157564978
H         21.8935170001       30.6830974368       16.3049293484
H         17.9901019222       37.0221473020       16.5723366297
H         18.0257204988       34.6096818936       20.1568675882
H         19.0362073473       38.1150132241       20.8544189141
H         17.8267131171       36.8363419807       21.1090093939
H         19.5330128400       36.4083432511       20.7973804033
    83
VM2 Rank=30     G=215.826           E=116.954           -TS=98.872              
C         22.2587107410       25.8144389594        5.6860088481
C         22.9801384829       26.3097462640        6.7833408301
C         20.9143090799       25.4409695348        5.8338294572
C         22.3554080227       26.4343710317        8.0342475314
O         20.2549798048       24.9592948297        4.7214626150
C         20.2905230142       25.5661898049        7.0913117217
C         21.0047981439       26.0691277718        8.1965922170
C         18.8655371360       24.5776221467        4.7305288684
N         20.3716274754       26.1955526226        9.4655621595
C         19.0933963617       26.6655239540        9.7028862527
C         21.0414701827       25.7932918877       10.6968263620
O         18.2942208158       27.0807226409        8.8811774302
O         18.8573198043       26.5680105194       11.0411833160
C         19.9925897456       26.0654610830       11.7916669480
C         20.4744995005       27.0680238900       12.8603175061
N         19.5376652279       27.9928769877       13.2681230813
O         21.6172965185       27.0814045689       13.2870717585
C         19.8700099798       29.2744922845       13.9054424791
C         19.7777667115       30.4226161889       12.8636277280
C         18.9718797968       29.4937268013       15.1554351903
C         20.5741776120       30.1490421453       11.5928279581
O         17.5966864218       29.5572800467       14.7652831439
C         19.3750087164       30.7656186470       15.9483137775
C         21.9800926748       30.1137426049       11.6295578089
C         19.9101030193       29.9212438110       10.3731218848
N         18.7403680025       30.8969887939       17.2906467199
C         22.7143483973       29.8557337891       10.4599433580
C         20.6432107565       29.6674955329        9.2020754283
S         17.1620561875       31.5489967400       17.3998217818
C         19.0367402431       29.8246276097       18.2750673334
C         22.0458384207       29.6369893312        9.2448839975
C         17.1352043001       32.8759494521       16.1684642237
O         16.2376645863       30.4656172534       17.0399561441
O         17.1257660592       32.2061620340       18.7120157001
C         20.5446877293       29.5396518044       18.5029306062
C         17.8228545569       34.0806095021       16.4145431909
C         16.4549511172       32.7052353612       14.9466706489
C         21.2926053608       30.7978542090       18.9997025484
C         20.7177678280       28.3923842834       19.5203291616
C         17.8316640841       35.1031793022       15.4503961603
C         16.4661036199       33.7279619501       13.9836314355
C         17.1518902706       34.9282207573       14.2281368827
O         17.1291980117       35.8944017512       13.2437108466
C         17.8038654779       37.1615495162       13.3663269578
H         22.7409826589       25.7181917011        4.7172507682
H         24.0217505780       26.5979068246        6.6642190359
H         22.9247233602       26.8252074269        8.8728895173
H         19.2535355130       25.2735526807        7.2173725481
H         18.6934202994       23.7568565921        5.4387929149
H         18.2318383609       25.4289834381        5.0113197502
H         18.5624923779       24.2382634065        3.7319504936
H         21.9452452573       26.3951967025       10.8564497600
H         21.3044405711       24.7286466537       10.6610029010
H         19.7218094109       25.1348408158       12.3050264119
H         18.6103375851       27.8971622007       12.8719376789
H         20.9098803379       29.2266474283       14.2574453036
H         18.7241429183       30.5970229842       12.6107039677
H         20.1381317069       31.3568832538       13.3094259372
H         19.1233993755       28.6208541986       15.8040931974
H         17.0542169436       29.5680354232       15.5881698578
H         20.4647574524       30.7545510333       16.0691009711
H         19.1626811231       31.6475316313       15.3342302033
H         22.5036056466       30.2802537773       12.5670246519
H         18.8241454210       29.9366319194       10.3318434099
H         23.8004304917       29.8279256859       10.4955233217
H         20.1237322524       29.4901073817        8.2634643890
H         18.6034131911       30.1019425026       19.2461595896
H         18.5373251326       28.8960300189       17.9676326666
H         22.6131161205       29.4415483974        8.3383716133
H         20.9993128710       29.2082862301       17.5595109182
H         18.3556783314       34.2201496522       17.3524664035
H         15.9242753321       31.7789888901       14.7394284171
H         20.8695782053       31.1595980440       19.9456717348
H         22.3559406213       30.5817541531       19.1639306340
H         21.2291644190       31.6140180050       18.2693752310
H         21.7797161292       28.1574184549       19.6681554302
H         20.2910693851       28.6591221868       20.4959612627
H         20.2202211894       27.4788711351       19.1699427627
H         18.3698835238       36.0217352549       15.6620002852
H         15.9433685796       33.5906057661       13.0411169353
H         18.8838459764       37.0144867210       13.4966851758
H         17.6457542564       37.7605823916       12.4606194279
H         17.4152757273       37.7262600071       14.2236816372
