    79
VM2 Rank=1      G=205.518           E=113.654           -TS=91.864              
C         22.0023184475       24.0045802963        5.7711215375
C         22.3695272404       23.2970999809        6.9272117376
C         21.6512766283       25.3590084295        5.8666014084
C         22.3806962767       23.9469477475        8.1732760177
F         21.2961499296       26.0401988755        4.7577921294
C         21.6645335351       26.0102453300        7.1089039670
C         22.0238974210       25.3065390385        8.2751254239
N         22.0356986004       25.9626259113        9.5379588858
C         21.5514207125       25.4572667208       10.7297005760
C         22.6100380705       27.2927686042        9.7025244807
O         21.7950347866       26.3810404333       11.7011315090
O         21.0036384814       24.3829754458       10.9083536810
C         22.4126903973       27.5946015123       11.2002875562
C         21.5393907775       28.8397159665       11.4588854518
O         21.6088753575       29.8494681292       10.7778834705
N         20.6280251286       28.7195864584       12.4857281995
C         19.4353795925       29.5657541034       12.6311220576
C         18.1784968359       28.7960454647       12.1445787748
C         19.3232751877       30.0833043185       14.0926989335
C         18.3291843984       28.2304398589       10.7369579470
O         19.1667174031       28.9827318461       14.9944875702
C         18.1588300525       31.0952413785       14.2664290111
C         18.3787656846       29.0933835622        9.6269863174
C         18.4282522836       26.8411019234       10.5354765637
N         18.2271707625       31.9252616563       15.5001772162
C         18.5221952103       28.5735536721        8.3297090235
C         18.5680640791       26.3198135456        9.2385419583
C         19.4211744815       32.8002133743       15.6524353473
S         17.6029314588       31.2314402077       16.9319101094
C         18.6120541488       27.1860848515        8.1348855778
C         19.6928276810       33.7432551586       14.4517591673
C         17.3885530209       32.6474932216       18.0362556838
O         16.2479890846       30.7954706518       16.5731575696
O         18.6166668847       30.2902347667       17.4257123841
C         18.4987577638       34.6911446366       14.1962666121
C         20.9709253487       34.5692438848       14.7075385434
C         16.3989340371       33.6119732618       17.7637874958
C         18.2247617314       32.8097974719       19.1578839117
C         16.2441616100       34.7269738653       18.6051865318
C         18.0678644296       33.9248509041       19.9982840475
C         17.0809717137       34.8864229958       19.7282332796
O         16.9766603973       35.9602882912       20.5879573068
C         16.0132229269       37.0178122466       20.4160950268
H         21.9897793061       23.5080452924        4.8050679373
H         22.6447907679       22.2473777550        6.8584778805
H         22.6697092240       23.3890390096        9.0604969724
H         21.3840442258       27.0575167246        7.1579407340
H         23.6757826547       27.2846904573        9.4416761481
H         22.0793774342       28.0220664445        9.0772316595
H         23.3794624739       27.7569453849       11.6921304837
H         20.6505068129       27.8511661029       13.0067081949
H         19.5558723303       30.4467763919       11.9854655095
H         17.9566656626       27.9849109262       12.8497721744
H         17.3067977741       29.4604752465       12.1670450994
H         20.2683136812       30.5979109193       14.3088818447
H         19.1894401619       29.3455176797       15.9114642252
H         18.1440234047       31.7555571314       13.3912013190
H         17.2086686970       30.5456783619       14.2416839755
H         18.3110913656       30.1682909217        9.7707310959
H         18.4003614285       26.1632193174       11.3846040006
H         18.5609220059       29.2458437143        7.4763560049
H         18.6455720853       25.2453951794        9.0902806053
H         19.3072156189       33.4379151260       16.5379212233
H         20.3103023511       32.1814765103       15.8331991234
H         18.7181618119       26.7829718225        7.1307806169
H         19.8681999769       33.1434228275       13.5483670001
H         18.2920652029       35.3117554827       15.0777090993
H         18.7045775971       35.3602601098       13.3511137458
H         17.5869398488       34.1290845826       13.9589600297
H         21.1935131683       35.2201905425       13.8522477111
H         20.8626782110       35.2039983652       15.5966440622
H         21.8377530674       33.9136329694       14.8611904285
H         15.7536416625       33.4975122343       16.8956925227
H         18.9963059935       32.0749450086       19.3760849073
H         15.4754191384       35.4578166102       18.3747378709
H         18.7145034387       34.0477678696       20.8627749556
H         16.1209116573       37.7583736699       21.2186705698
H         16.1645303549       37.5276861066       19.4558207387
H         14.9906661711       36.6201475412       20.4508636411
    79
VM2 Rank=2      G=205.529           E=113.653           -TS=91.876              
C         22.0733198105       23.9659501600        5.8251680926
C         22.4416226751       23.2769975527        6.9920468059
C         21.7065940868       25.3174130646        5.9017997495
C         22.4381891148       23.9422790220        8.2299862415
F         21.3503847779       25.9808070778        4.7825963543
C         21.7052529438       25.9840579140        7.1359719807
C         22.0655822199       25.2989195393        8.3129094214
N         22.0625390644       25.9706552708        9.5675632665
C         21.5775083496       25.4743843056       10.7628234654
C         22.6201970585       27.3094660187        9.7187612237
O         21.8047429465       26.4129180480       11.7240220657
O         21.0414045260       24.3959811105       10.9518320964
C         22.4106995076       27.6275017732       11.2115147366
C         21.5210715914       28.8651177891       11.4496906928
O         21.5822662099       29.8670805313       10.7564986001
N         20.6054036375       28.7467717078       12.4729085212
C         19.4016528875       29.5799271707       12.6008985589
C         18.1572303662       28.7889232964       12.1164394336
C         19.2743007267       30.1136832985       14.0554022854
C         18.3231273521       28.2079812984       10.7168003274
O         19.1263321706       29.0221623463       14.9695609652
C         18.0960832765       31.1127243159       14.2099792562
C         18.4394226155       26.8175296549       10.5329901804
C         18.3695559772       29.0578248157        9.5966307766
N         18.1457489253       31.9577590587       15.4344107155
C         18.5930530049       26.2820934217        9.2434048740
C         18.5268129799       28.5238862278        8.3067078157
C         19.3278083923       32.8491556166       15.5843766297
S         17.5212921138       31.2723125332       16.8700955334
C         18.6337957574       27.1352751318        8.1294763269
C         19.5971876568       33.7804541873       14.3740482506
C         17.2799951334       32.6980490963       17.9563550035
O         16.1751142062       30.8128642625       16.5076423922
O         18.5449279641       30.3514268726       17.3814791062
C         18.3938441717       34.7106404394       14.0978999776
C         20.8633442244       34.6249020143       14.6289633927
C         16.2744557916       33.6414961207       17.6701854373
C         18.1106499086       32.8885410729       19.0780212965
C         16.1011863302       34.7617363334       18.5001254908
C         17.9353494255       34.0097538055       19.9073559007
C         16.9271063720       34.9519488063       19.6194610218
O         16.7102714255       36.0712382662       20.3962426953
C         17.4915723237       36.3834096505       21.5659530417
H         22.0720093452       23.4574035913        4.8653024496
H         22.7290160753       22.2296729955        6.9379405867
H         22.7282174570       23.3986489993        9.1256972394
H         21.4127525645       27.0286218707        7.1703543746
H         23.6874453293       27.3107845434        9.4640137844
H         22.0845936742       28.0246270237        9.0814707501
H         23.3726283107       27.8075748265       11.7066717215
H         20.6354104943       27.8852509165       13.0048509256
H         19.5152694679       30.4544775940       11.9452718767
H         17.9410694955       27.9838373839       12.8302727866
H         17.2773588911       29.4428095400       12.1255789844
H         20.2114162802       30.6428922340       14.2708508712
H         19.1389938420       29.3962306026       15.8821866359
H         18.0786995889       31.7626499121       13.3270527420
H         17.1531086103       30.5509191234       14.1855050961
H         18.4141467755       26.1497820401       11.3901918639
H         18.2886311976       30.1335511952        9.7267540795
H         18.6837603125       25.2069100894        9.1088072411
H         18.5629580257       29.1861051970        7.4454039743
H         19.1993260996       33.4963552737       16.4609374480
H         20.2229915434       32.2436100167       15.7794122838
H         18.7504827508       26.7211752387        7.1310321378
H         19.7865516177       33.1716509795       13.4795254831
H         18.5979996451       35.3716453352       13.2459884774
H         17.4905996024       34.1347560359       13.8609593174
H         18.1730969679       35.3396189651       14.9699655375
H         21.0845767439       35.2678454074       13.7672906124
H         20.7407846677       35.2692755887       15.5092468200
H         21.7367770976       33.9817558987       14.7971974702
H         15.6324330401       33.5069235086       16.8025881105
H         18.8938922037       32.1689533477       19.3053556068
H         15.3249989392       35.4882036550       18.2758450316
H         18.5870370453       34.1363435245       20.7661651718
H         18.5498537534       36.5093356543       21.3029685302
H         17.1362422683       37.3187428877       22.0165632823
H         17.4032922745       35.5861195237       22.3152907942
    79
VM2 Rank=3      G=205.556           E=113.498           -TS=92.058              
C         22.7156281597       25.2729147280        5.7583894642
C         23.6999353508       25.2738944010        6.7599188151
C         21.5183471253       25.9750884123        5.9590739668
C         23.4805826183       25.9745328408        7.9582876267
F         20.5702315086       25.9732849159        4.9995742957
C         21.2985596277       26.6774064632        7.1532365218
C         22.2769632480       26.6773696035        8.1667734262
N         22.0562460431       27.3874672333        9.3801392281
C         22.3488349569       26.9445974425       10.6567094087
C         21.4908791308       28.7317263539        9.3842171898
O         22.0188475591       27.9407057258       11.5267430014
O         22.8160944201       25.8650868748       10.9765031249
C         21.5057330079       29.1289564886       10.8705032379
C         20.1154725697       29.5474441412       11.3866763729
O         19.4615004674       30.4337445753       10.8642503596
N         19.6253975356       28.8087848631       12.4416633689
C         18.1910184293       28.6797567744       12.7465927469
C         17.8201570431       27.1753837343       12.7569365361
C         17.8232890868       29.4074783932       14.0707370097
C         18.2535831161       26.4501944268       11.4874234201
O         16.4505894858       29.1727572503       14.3920259086
C         18.0726341335       30.9386574250       13.9728895818
C         19.2864056301       25.4951661253       11.5294005507
C         17.6337832665       26.7421652291       10.2585269271
N         18.1470094733       31.6472288543       15.2794707552
C         19.6890085491       24.8336149385       10.3573961144
C         18.0380798024       26.0836983989        9.0852227171
C         19.2238587964       31.2140290901       16.2111449073
S         16.6646038122       32.1175530294       15.9865689941
C         19.0634519132       25.1260267150        9.1354278987
C         20.6461657005       31.1762319265       15.5924646499
C         17.1517258923       33.3199888936       17.2466174973
O         15.9813837488       32.8879514765       14.9404962464
O         16.0717846199       30.9088855103       16.5742368971
C         21.0758916552       32.5674211916       15.0735778350
C         21.6635205269       30.6700231859       16.6363032233
C         17.6538802052       34.5792096778       16.8644586663
C         17.0578098348       32.9970000487       18.6142888449
C         18.0559449552       35.5083326131       17.8392462788
C         17.4596366590       33.9276069023       19.5872966675
C         17.9592328303       35.1836575086       19.2075045684
O         18.3397664674       36.0540389874       20.2079193863
C         18.8745310375       37.3669366298       19.9501657623
H         22.8778579906       24.7319040779        4.8305191546
H         24.6309818943       24.7329505830        6.6085005878
H         24.2517524883       25.9702153394        8.7245615545
H         20.3610189360       27.2072161383        7.2884699525
H         22.1090906921       29.4142342854        8.7874831770
H         20.4650248837       28.7179046991        8.9934696691
H         22.1900500626       29.9708240582       11.0323237179
H         20.2494799568       28.0896536714       12.7866267240
H         17.6133944379       29.1550391314       11.9411872193
H         18.2674530230       26.6994528189       13.6386140477
H         16.7345175628       27.0685207620       12.8762437961
H         18.4629417725       28.9855777035       14.8562666022
H         16.2795219912       29.5821683730       15.2735709593
H         19.0070747493       31.1131888087       13.4296239930
H         17.2868857849       31.3801327331       13.3455051780
H         19.7805610663       25.2653643043       12.4695624867
H         16.8387296380       27.4816455923       10.2134256407
H         20.4895507035       24.0988270737       10.3961585003
H         17.5550115379       26.3133891595        8.1388442633
H         19.2686722593       31.8922490729       17.0723854540
H         18.9820292542       30.2213024917       16.6137338999
H         19.3755588703       24.6139672796        8.2285919880
H         20.6612458854       30.4666456775       14.7542043715
H         20.3977068763       32.9278435456       14.2901017199
H         21.0776455174       33.3074368113       15.8841820860
H         22.0857740935       32.5302690339       14.6458019571
H         22.6701565904       30.6081627602       16.2031664924
H         21.7091417722       31.3404739379       17.5043500608
H         21.3930703234       29.6682099809       16.9940621554
H         17.7361117743       34.8337653458       15.8101562291
H         16.6768786770       32.0259630520       18.9222915422
H         18.4407317797       36.4721064780       17.5209987767
H         17.3863003803       33.6757629072       20.6417104037
H         19.1047753865       37.8714838768       20.8970413337
H         19.7995128416       37.3002466594       19.3628388609
H         18.1481007204       37.9806859926       19.4019112402
    79
VM2 Rank=4      G=205.597           E=113.527           -TS=92.070              
C         22.8112255771       25.0958778723        5.8936898903
C         23.7106800001       24.9831310265        6.9661585186
C         21.6794254897       25.9146187533        6.0181720602
C         23.4720405631       25.6873199766        8.1587449030
F         20.8125494881       26.0222889978        4.9903104420
C         21.4408480546       26.6205758394        7.2065705182
C         22.3334085520       26.5072589940        8.2905560449
N         22.0932185212       27.2207659192        9.4982163729
C         22.2407574996       26.7340654568       10.7837986953
C         21.6681925135       28.6157398488        9.4874004846
O         21.9477983123       27.7476692357       11.6468408235
O         22.5703099799       25.6083395271       11.1155797610
C         21.6084951085       28.9902578085       10.9784583953
C         20.2316229635       29.5409631807       11.3972227958
O         19.7115498005       30.4954087184       10.8452398463
N         19.5909415436       28.8427459382       12.3976203973
C         18.1319749635       28.8570464510       12.5932286061
C         17.6112333153       27.3985793552       12.5432287161
C         17.7413543243       29.5994372526       13.9025930299
C         18.0640326930       26.6508787404       11.2936924101
O         16.3320684703       29.5004349306       14.1186857116
C         18.1488428064       31.0988055696       13.8561691809
C         17.5710661168       27.0215849191       10.0291236560
C         18.9894579206       25.5950832349       11.3909450144
N         18.2030957893       31.7756389859       15.1804696419
C         17.9942944127       26.3417499603        8.8748347755
C         19.4106331779       24.9123631592       10.2377590584
C         19.1652402060       31.2218868469       16.1719691241
S         16.7289179931       32.3800285572       15.7972536737
C         18.9113926381       25.2839301452        8.9796924183
C         20.6153722091       31.0481377878       15.6483601311
C         17.2430594224       33.5033444058       17.1182312922
O         16.2002633289       33.2343750346       14.7271147580
O         15.9797271978       31.2264644242       16.3127016009
C         21.2174994275       32.3954473992       15.1884741258
C         21.5030497585       30.4260846467       16.7465094708
C         17.8855786197       34.7163357767       16.8036406894
C         17.0288001419       33.1619249612       18.4680396749
C         18.3059860784       35.5789503195       17.8297722402
C         17.4498359941       34.0265180491       19.4931421701
C         18.0914341364       35.2408388423       19.1754626023
O         18.5274457689       36.1268275889       20.1388637467
C         18.3732791219       35.8942755625       21.5524625315
H         22.9885951424       24.5528857779        4.9697561715
H         24.5909674599       24.3514546901        6.8740910855
H         24.1776374522       25.5941549288        8.9805421549
H         20.5542270971       27.2420388856        7.2817853525
H         22.3965358519       29.2388563798        8.9532327051
H         20.6794428008       28.7122202958        9.0201594481
H         22.3592579975       29.7561517583       11.2086284396
H         20.1116349995       28.0597474403       12.7736744831
H         17.6676978503       29.4005984026       11.7582328825
H         17.9400645179       26.8668474856       13.4449319583
H         16.5144514001       27.4018288841       12.5796399446
H         18.2755384632       29.1037822946       14.7230628692
H         16.1386659847       29.9100870357       14.9955148368
H         19.1312604634       31.1863570526       13.3808339430
H         17.4563674091       31.6274009962       13.1875979346
H         16.8601021590       27.8388045367        9.9416093243
H         19.3857735056       25.3030485509       12.3597350205
H         17.6094496193       26.6326499124        7.9006600961
H         20.1280369343       24.0993799115       10.3194589063
H         19.2194970509       31.8797767577       17.0482833044
H         18.7979681681       30.2533058315       16.5367025099
H         19.2378547595       24.7554485306        8.0874501489
H         20.6160295409       30.3526427236       14.7982763757
H         21.2387142709       33.1198288167       16.0128181226
H         22.2452375467       32.2615500657       14.8278392497
H         20.6340081864       32.8343570539       14.3695946615
H         21.5568026989       31.0760367859       17.6295501848
H         21.1092723005       29.4521074959       17.0644258507
H         22.5254710165       30.2680300405       16.3798691127
H         18.0618706477       34.9857710201       15.7647118699
H         16.5383890702       32.2251043889       18.7226091447
H         18.8022506755       36.5136088882       17.5834865789
H         17.2744391072       33.7429538656       20.5261467462
H         18.8971962353       34.9779888372       21.8539735132
H         18.7954759444       36.7334823649       22.1195938433
H         17.3119064005       35.8008979535       21.8165445068
    79
VM2 Rank=5      G=205.678           E=113.786           -TS=91.892              
C         21.9481486998       24.2808517432        5.5391744256
C         21.5904612748       25.6332988218        5.6597464123
C         22.3091249714       23.5521941402        6.6818235351
C         21.5943183402       26.2499246608        6.9224345712
F         22.6572364570       22.2539256887        6.5669815640
C         22.3127311047       24.1656642133        7.9435384561
C         21.9498699836       25.5204583973        8.0750521149
N         21.9542742196       26.1470272128        9.3532228501
C         21.4820466204       25.6062745521       10.5343519258
C         22.5100595286       27.4809511064        9.5482070925
O         21.7192026130       26.5081032775       11.5277605238
O         20.9477169362       24.5214170471       10.6882735573
C         22.3385635739       27.7331350966       11.0581768398
C         21.4830039573       28.9771071790       11.3739464696
O         21.5527875756       30.0091275267       10.7271895707
N         20.5849527088       28.8299008184       12.4089701094
C         19.3955479873       29.6736468297       12.5910067041
C         18.1318372641       28.9202808423       12.0962180750
C         19.2995342084       30.1505061245       14.0674924686
C         18.2718658618       28.3811902166       10.6770415672
O         19.1515879664       29.0254600319       14.9400747282
C         18.1377332894       31.1577680156       14.2813905015
C         18.3334679949       29.2653224458        9.5844434987
C         18.3514629664       26.9948981066       10.4478315723
N         18.2186386021       31.9520805299       15.5376884425
C         18.4706565984       28.7695268099        8.2771204127
C         18.4844011128       26.4977111032        9.1407985257
C         19.4148680970       32.8215011617       15.7034470980
S         17.6074180469       31.2181506498       16.9549689723
C         18.5417481528       27.3850928069        8.0547794184
C         19.6754316794       33.7988365979       14.5280078120
C         17.4039612852       32.6024531797       18.1008440341
O         16.2489997457       30.7927482855       16.5966699287
O         18.6252701022       30.2631716277       17.4125197340
C         18.4796718108       34.7543716592       14.3119351576
C         20.9566581645       34.6163878615       14.7949976622
C         18.2504752908       32.7326778817       19.2189191148
C         16.4123131335       33.5744570239       17.8649561640
C         18.1018172301       33.8234730212       20.0920143753
C         16.2657900843       34.6651738767       18.7390275205
C         17.1129162960       34.7925051036       19.8584361916
O         17.0170707774       35.8416306970       20.7491324891
C         16.0523576866       36.9036160279       20.6163878126
H         21.9478698999       23.7982090087        4.5660328791
H         21.3103392331       26.2029020437        4.7768841816
H         21.3103021566       27.2957149000        7.0000703336
H         22.6001423298       23.5838284945        8.8142682244
H         23.5698118266       27.5012191350        9.2646087554
H         21.9521851235       28.2191442103        8.9578936387
H         23.3151145355       27.8687270393       11.5386901475
H         20.6069328366       27.9435915588       12.8989057065
H         19.5110547022       30.5721574317       11.9689854382
H         17.9096543195       28.0964924398       12.7864571070
H         17.2639127778       29.5888178097       12.1368571337
H         20.2472370970       30.6584243143       14.2878045884
H         19.1839673941       29.3626631639       15.8664678982
H         18.1151516227       31.8429084878       13.4256258806
H         17.1868962574       30.6097047091       14.2499617713
H         18.2810938548       30.3380097196        9.7495928873
H         18.3144925633       26.3006100611       11.2832237637
H         18.5193385481       29.4581481955        7.4374232987
H         18.5471758536       25.4255246487        8.9710469755
H         19.3102373430       33.4332838392       16.6081639501
H         20.3051863113       32.1972360888       15.8573516395
H         18.6433797848       27.0002701929        7.0431635720
H         19.8413834023       33.2253667349       13.6059101313
H         17.5651013945       34.1999132038       14.0674447073
H         18.2821905478       35.3492562509       15.2130094548
H         18.6776907924       35.4476204290       13.4845566555
H         21.8244369062       33.9561446462       14.9209485992
H         21.1713010160       35.2917955761       13.9568145851
H         20.8577148375       35.2250987097       15.7031943469
H         19.0236280320       31.9917561619       19.4091078619
H         15.7590183377       33.4847840105       16.9999378886
H         18.7564185563       33.9216791545       20.9536690828
H         15.4953187367       35.4024281730       18.5364619090
H         16.1678625109       37.6211735825       21.4385342827
H         16.1947085435       37.4404521311       19.6695325503
H         15.0300607628       36.5051481139       20.6495811906
    79
VM2 Rank=6      G=205.691           E=113.198           -TS=92.493              
C         20.2073999496       23.8122480344        6.7115672427
C         20.7036813660       23.1886985948        7.8677397336
C         20.1113148496       25.2104919172        6.6622025812
C         21.0982047388       23.9665043829        8.9697697257
F         19.6332686947       25.8117435244        5.5533458095
C         20.5071428082       25.9888027854        7.7599997715
C         20.9985462990       25.3717119525        8.9271781518
N         21.3988739903       26.1576459217       10.0442566110
C         21.1253728157       25.8946145804       11.3733394954
C         22.1959164956       27.3677026629        9.8804843190
O         21.7266654968       26.8628345806       12.1198742120
O         20.4699977346       24.9707884262       11.8240388983
C         22.4039209233       27.8680572389       11.3225333388
C         21.8350833216       29.2814735324       11.5638131158
O         21.9096620499       30.1748536895       10.7364385371
N         21.1829728000       29.4585865096       12.7649057973
C         20.2131143836       30.5312019922       13.0253368093
C         18.7674581922       29.9735608215       12.9184013448
C         20.5218891693       31.2025428468       14.3933519328
C         18.5039116228       29.2263813998       11.6160872348
O         20.3909104871       30.2447979162       15.4483446694
C         19.6172054580       32.4360072233       14.6566302309
C         18.4561894475       29.9234214901       10.3950476289
C         18.3116982153       27.8322397659       11.6225382460
N         20.0178022494       33.2723836306       15.8236889204
C         18.2156334882       29.2353976281        9.1940314991
C         18.0671785632       27.1436230367       10.4228264518
C         21.3646384902       33.8962735726       15.7646829135
S         19.5178644607       32.8019314974       17.3913040503
C         18.0160354152       27.8457744630        9.2084291103
C         21.6491884788       34.7259379630       14.4849268232
C         17.8382025691       32.1674690908       17.1585556508
O         20.4363432690       31.7380154117       17.8181913201
O         19.3829221545       34.0641413053       18.1286203470
C         20.6330277394       35.8785124373       14.3166516604
C         23.0828318297       35.2950136910       14.5319401335
C         16.7741948820       33.0590818092       16.9201700442
C         17.5869445798       30.7811910643       17.1808839041
C         15.4756760609       32.5677360044       16.7047607021
C         16.2879346885       30.2915660120       16.9627889525
C         15.2258651151       31.1863358138       16.7225549982
O         13.9322042897       30.7630816685       16.4980725645
C         13.5531103668       29.3736221111       16.4566945162
H         19.8990596805       23.2170728135        5.8567831276
H         20.7825955735       22.1050191885        7.9104241946
H         21.4838657658       23.4717452070        9.8576900383
H         20.4188074325       27.0687677066        7.6992717215
H         23.1562927851       27.1330378831        9.4045379389
H         21.6529671787       28.1076685021        9.2786534303
H         23.4715992254       27.8907722873       11.5724432760
H         21.1824031622       28.6670163084       13.3969750427
H         20.3320733025       31.3016463667       12.2508381100
H         18.5712445032       29.3120257828       13.7718414182
H         18.0463830072       30.7946642947       13.0031552782
H         21.5640437475       31.5448842357       14.3439766245
H         20.7120340000       30.6691548259       16.2779459537
H         19.6262471607       33.0572996967       13.7531909156
H         18.5805071737       32.0989748002       14.7629074756
H         18.6108657168       30.9987726701       10.3767238212
H         18.3545971793       27.2798180898       12.5575616342
H         18.1811088116       29.7797565690        8.2537453702
H         17.9208654453       26.0662313251       10.4349098800
H         21.4848650510       34.5678015528       16.6262722158
H         22.1339332776       33.1193233213       15.8685741784
H         17.8244730244       27.3135531945        8.2799999881
H         21.5885866866       34.0708826824       13.6052936704
H         19.6082244045       35.4971460037       14.2279614728
H         20.6647830271       36.5602216117       15.1762638142
H         20.8490590875       36.4619100760       13.4125875421
H         23.3103550800       35.8583949884       13.6178108848
H         23.2141403376       35.9704347801       15.3873008339
H         23.8224579207       34.4886477221       14.6188556010
H         16.9566955070       34.1310372608       16.8951955376
H         18.3997042354       30.0810228471       17.3589160793
H         14.6581121912       33.2587091597       16.5185758601
H         16.1202759711       29.2193223828       16.9802736307
H         12.4777612855       29.2832722429       16.2577142658
H         14.0953130539       28.8477556505       15.6601161067
H         13.7669572003       28.8845723820       17.4158756080
    79
VM2 Rank=7      G=205.700           E=113.753           -TS=91.947              
C         22.8085766351       24.5459259661        6.2368773978
C         23.1233966024       23.8553754184        7.4184102245
C         22.2141040631       25.8140618995        6.3096090486
C         22.8393165911       24.4352665091        8.6666577060
F         21.9077483452       26.4777990906        5.1759545875
C         21.9324636193       26.3959527946        7.5544486245
C         22.2375958342       25.7071919413        8.7447772429
N         21.9502111719       26.2935263845       10.0090534965
C         21.3958717900       25.6561125074       11.1033893900
C         22.2524519364       27.6930122874       10.2864558501
O         21.3182635367       26.5646400717       12.1166935786
O         21.0321931359       24.4950395758       11.1779506104
C         21.8469875412       27.8683143083       11.7601126358
C         20.8282751313       29.0071475610       11.9593061880
O         21.0687151785       30.1620589900       11.6516410319
N         19.5940855021       28.6260369307       12.4390744947
C         18.3604280927       29.3901305125       12.1961001627
C         17.2762988869       28.4312515457       11.6456971537
C         17.8951046718       30.1565543236       13.4653904114
C         17.7480835335       27.6493476432       10.4248483690
O         16.7053479133       30.8967508839       13.1827321679
C         18.9887920916       31.1309523852       13.9797372229
C         17.9924273178       26.2663198476       10.5143883348
C         17.9589231205       28.3092900835        9.2003051421
N         18.5753096570       32.0306089094       15.0955799345
C         18.4353553729       25.5501115412        9.3900184557
C         18.4047465642       27.5944474761        8.0760676366
C         19.5699918829       33.0945730196       15.4103415380
S         17.8297998806       31.2547930240       16.4330147798
C         18.6398011895       26.2135157163        8.1701226055
C         19.9726819059       34.0083953374       14.2214631519
C         17.8246385258       32.4704838023       17.7758512249
O         16.4335520152       31.0729844294       16.0148088278
O         18.7010865419       30.1305284256       16.7951396700
C         18.7373416662       34.6596292480       13.5578637441
C         20.9435384547       35.1058049349       14.7070746130
C         16.8493070973       33.4868838777       17.8066001595
C         18.8057506290       32.4223094003       18.7858297621
C         16.8539562428       34.4445471350       18.8352190760
C         18.8082462303       33.3805559875       19.8133446633
C         17.8367040155       34.3935623180       19.8442649145
O         17.8918318744       35.3067074851       20.8768619242
C         16.9586980114       36.3954984704       21.0179222467
H         23.0235346835       24.1026748786        5.2687512002
H         23.5862340839       22.8727292376        7.3676386447
H         23.0902601706       23.8918579262        9.5742079587
H         21.4645076953       27.3747305864        7.5854175408
H         23.3220528240       27.8935392566       10.1455829947
H         21.6600914908       28.3506729367        9.6370126844
H         22.7281800001       28.0962863280       12.3722572704
H         19.5050537745       27.6414372406       12.6587821071
H         18.5614621109       30.1399702190       11.4177002961
H         16.9631400953       27.7434564159       12.4412448511
H         16.3820634098       29.0085730789       11.3783469864
H         17.6889863197       29.4106362940       14.2451719205
H         16.3675660363       31.2042486897       14.0569145569
H         19.8583844238       30.5414051296       14.2985975320
H         19.3031926473       31.7189724744       13.1111156735
H         17.8419356755       25.7442752021       11.4555237727
H         17.7779062838       29.3779385260        9.1211043670
H         18.6257518633       24.4823250950        9.4666103670
H         18.5657902190       28.1098769553        7.1325779870
H         19.1713957452       33.7670363421       16.1785048938
H         20.4762045707       32.6336605272       15.8270966545
H         18.9840665403       25.6590383889        7.3006192185
H         20.5094738393       33.4160313406       13.4681415290
H         18.0595158332       33.9003921926       13.1469210467
H         18.1717133496       35.2608910962       14.2810066169
H         19.0377621631       35.3158806516       12.7312630985
H         21.2678957705       35.7386397692       13.8709607941
H         20.4699782258       35.7527521320       15.4569683673
H         21.8414023859       34.6635855130       15.1577324921
H         16.0902241022       33.5363931402       17.0291546426
H         19.5671335627       31.6458132104       18.7729143920
H         16.0932136047       35.2188322063       18.8370618585
H         19.5669813053       33.3409100016       20.5901025812
H         17.2022376532       36.9859140752       21.9102532123
H         17.0024857661       37.0591432237       20.1446276911
H         15.9341828318       36.0165110354       21.1261351666
    79
VM2 Rank=8      G=205.701           E=114.302           -TS=91.399              
C         22.9467526910       24.3919368618        6.3276032107
C         23.1999658922       23.7120603250        7.5299476421
C         22.3781178580       25.6735316578        6.3595400452
C         22.8803979224       24.3160856714        8.7580067596
F         22.1309804545       26.3271608672        5.2057357607
C         22.0611416842       26.2794458576        7.5842631827
C         22.3043539866       25.6016968529        8.7950071325
N         21.9811614314       26.2125374053       10.0388952437
C         21.3717081410       25.6031039789       11.1197877282
C         22.3023332229       27.6093775442       10.3082026401
O         21.2754328606       26.5277207536       12.1167881460
O         20.9801209040       24.4512564738       11.1962236001
C         21.8462767096       27.8143355501       11.7631637246
C         20.8468181669       28.9780680384       11.9096063760
O         21.1197347915       30.1207910137       11.5840488139
N         19.5925360048       28.6330928326       12.3635458654
C         18.3823558619       29.4176406494       12.0725828612
C         17.3006453550       28.4746229967       11.4907329497
C         17.8889444257       30.2005019305       13.3206786301
C         17.8004257274       27.6739290455       10.2933788456
O         16.7139319559       30.9501196138       13.0005849477
C         18.9774379050       31.1666689710       13.8600719997
C         18.0715289620       28.3203045946        9.0734585466
C         18.0101085456       26.2864754083       10.4006134974
N         18.5235628650       32.0706398686       14.9480097381
C         18.5428117266       27.5877845545        7.9711973051
C         18.4783573459       25.5526224938        9.2980901714
C         19.4385485415       33.2152554573       15.1713126482
S         17.7070028616       31.3587166450       16.2787222685
C         18.7429324652       26.2026445998        8.0825594950
C         18.7106932283       34.5789410299       15.0777168813
C         17.7951999248       32.5426879221       17.6497267895
O         16.3091754384       31.2581092362       15.8396654988
O         18.5106951217       30.1856791600       16.6421010957
C         19.6429967637       35.7176269452       15.5399365730
C         18.2099336358       34.8475697579       13.6411080185
C         18.9119126162       32.5543098808       18.5097768445
C         16.7371482475       33.4439752870       17.8828316633
C         18.9841390961       33.4740666473       19.5698467348
C         16.8110407501       34.3626387722       18.9431634392
C         17.9321071853       34.3860864125       19.7875011662
O         17.9490877316       35.3125804926       20.8094268131
C         19.0474429945       35.4495999432       21.7318387058
H         23.1894041325       23.9300912864        5.3748345805
H         23.6425955967       22.7190311492        7.5108751708
H         23.0838067995       23.7806834370        9.6820632479
H         21.6142348893       27.2684988265        7.5833849667
H         23.3803812514       27.7859407066       10.2045822314
H         21.7482917765       28.2694352477        9.6280918563
H         22.7090386186       28.0310881662       12.4049132056
H         19.4767713529       27.6554744652       12.6012557028
H         18.6234411089       30.1587836461       11.2972891756
H         16.9464107025       27.7993969006       12.2797818632
H         16.4275962077       29.0663231276       11.1872630406
H         17.6527167006       29.4645110346       14.1013955090
H         16.3659247075       31.2896159082       13.8585280146
H         19.8304114015       30.5735768934       14.2153072756
H         19.3332395585       31.7653595585       13.0108988633
H         17.9176153114       29.3921141927        8.9808250367
H         17.8129816454       25.7746030586       11.3387190575
H         18.7504294474       28.0928206695        7.0311946300
H         18.6416369646       24.4814234248        9.3884181362
H         19.9432545184       33.1206461802       16.1403294327
H         20.2382674466       33.2174024482       14.4179085630
H         19.1066795862       25.6344715158        7.2299952003
H         17.8379723154       34.5735131847       15.7405433434
H         19.9673528627       35.5608076593       16.5769643425
H         20.5382557612       35.7790160031       14.9077544502
H         19.1288755310       36.6863077637       15.4953001863
H         17.5074290674       34.0689821761       13.3161042842
H         17.6882275009       35.8111903045       13.5821474530
H         19.0441433733       34.8686278877       12.9283196335
H         19.7281376714       31.8530684211       18.3516094825
H         15.8622964718       33.4392749023       17.2367239449
H         19.8582076813       33.4681676864       20.2134211306
H         15.9965901286       35.0614274596       19.1131126455
H         18.8371053936       36.2521714215       22.4500159200
H         19.2011718381       34.5186634478       22.2927927371
H         19.9730336821       35.7005194486       21.1976943211
    79
VM2 Rank=9      G=205.708           E=113.558           -TS=92.150              
C         22.2456564454       25.4142727781        5.4859962896
C         21.0130312963       26.0148676954        5.7884474195
C         23.3114935862       25.5192650637        6.3914755650
C         20.8521564075       26.7164526606        6.9952822861
F         24.4976325251       24.9464465432        6.1002209539
C         23.1526868409       26.2183530029        7.5974331603
C         21.9180306817       26.8191997501        7.9120804834
N         21.7523842240       27.5315638701        9.1332903152
C         22.2152468731       27.1481902985       10.3784938998
C         21.0631533513       28.8159984378        9.1790503567
O         21.8829204817       28.1292509028       11.2646040586
O         22.8138337367       26.1249196244       10.6623675300
C         21.2051697369       29.2538920533       10.6470360404
C         19.8498736761       29.5756226747       11.3057012150
O         19.0707217118       30.3890593222       10.8394257618
N         19.5413820672       28.8334477000       12.4249661295
C         18.1635118587       28.5902039354       12.8826558238
C         17.9292006422       27.0604200075       12.9587954507
C         17.8725718255       29.3195816614       14.2247214371
C         18.3010712577       26.3397683526       11.6672773551
O         16.5670477341       28.9760697094       14.6939946044
C         17.9736094549       30.8632099254       14.0724120927
C         17.5538693382       26.5562018042       10.4948776735
C         19.4042620964       25.4667509292       11.6308331766
N         18.1200347205       31.6117521091       15.3503075217
C         17.9030100849       25.9050421734        9.3000177065
C         19.7517186996       24.8120040950       10.4375931705
C         19.3219541267       31.2992601841       16.1706695101
S         16.6831826796       31.9718352564       16.2014890246
C         19.0004899106       25.0299132701        9.2722115190
C         20.6700667149       31.3677938709       15.4058166142
C         17.1897410976       33.2465831249       17.3801709697
O         15.8293055046       32.6508133987       15.2194197247
O         16.2643040725       30.7333679814       16.8711213994
C         20.9179767464       32.7761680007       14.8190120708
C         21.8312466907       30.9806168531       16.3452952826
C         17.5355847452       34.5333287048       16.9235281762
C         17.2674186009       32.9550032457       18.7558949557
C         17.9524582368       35.5205927787       17.8327398669
C         17.6837402719       33.9436743232       19.6633323643
C         18.0275277252       35.2271210959       19.2093794665
O         18.4308871337       36.1547576258       20.1474580832
C         18.8168343880       37.5013632053       19.8101034946
H         22.3770128433       24.8709100350        4.5546316631
H         20.1834202366       25.9363827655        5.0899289218
H         19.8902453710       27.1695461442        7.2185951076
H         23.9927809838       26.2910501681        8.2816919588
H         21.5403603585       29.5374520172        8.5038685374
H         20.0061781307       28.6930631167        8.9089193580
H         21.8322155637       30.1512487582       10.7162280143
H         20.2579724703       28.1786259577       12.7137762853
H         17.4656994900       28.9923810409       12.1346576659
H         18.4996943132       26.6497901247       13.8013249374
H         16.8737473669       26.8644269345       13.1865644303
H         18.6254537136       28.9763731591       14.9455483644
H         16.4528128839       29.3935748453       15.5809274601
H         18.8273924707       31.1023212014       13.4299449454
H         17.0908936174       31.2175653314       13.5236376356
H         16.7030887871       27.2321416101       10.5100384033
H         19.9962581348       25.2962390608       12.5260146782
H         17.3218942743       26.0767823918        8.3975434884
H         20.6073014187       24.1413820423       10.4152864987
H         19.3953184417       32.0022887588       17.0097695768
H         19.2125347646       30.3007989960       16.6147007434
H         19.2712770578       24.5244004238        8.3485874982
H         20.6612144650       30.6393545196       14.5837863993
H         20.9377884801       33.5356244547       15.6111851563
H         21.8773359803       32.8149411676       14.2876359424
H         20.1328095410       33.0546591797       14.1051268467
H         21.9067675746       31.6761607503       17.1912299608
H         21.6896908198       29.9693728678       16.7479273302
H         22.7890032111       30.9943193061       15.8093256195
H         17.4849738601       34.7644977544       15.8618716081
H         17.0083687371       31.9636521926       19.1205908732
H         18.2149146350       36.5047571829       17.4575898376
H         17.7429351093       33.7159817106       20.7241071147
H         19.0982424247       38.0501921704       20.7177111284
H         19.6780822009       37.4987457717       19.1294887235
H         17.9856092930       38.0342945966       19.3304984305
    79
VM2 Rank=10     G=205.710           E=114.312           -TS=91.398              
C         22.8707252995       24.3922249315        6.2638273297
C         23.1217090016       23.6945243912        7.4563897400
C         22.3221506466       25.6819269258        6.3146408235
C         22.8199661215       24.2889671909        8.6936008833
F         22.0771500303       26.3527192013        5.1702693490
C         22.0230089685       26.2782574791        7.5485175601
C         22.2640792975       25.5827383714        8.7495760742
N         21.9588510382       26.1838502336       10.0027090193
C         21.3473361065       25.5712712807       11.0806578232
C         22.3033444581       27.5723524765       10.2859368764
O         21.2717968012       26.4856390071       12.0888420317
O         20.9387313208       24.4246941069       11.1465363343
C         21.8598473528       27.7674458296       11.7461275985
C         20.8791700281       28.9444279590       11.9123210973
O         21.1674278180       30.0865224013       11.5979707448
N         19.6226069873       28.6133703680       12.3703319871
C         18.4227282785       29.4192119799       12.0952907330
C         17.3230522113       28.4988848216       11.5107870142
C         17.9490142922       30.1966928338       13.3543514454
C         17.8027020355       27.7035630574       10.3016847637
O         16.7843243528       30.9681138883       13.0487014256
C         19.0557332930       31.1398188637       13.8973712920
C         18.0758183601       28.3588020005        9.0869518970
C         17.9915139312       26.3119607267       10.3926707065
N         18.6225551972       32.0400958240       14.9967503978
C         18.5284632285       27.6310315880        7.9737883237
C         18.4410886613       25.5829052954        9.2792453020
C         19.5571107697       33.1675519311       15.2261423856
S         17.8019242601       31.3289941029       16.3253157123
C         18.7077894756       26.2418451909        8.0689932064
C         18.8521912544       34.5436985490       15.1399995344
C         17.9108154722       32.5027612229       17.7035782594
O         16.4010173180       31.2512498248       15.8914374932
O         18.5907067697       30.1422863031       16.6767561816
C         19.8026082613       35.6639988671       15.6101662766
C         18.3574765719       34.8293394833       13.7045816956
C         19.0266159692       32.4883504274       18.5643449665
C         16.8697012521       33.4228442570       17.9409556616
C         19.1114329695       33.4017714553       19.6283018852
C         16.9564583580       34.3361164555       19.0056045218
C         18.0829488494       34.3303662974       19.8523088316
O         18.2239630858       35.2043770772       20.9102401423
C         17.2503442449       36.2164355221       21.2324246727
H         23.0996445819       23.9378906226        5.3040747460
H         23.5488273736       22.6951127742        7.4226728793
H         23.0214458045       23.7397300186        9.6099279053
H         21.5913835179       27.2739785274        7.5622582626
H         23.3833176200       27.7334393675       10.1772710372
H         21.7552869321       28.2487386784        9.6171174381
H         22.7299098354       27.9637635232       12.3845894707
H         19.4934512649       27.6349707339       12.5977062023
H         18.6702594547       30.1645542464       11.3260787686
H         16.9637841490       27.8207174935       12.2950239605
H         16.4571068304       29.1068929724       11.2194404798
H         17.7055343974       29.4565240571       14.1288738795
H         16.4460554354       31.3032592325       13.9122483010
H         19.9009207965       30.5295415347       14.2419482786
H         19.4166249502       31.7412493708       13.0522880241
H         17.9379085950       29.4337915138        9.0068023311
H         17.7925727397       25.7930894408       11.3265384793
H         18.7377361844       28.1429151817        7.0378651855
H         18.5883003441       24.5083972727        9.3570138234
H         20.0598239477       33.0593498816       16.1947974942
H         20.3570275487       33.1599808406       14.4729747189
H         19.0571220334       25.6773607575        7.2079925112
H         17.9787644363       34.5484864853       15.8019067557
H         20.1231306071       35.4955285465       16.6465772239
H         20.6995194251       35.7143730956       14.9793559548
H         19.3046616183       36.6413138953       15.5708420434
H         17.6424759069       34.0645187234       13.3741779006
H         17.8519013934       35.8018273544       13.6509898673
H         19.1926758007       34.8408753928       12.9927367234
H         19.8306182395       31.7736327875       18.4041088122
H         15.9961938161       33.4369608043       17.2931220626
H         19.9776580778       33.3918418831       20.2841189317
H         16.1456066115       35.0405171952       19.1622369518
H         17.5808733402       36.7909857153       22.1069429626
H         17.1221484045       36.9119563116       20.3928891185
H         16.2802040950       35.7601733719       21.4682076103
    79
VM2 Rank=11     G=205.717           E=113.221           -TS=92.497              
C         20.1559291690       23.9411593484        6.5319613648
C         20.5999576414       23.2594195073        7.6764837833
C         20.1129608845       25.3429160034        6.5302577391
C         20.9956064585       23.9829286203        8.8145070146
F         19.6850949426       26.0000384883        5.4326627032
C         20.5100640265       26.0670288977        7.6640885962
C         20.9492320772       25.3915206651        8.8196695444
N         21.3506182183       26.1223775807        9.9731162333
C         21.0331580344       25.8248659233       11.2850223622
C         22.1974467500       27.3051012970        9.8714994246
O         21.6513191085       26.7429364858       12.0796049946
O         20.3318305502       24.9122615426       11.6867586978
C         22.3860605778       27.7481144093       11.3348210099
C         21.8638038831       29.1731362529       11.6107202207
O         21.9936182314       30.0905288743       10.8171341107
N         21.1868302118       29.3342341993       12.8002656799
C         20.2512138573       30.4338852157       13.0730130614
C         18.7890806808       29.9351087021       12.9144614159
C         20.5513925560       31.0506009177       14.4682691735
C         18.5298989022       29.2433105927       11.5810154597
O         20.3587105990       30.0672828791       15.4897276757
C         19.6866596985       32.3084290664       14.7494959037
C         18.5367577213       29.9831446031       10.3844755098
C         18.2878348113       27.8577380298       11.5339484371
N         20.1032306913       33.1043505056       15.9390034387
C         18.3008930891       29.3460417655        9.1547736854
C         18.0480133560       27.2201314354       10.3054321606
C         21.4708751235       33.6835805464       15.9070717876
S         19.5728681521       32.6135729962       17.4901065706
C         18.0514810797       27.9649693139        9.1156431726
C         21.7977439671       34.5289451641       14.6478454670
C         17.8685168802       32.0610865065       17.2305151665
O         20.4414267101       31.5001043595       17.8945351863
O         19.4870797963       33.8601662089       18.2606323546
C         20.8231807572       35.7187041473       14.4927818974
C         23.2492070352       35.0477603079       14.7218159746
C         17.5543449451       30.6878181567       17.2230638187
C         16.8478392748       33.0052108170       17.0037335419
C         16.2346220513       30.2669212195       16.9891294505
C         15.5278673781       32.5821892442       16.7712873945
C         15.2173381035       31.2073692817       16.7623473112
O         13.9416384138       30.7335085268       16.5360953699
C         12.8147536039       31.5935013947       16.2782061351
H         19.8470058139       23.3881763164        5.6494995664
H         20.6375630770       22.1726992139        7.6823331178
H         21.3404911047       23.4433926468        9.6930770699
H         20.4633176777       27.1510299133        7.6399355985
H         23.1604516144       27.0490349838        9.4121896636
H         21.6995360955       28.0855748052        9.2820276109
H         23.4469366898       27.7219282201       11.6118875948
H         21.1398688970       28.5223064674       13.4041304436
H         20.4172408583       31.2231640967       12.3266536926
H         18.5485251653       29.2526605599       13.7396456242
H         18.0969981976       30.7794650963       13.0118717759
H         21.6065086462       31.3541353276       14.4532921280
H         20.6818207695       30.4519297210       16.3378011731
H         19.7266375004       32.9490236600       13.8605024884
H         18.6379953170       32.0043470322       14.8379072685
H         18.7302407924       31.0521024126       10.4075447799
H         18.2882678241       27.2723343579       12.4496984472
H         18.3086540773       29.9232680369        8.2336826707
H         17.8630140999       26.1490309435       10.2762306341
H         21.6039624960       34.3330861926       16.7835112541
H         22.2125059660       32.8792253309       16.0031571710
H         17.8636225046       27.4723026230        8.1648895644
H         21.7250181979       33.8943687339       13.7542220028
H         21.0689639474       36.3126036553       13.6032707676
H         19.7870751430       35.3744719712       14.3855354738
H         20.8684760138       36.3813613742       15.3665677158
H         23.5059528454       35.6215889322       13.8220385944
H         23.3936639044       35.7007241011       15.5923604133
H         23.9600877556       34.2150534059       14.7997624998
H         18.3320529052       29.9465339192       17.3909351092
H         17.0810647009       34.0676098847       17.0021073451
H         15.9973463134       29.2066951958       16.9805581660
H         14.7587891962       33.3281735939       16.5974327134
H         12.9835017557       32.1927675567       15.3741200752
H         11.9096570628       30.9917221398       16.1272145529
H         12.6405165248       32.2689141632       17.1257958028
    79
VM2 Rank=12     G=205.728           E=113.766           -TS=91.963              
C         22.8671931308       24.5467551146        6.2841698981
C         23.1808202251       23.8698283933        7.4738751889
C         22.2588422820       25.8090795095        6.3416379153
C         22.8816973831       24.4574356338        8.7149803675
F         21.9536056685       26.4596933336        5.2001022194
C         21.9621581960       26.3986811083        7.5793342057
C         22.2660247872       25.7235214246        8.7777508164
N         21.9633891715       26.3176665567       10.0348013822
C         21.4078915854       25.6838889588       11.1306604080
C         22.2488943983       27.7226117066       10.3021639758
O         21.3133360748       26.6002725703       12.1354149729
O         21.0559897295       24.5196996750       11.2127543676
C         21.8305910192       27.9064325033       11.7711890210
C         20.7981483207       29.0358148878       11.9527443010
O         21.0283895876       30.1905310698       11.6366609931
N         19.5645899157       28.6455306746       12.4267290544
C         18.3246072053       29.3940731733       12.1680513678
C         17.2548980137       28.4186919708       11.6184341367
C         17.8418506644       30.1666472120       13.4270666107
C         17.7439579541       27.6312530166       10.4079852097
O         16.6461472205       30.8912251144       13.1293610391
C         18.9211794535       31.1575260045       13.9403024635
C         17.9564582817       28.2826353662        9.1791534861
C         18.0024822618       26.2517844422       10.5115170153
N         18.4896852953       32.0624177578       15.0450216479
C         18.4180438883       27.5628035002        8.0645017660
C         18.4611920710       25.5305554925        9.3967246236
C         19.4696706679       33.1405317905       15.3576903700
S         17.7424992072       31.2901966489       16.3836129897
C         18.6672394535       26.1853728326        8.1724667282
C         19.8739012883       34.0463256325       14.1632033563
C         17.7200616533       32.5149910238       17.7180448028
O         16.3505283012       31.0930089022       15.9581803202
O         18.6214987475       30.1763474170       16.7590595154
C         18.6381217341       34.6777337641       13.4815039452
C         20.8286497114       35.1588072554       14.6464651810
C         18.7005536027       32.4862896017       18.7297497680
C         16.7318365109       33.5187110865       17.7407768125
C         18.6929135537       33.4500030255       19.7527982875
C         16.7262028513       34.4810346513       18.7643597612
C         17.7027455917       34.4529309315       19.7725646837
O         17.6468916542       35.4250291164       20.7498329893
C         18.5926216862       35.5096301490       21.8336020352
H         23.0937488790       24.0974621747        5.3214881987
H         23.6543575069       22.8917502981        7.4349453703
H         23.1318562292       23.9245881795        9.6289859947
H         21.4836588596       27.3726526561        7.5984564754
H         23.3173736743       27.9331207822       10.1674758050
H         21.6546102825       28.3683658490        9.6426112473
H         22.7046667825       28.1493693261       12.3877639083
H         19.4845444426       27.6619913998       12.6544916572
H         18.5232622112       30.1391091109       11.3844463086
H         16.9433986454       27.7345698664       12.4177900888
H         16.3564576263       28.9839052146       11.3395593748
H         17.6382639356       29.4254952963       14.2120405251
H         16.2990862237       31.2036019426       13.9981634690
H         19.7948457349       30.5804583574       14.2706443858
H         19.2353483420       31.7411855961       13.0686610365
H         17.7645097898       29.3485207567        9.0891850593
H         17.8508263865       25.7364352953       11.4561489651
H         18.5803360750       28.0716308327        7.1176486583
H         18.6625277367       24.4656110174        9.4841425748
H         19.0561966291       33.8165043570       16.1148812447
H         20.3768467773       32.6940069319       15.7877950190
H         19.0238155806       25.6270518545        7.3104163418
H         20.4239254361       33.4519634205       13.4210738538
H         17.9719798193       33.9072988895       13.0723145539
H         18.0596168086       35.2805155761       14.1931095522
H         18.9394185688       35.3285111257       12.6509042673
H         21.7268205248       34.7307163207       15.1099666792
H         21.1542026564       35.7864623467       13.8069185671
H         20.3413294065       35.8083528380       15.3852168025
H         19.4711353904       31.7188209994       18.7215010154
H         15.9724122865       33.5547256229       16.9629640516
H         19.4588236581       33.4084090249       20.5208712822
H         15.9630959093       35.2543792690       18.7776008145
H         18.5671316820       34.5966895122       22.4425867128
H         19.6108163803       35.6529879820       21.4492715068
H         18.3470993585       36.3609526499       22.4810013928
    79
VM2 Rank=13     G=205.739           E=113.835           -TS=91.904              
C         22.0174878266       24.2357910477        5.5926744531
C         21.6423305652       25.5851410832        5.6931503125
C         22.3817144109       23.5272070795        6.7468551923
C         21.6320456671       26.2187380008        6.9473705914
F         22.7466125071       22.2319873744        6.6513320576
C         22.3712063754       24.1576280927        8.0001460039
C         21.9907630075       25.5094070334        8.1115210952
N         21.9807296216       26.1531376282        9.3811187178
C         21.5098028350       25.6221836853       10.5672089188
C         22.5180452713       27.4967683041        9.5606973293
O         21.7304145366       26.5402667940       11.5494714013
O         20.9888158786       24.5326354355       10.7332521627
C         22.3358789765       27.7669561956       11.0663008484
C         21.4624469128       29.0036010525       11.3612649403
O         21.5216808085       30.0276760878       10.7009706022
N         20.5614633137       28.8583844298       12.3940215667
C         19.3600675621       29.6885045108       12.5591557423
C         18.1090946413       28.9122797089       12.0672760366
C         19.2497002368       30.1822208763       14.0291066339
C         18.2637339671       28.3572311263       10.6557929180
O         19.1124855830       29.0660490206       14.9147479152
C         18.0731388366       31.1760454290       14.2244730997
C         18.3192471456       29.2282304042        9.5523760645
C         18.3628021438       26.9693320561       10.4446061100
N         18.1356926005       31.9860550282       15.4717870854
C         18.4696360027       28.7178205822        8.2521480868
C         18.5089647205       26.4574785829        9.1446670432
C         19.3193411886       32.8730660123       15.6345541158
S         17.5260827010       31.2603006558       16.8939839730
C         18.5601127179       27.3317521393        8.0477609546
C         19.5756098504       33.8388344134       14.4486448279
C         17.2956879399       32.6548462894       18.0222833015
O         16.1763271234       30.8106286717       16.5325737809
O         18.5550165219       30.3258807976       17.3688718057
C         18.3693241019       34.7761569981       14.2123320232
C         20.8444103586       34.6760506313       14.7140419366
C         16.2875201027       33.6058519194       17.7727292882
C         18.1373285163       32.8137183577       19.1406798256
C         16.1225477482       34.7021880527       18.6356293619
C         17.9703068986       33.9110303953       20.0030303547
C         16.9594082583       34.8608255618       19.7517571279
O         16.7503199607       35.9576780505       20.5619516870
C         17.5426540574       36.2364344039       21.7326827066
H         22.0281976947       23.7401030569        4.6261719857
H         21.3596212337       26.1392266648        4.8012841525
H         21.3346033042       27.2618313632        7.0094022386
H         22.6614165987       23.5912194880        8.8800698692
H         23.5788147722       27.5271686851        9.2818418864
H         21.9534382474       28.2195643689        8.9578639023
H         23.3081990065       27.9219191621       11.5495275273
H         20.5928381552       27.9791173060       12.8959924431
H         19.4670980834       30.5806739504       11.9265756163
H         17.8940472533       28.0943818021       12.7667188891
H         17.2322206147       29.5697068554       12.0948938708
H         20.1891860158       30.7057721621       14.2480445351
H         19.1351042186       29.4150088997       15.8370662785
H         18.0464182826       31.8507619830       13.3605806146
H         17.1300027701       30.6147971182       14.1939486361
H         18.2518478138       30.3021272834        9.7036290386
H         18.3306923965       26.2852225065       11.2885539881
H         18.5134935478       29.3963616102        7.4040215777
H         18.5867385177       25.3841601499        8.9888544132
H         19.2003734299       33.4947582442       16.5307037085
H         20.2165531803       32.2623984845       15.8024052275
H         18.6719402484       26.9355610660        7.0416244312
H         19.7553177568       33.2560325227       13.5350154436
H         18.1579591050       35.3797176666       15.1044537559
H         18.5642640738       35.4614646105       13.3776391239
H         17.4636049388       34.2070058834       13.9686609696
H         21.7196281108       34.0286375287       14.8543090821
H         21.0563078051       35.3435528961       13.8688558923
H         20.7313297186       35.2948345856       15.6137403054
H         15.6369976875       33.4957232461       16.9080206380
H         18.9226578677       32.0881048050       19.3399266111
H         15.3442921551       35.4345833759       18.4395767337
H         18.6303933702       34.0134045638       20.8586476266
H         18.5984670390       36.3697121599       21.4634758604
H         17.1918767791       37.1586068429       22.2130067900
H         17.4611334312       35.4181749623       22.4598539771
    79
VM2 Rank=14     G=205.747           E=113.219           -TS=92.527              
C         21.4848170284       26.6412364704        5.5044943089
C         22.4464730487       26.0051124036        6.3060549154
C         20.6137115094       27.5800579667        6.0759797199
C         22.5300342711       26.3088330850        7.6756788894
F         19.6872364449       28.1902341025        5.3085855080
C         20.6973088452       27.8868065081        7.4421704142
C         21.6535494289       27.2477381037        8.2556277408
N         21.7393529250       27.5552461703        9.6424306757
C         21.9082913898       26.6524237874       10.6757724723
C         21.6759160143       28.9305975971       10.1231900144
O         21.9755386508       27.3610455312       11.8383181850
O         21.9852491953       25.4386916978       10.5929458486
C         21.8853084820       28.7959398558       11.6413307300
C         20.7496351222       29.4454044068       12.4552619033
O         20.4496089905       30.6212623193       12.3391201646
N         20.0433056282       28.5943195214       13.2771981710
C         18.6584469528       28.8477531239       13.7062918404
C         17.7923677476       27.6160599049       13.3419330823
C         18.5826049825       29.2189359985       15.2143349504
C         17.9172628918       27.2199772496       11.8747966692
O         17.2178078591       29.3890289383       15.6010961540
C         19.3745763782       30.5195322393       15.5234080846
C         17.3982788013       28.0562720223       10.8693905086
C         18.5648086443       26.0244609221       11.5116171745
N         19.5821856716       30.8011540831       16.9721439650
C         17.5208546006       27.6998501339        9.5160310888
C         18.6848533348       25.6654800724       10.1588184379
C         20.3445022114       29.7843477845       17.7419902275
S         18.3410306016       31.5836340743       17.8501696714
C         18.1611141930       26.5019616841        9.1608007429
C         21.7083737864       29.3757302516       17.1238868575
C         17.7100303317       32.8422801361       16.7129581307
O         17.3261433079       30.5619020279       18.1400286684
O         19.0449016435       32.3107378466       18.9137068144
C         22.6533225322       30.5899299495       16.9751844933
C         22.3803795206       28.2932469451       17.9943838546
C         16.4659308728       32.6708032033       16.0748420432
C         18.4739240835       33.9943370788       16.4414383449
C         15.9942548064       33.6420183255       15.1759130666
C         18.0001075415       34.9650008298       15.5422287614
C         16.7552152614       34.7902268521       14.9047683808
O         16.2406708309       35.7072849451       14.0117315063
C         16.9287136358       36.9171038502       13.6389468189
H         21.4134696786       26.4097512232        4.4455912848
H         23.1257722624       25.2780383872        5.8675278014
H         23.2808910487       25.8118400549        8.2848631316
H         20.0072338510       28.6110109780        7.8632054516
H         22.4687210890       29.5375808401        9.6680709290
H         20.6945365842       29.3699503062        9.9015481867
H         22.8263679865       29.2745512406       11.9389102128
H         20.3740391011       27.6371845768       13.2876982920
H         18.2654045630       29.7040275208       13.1399526614
H         18.0703129196       26.7745645195       13.9888920201
H         16.7397299047       27.8316335173       13.5650351636
H         19.0253189671       28.3868544800       15.7770878225
H         17.1995389950       29.5169583872       16.5788068950
H         20.3565600718       30.4500568262       15.0439266030
H         18.8766360605       31.3575515678       15.0214841010
H         16.9004932093       28.9841569447       11.1381852893
H         18.9780686702       25.3724253621       12.2764427611
H         17.1175591262       28.3500518332        8.7438042791
H         19.1890498563       24.7419628879        9.8846410768
H         20.5418171149       30.1734696314       18.7505666807
H         19.7266443448       28.8857802621       17.8723608056
H         18.2551021192       26.2241230095        8.1139272763
H         21.5413668478       28.9356575639       16.1312689236
H         22.8503836418       31.0570908764       17.9485879287
H         23.6153331954       30.2864164394       16.5431342730
H         22.2208921604       31.3538688697       16.3171832363
H         22.5866414523       28.6682298459       19.0052652451
H         21.7380202657       27.4078080339       18.0846432743
H         23.3318063452       27.9706683619       17.5522430918
H         15.8675586900       31.7839295129       16.2698534248
H         19.4381015679       34.1333089542       16.9253040001
H         15.0353835059       33.5048330132       14.6837585037
H         18.6071184917       35.8436082704       15.3478800992
H         17.8958282056       36.6853857083       13.1741996109
H         16.3277229042       37.4838559716       12.9166280125
H         17.0990093248       37.5527442817       14.5175335362
    79
VM2 Rank=15     G=205.766           E=113.603           -TS=92.163              
C         22.2795370129       25.3081292932        5.5382354115
C         21.0546808176       25.9365371611        5.8146193478
C         23.3332499005       25.4025201813        6.4589451134
C         20.8893817638       26.6551964922        7.0107611928
F         24.5120229331       24.8029465391        6.1927090302
C         23.1699812645       26.1186311215        7.6542707131
C         21.9429097313       26.7474630165        7.9428170712
N         21.7728398763       27.4771608418        9.1531324261
C         22.2087988960       27.0992333908       10.4096590078
C         21.1088713096       28.7754789133        9.1735642888
O         21.8827046351       28.0970006374       11.2792752919
O         22.7823183272       26.0676498999       10.7144253246
C         21.2371342989       29.2275786134       10.6385058609
C         19.8786286441       29.5837814976       11.2723476753
O         19.1230482913       30.4068839387       10.7847338798
N         19.5383899235       28.8611388990       12.3951864910
C         18.1491563546       28.6507332811       12.8344250111
C         17.8830032661       27.1268989896       12.9241284047
C         17.8528083784       29.4012042284       14.1636237888
C         18.2599431607       26.3840731561       11.6467164281
O         16.5339155794       29.0888774994       14.6170170169
C         17.9866411035       30.9406995744       13.9954337856
C         17.5352949605       26.6018801189       10.4604947778
C         19.3457021718       25.4887739941       11.6372182202
N         18.1306116071       31.7008803747       15.2667470980
C         17.8894595283       25.9301161749        9.2785891305
C         19.6980804108       24.8134720982       10.4569478642
C         19.3148672830       31.3741437553       16.1070378210
S         16.6896278841       32.0982140060       16.0941044775
C         18.9693286363       25.0329160047        9.2776654462
C         20.6742581651       31.4049782775       15.3598604186
C         17.2047487332       33.3750490191       17.2668969713
O         15.8625751242       32.7829697779       15.0932620055
O         16.2377302525       30.8752688993       16.7707643404
C         20.9595610223       32.8003443708       14.7591550649
C         21.8143667101       31.0055913133       16.3198179849
C         17.5754102379       34.6519617767       16.8029530778
C         17.2637291382       33.0943355159       18.6460879055
C         17.9974943832       35.6374926681       17.7108940678
C         17.6858927494       34.0818634379       19.5528430235
C         18.0549111477       35.3597492957       19.0859553967
O         18.4783639622       36.3666686706       19.9285854852
C         18.5860204236       36.2075132848       21.3565868609
H         22.4142667541       24.7514463503        4.6152574487
H         20.2344793847       25.8663861218        5.1042029154
H         19.9334190746       27.1298539979        7.2139152042
H         24.0007657564       26.1826317639        8.3506584744
H         21.6107246277       29.4793796687        8.4977256693
H         20.0539078179       28.6704150149        8.8884459108
H         21.8808769072       30.1130701446       10.7072337880
H         20.2372797157       28.1957098791       12.7025334243
H         17.4709278640       29.0581129414       12.0713778285
H         18.4322259879       26.7147502365       13.7799456145
H         16.8204754062       26.9546296772       13.1377415973
H         18.5879325039       29.0516334266       14.8995651772
H         16.4151662619       29.5182526150       15.4976760208
H         18.8536173532       31.1555020059       13.3621180847
H         17.1186771900       31.3061138544       13.4306125527
H         16.6982130498       27.2948556865       10.4548424283
H         19.9203698150       25.3167855056       12.5433425620
H         17.3258234388       26.1030437904        8.3653202484
H         20.5401833887       24.1256393485       10.4554650286
H         19.3916827216       32.0861861395       16.9381843449
H         19.1787903164       30.3838628153       16.5619010614
H         19.2439529804       24.5114570346        8.3640940215
H         20.6611785531       30.6665682858       14.5468445171
H         20.9848327292       33.5691575197       15.5421052505
H         21.9265007505       32.8123660625       14.2403902406
H         20.1899910738       33.0862166168       14.0313428375
H         21.8931555640       31.7100613384       17.1580317659
H         21.6462312463       30.0026880048       16.7329524624
H         22.7792891722       30.9925583225       15.7968394711
H         17.5399373843       34.8763948481       15.7392717592
H         16.9849032927       32.1098601774       19.0148766765
H         18.2836235850       36.6213452959       17.3493883539
H         17.7236520255       33.8432831272       20.6111087058
H         19.2977233752       35.4095912241       21.6051382893
H         18.9424604696       37.1397144189       21.8127760270
H         17.6094975912       35.9626828088       21.7941194033
    79
VM2 Rank=16     G=205.783           E=113.246           -TS=92.537              
C         21.3417968646       26.5810121262        5.4911092586
C         22.3299792840       25.9633860113        6.2746691622
C         20.4797754639       27.5217563659        6.0731121753
C         22.4490309120       26.2874091871        7.6369948169
F         19.5279112094       28.1141968429        5.3230900285
C         20.5987439952       27.8487557064        7.4319651728
C         21.5818388892       27.2282913341        8.2276176189
N         21.7035962314       27.5563493603        9.6070031135
C         21.9080505379       26.6697394745       10.6479348692
C         21.6429340449       28.9379752104       10.0698046911
O         22.0024183548       27.3955020258       11.7979434983
O         21.9917133228       25.4555129362       10.5802467677
C         21.8955808038       28.8267150933       11.5832575848
C         20.7780318221       29.4792860881       12.4195050314
O         20.4645034468       30.6506676186       12.2942109682
N         20.1032226358       28.6351761964       13.2744333703
C         18.7296923712       28.8841309899       13.7409057938
C         17.8624978550       27.6419182234       13.4171278533
C         18.6958944472       29.2731665158       15.2459503620
C         17.9477724231       27.2282078220       11.9520171394
O         17.3419966750       29.4357625069       15.6721666948
C         19.4845914769       30.5845701608       15.5153083699
C         18.5936488345       26.0329403316       11.5850579162
C         17.3936465456       28.0480040176       10.9517923823
N         19.7382117520       30.8825301027       16.9534248494
C         18.6772465421       25.6577833293       10.2339079572
C         17.4797254139       27.6754132840        9.5999734887
C         20.5372291059       29.8813167308       17.7063729920
S         18.5186376543       31.6597597467       17.8657226757
C         18.1185319966       26.4778014276        9.2412069208
C         21.8830714639       29.4799170760       17.0454572189
C         17.8377381829       32.9026679596       16.7399885656
O         17.5243604298       30.6302378516       18.1965910221
O         19.2493614561       32.4023596740       18.9000523378
C         22.8099165759       30.7017732862       16.8521868599
C         22.5957580727       28.4130067769       17.9027185853
C         16.5771570447       32.7111554903       16.1405051642
C         18.5780700546       34.0623147258       16.4384602045
C         16.0628454868       33.6679256749       15.2487674597
C         18.0616831277       35.0181770948       15.5476292653
C         16.8062241150       34.8272886203       14.9489871596
O         16.3529053754       35.7986313538       14.0805168529
C         15.0904577026       35.7135076492       13.3913057811
H         21.2429826825       26.3337780236        4.4379888315
H         23.0023706572       25.2349321647        5.8278623510
H         23.2201498239       25.8046202346        8.2321292868
H         19.9151504522       28.5740464074        7.8616181766
H         22.4180263525       29.5441557128        9.5841306960
H         20.6523809132       29.3668581126        9.8694864650
H         22.8408201686       29.3164730255       11.8475967366
H         20.4423487376       27.6810494143       13.2897344744
H         18.3137882860       29.7305945408       13.1761655905
H         18.1652565624       26.8106086445       14.0661161130
H         16.8152082016       27.8529086774       13.6680420508
H         19.1631483833       28.4519439542       15.8047806146
H         17.3524585801       29.5724134475       16.6488305446
H         20.4503759671       30.5202442037       15.0033230944
H         18.9613276833       31.4126558429       15.0227396649
H         19.0338227749       25.3936366426       12.3456043003
H         16.8968644330       28.9756067561       11.2233824286
H         19.1802720662       24.7345297666        9.9567056043
H         17.0493255407       28.3128721203        8.8317653703
H         20.7652591484       30.2826737091       18.7036111964
H         19.9335700815       28.9780119604       17.8669935011
H         18.1841750099       26.1873809527        8.1955881998
H         21.6863949794       29.0281101988       16.0636106444
H         22.3472237581       31.4547811817       16.2022180650
H         23.0358488019       31.1806286032       17.8135589719
H         23.7594090188       30.4033746121       16.3899372796
H         23.5345732257       28.0953427658       17.4310472572
H         22.8330018294       28.8002526604       18.9021138452
H         21.9659668337       27.5222439747       18.0238670355
H         15.9974937800       31.8176775344       16.3603612284
H         19.5545567934       34.2184425737       16.8913524715
H         15.0906921115       33.4970541006       14.7972497294
H         18.6365678768       35.9106835478       15.3164362940
H         14.9487130227       36.5970796928       12.7562066386
H         15.0575049483       34.8219441682       12.7517500385
H         14.2599012312       35.6687873013       14.1076365329
    79
VM2 Rank=17     G=205.836           E=113.306           -TS=92.530              
C         20.0978855976       24.2434323138        6.3143354760
C         20.0825666243       25.6472320237        6.3397733278
C         20.4974938159       23.5313632065        7.4545588500
C         20.4655542543       26.3318338178        7.5056454666
F         20.5171367310       22.1827006864        7.4301796815
C         20.8793661282       24.2129041033        8.6198705693
C         20.8614756372       25.6210550160        8.6568357158
N         21.2505311808       26.3164018673        9.8365946625
C         20.9095629308       25.9863234538       11.1348732501
C         22.1121780498       27.4915089287        9.7814935063
O         21.5283352430       26.8723357958       11.9646057846
O         20.1894448731       25.0729060939       11.4998830086
C         22.3040557101       27.8760580890       11.2607161003
C         21.8340013975       29.3091638050       11.5834656269
O         22.0050841950       30.2481592651       10.8236644192
N         21.1518898588       29.4536749731       12.7722080335
C         20.2447960801       30.5709072002       13.0690872004
C         18.7706853025       30.1198573670       12.8786248029
C         20.5451301703       31.1346345534       14.4866536077
C         18.5108267539       29.4604694974       11.5289125830
O         20.3138221586       30.1245730082       15.4734325358
C         19.7121191138       32.4067908301       14.7979192225
C         18.2160964492       28.0863538938       11.4543303997
C         18.5714446615       30.2179443762       10.3449653616
N         20.1198571897       33.1400008935       16.0300720924
C         17.9778403450       27.4777079873       10.2109681939
C         18.3377958892       29.6094807484        9.1004247190
C         21.5054611788       33.6747317532       16.0587817743
S         19.5294855555       32.6074423610       17.5455133395
C         18.0363977408       28.2398597935        9.0337475970
C         21.8927319468       34.5621202408       14.8464967890
C         17.8233859056       32.1006901696       17.2132015381
O         20.3608663054       31.4608369863       17.9351876044
O         19.4461707482       33.8277399380       18.3572699051
C         20.9604911371       35.7884354114       14.7184383568
C         23.3572159232       35.0298348762       14.9803633044
C         17.4839753209       30.7352789520       17.1366935292
C         16.8283625113       33.0735643499       16.9955793320
C         16.1661557044       30.3468189459       16.8414413180
C         15.5108171246       32.6831902542       16.7029128305
C         15.1733545263       31.3228263647       16.6221915567
O         13.8653325295       31.0005156600       16.3250605416
C         13.4008195003       29.6443401484       16.1800264854
H         19.8036502013       23.7079875102        5.4161865316
H         19.7742921230       26.2041392450        5.4581943205
H         20.4437827952       27.4180388715        7.5110247256
H         21.1899179720       23.6413704477        9.4894637539
H         23.0724482825       27.2432785181        9.3122655020
H         21.6224171881       28.2998234657        9.2234218920
H         23.3610513483       27.7997020624       11.5432969900
H         21.0698387748       28.6232043138       13.3463651079
H         20.4423747130       31.3779072823       12.3498659575
H         18.4967118639       29.4298449391       13.6868869757
H         18.1030859640       30.9830611319       12.9816297439
H         21.6082132882       31.4094694580       14.4937761954
H         20.6294733961       30.4750932862       16.3388300482
H         19.7963960929       33.0813766198       13.9376147816
H         18.6525204171       32.1336498518       14.8457629760
H         18.1749446530       27.4870836058       12.3601009104
H         18.8060306321       31.2779667071       10.3893576208
H         17.7522940030       26.4152220339       10.1604196084
H         18.3878026553       30.2000954030        8.1892143230
H         21.6351066340       34.2813183325       16.9659695841
H         22.2182934153       32.8430008569       16.1385188557
H         17.8504981242       27.7691184631        8.0716704362
H         21.8242944072       33.9690723917       13.9244699681
H         21.2489370225       36.4116910445       13.8624564437
H         19.9174538312       35.4828585970       14.5693572793
H         21.0025646696       36.4111453278       15.6212846253
H         23.6561546380       35.6329595362       14.1133725013
H         23.4984104706       35.6399406332       15.8819798559
H         24.0392470498       34.1718847772       15.0402203338
H         18.2429962714       29.9733711763       17.2976113049
H         17.0793650021       34.1306427063       17.0465998621
H         15.9302291632       29.2889455911       16.7834436796
H         14.7467519125       33.4367666131       16.5330753281
H         12.3306535772       29.6376026432       15.9374758165
H         13.9397681951       29.1347743362       15.3707466343
H         13.5449732465       29.0832423544       17.1123987291
    79
VM2 Rank=18     G=205.868           E=113.846           -TS=92.021              
C         22.6920755056       24.8435479525        5.9713690333
C         22.0847153200       26.1049457183        6.0789712953
C         23.0256136529       24.1306329653        7.1321786529
C         21.8130866275       26.6465888374        7.3467941786
F         23.6129157492       22.9204373468        7.0302854217
C         22.7542566679       24.6690800590        8.3989503947
C         22.1401353152       25.9313245833        8.5166110881
N         21.8637460242       26.4826518783        9.7994032185
C         21.3473218231       25.8081624249       10.8902487666
C         22.1402408185       27.8819934721       10.1035498810
O         21.2736217758       26.6906424049       11.9266076450
O         21.0096645847       24.6381407336       10.9448500937
C         21.7798219770       28.0092938562       11.5936961307
C         20.7603122891       29.1331966500       11.8612815197
O         20.9804474457       30.2983599039       11.5779848025
N         19.5468247914       28.7278096962       12.3727977472
C         18.2980248568       29.4823477209       12.1830577390
C         17.2111478015       28.5250932354       11.6351685229
C         17.8578045845       30.2097531884       13.4837015794
C         17.6643420150       27.7743414407       10.3879434224
O         16.6523306065       30.9420335572       13.2516407199
C         18.9536200177       31.1839250075       13.9939181009
C         17.8587426012       28.4651582395        9.1777769729
C         17.9103816564       26.3896824725       10.4392814906
N         18.5598383792       32.0504687397       15.1426486529
C         18.2914446407       27.7795473397        8.0304912675
C         18.3396687434       25.7026285131        9.2917012183
C         19.5510059681       33.1175732065       15.4579233363
S         17.8592519966       31.2328750880       16.4794882708
C         18.5294739338       26.3970575149        8.0868241426
C         19.9106554507       34.0663804321       14.2827359395
C         17.8704628162       32.4171936702       17.8500244243
O         16.4553904569       31.0409283878       16.0924536050
O         18.7546958442       30.1130345234       16.7931101485
C         18.6503265364       34.7196078598       13.6700520207
C         20.8820577761       35.1624761715       14.7702187428
C         18.8749524166       32.3581103067       18.8361571993
C         16.8839655493       33.4203214674       17.9264546334
C         18.8894691262       33.2924693992       19.8853552425
C         16.9006783142       34.3541040182       18.9766706627
C         17.9067843792       34.2922384843       19.9617997733
O         17.9746215983       35.1821182779       21.0137738902
C         17.0320615662       36.2557232549       21.2010484119
H         22.9052683328       24.4191579470        4.9944504545
H         21.8237002250       26.6616458162        5.1821540329
H         21.3353938815       27.6200855094        7.4140844369
H         23.0248218467       24.1017397220        9.2844922233
H         23.1988074116       28.1148201383        9.9322895848
H         21.5088517356       28.5394500104        9.4917315806
H         22.6788440395       28.2250345115       12.1839656271
H         19.4744123243       27.7365390358       12.5673858719
H         18.4694338898       30.2549555396       11.4200062419
H         16.9220065114       27.8172025050       12.4221291830
H         16.3060002499       29.0993415057       11.3998305911
H         17.6813801877       29.4415540021       14.2490065562
H         16.3339636731       31.2220618419       14.1421963544
H         19.8379375269       30.5969045157       14.2747211502
H         19.2383456418       31.7972350434       13.1325803015
H         17.6761686071       29.5353018362        9.1278776344
H         17.7725604066       25.8439210586       11.3688246536
H         18.4403883013       28.3190051215        7.0985817191
H         18.5320278201       24.6335016407        9.3388771936
H         19.1664502490       33.7653130261       16.2539645852
H         20.4733717413       32.6567308466       15.8376835340
H         18.8649209955       25.8652083039        7.1999118976
H         20.4332038676       33.5000396852       13.4999686188
H         17.9702051997       33.9631050959       13.2578585030
H         18.0978879019       35.2951008838       14.4237148170
H         18.9205560806       35.4005853996       12.8530877507
H         21.7968394863       34.7195854130       15.1847435151
H         21.1762637273       35.8203949440       13.9423561147
H         20.4219818487       35.7842612315       15.5492256032
H         19.6451026016       31.5917147561       18.7879702004
H         16.1067546362       33.4781587468       17.1677198312
H         19.6662219495       33.2445178295       20.6436161700
H         16.1309619769       35.1185763749       19.0136877120
H         17.0480213804       36.9397108108       20.3426237305
H         16.0148578369       35.8616693374       21.3234908145
H         17.2888475470       36.8285045741       22.1011261897
    79
VM2 Rank=19     G=205.869           E=113.327           -TS=92.542              
C         20.1161738279       24.2743424227        6.2418915901
C         20.0858458667       25.6774773835        6.2846618507
C         20.5327596053       23.5528559954        7.3700565432
C         20.4708775822       26.3519828653        7.4557331519
F         20.5667946388       22.2048845651        7.3289929788
C         20.9167108315       24.2242971903        8.5405367660
C         20.8838671683       25.6316115562        8.5948961331
N         21.2748346446       26.3167403875        9.7799797878
C         20.9474060065       25.9674288124       11.0767009734
C         22.1236686911       27.5014741152        9.7325870780
O         21.5630481622       26.8500160682       11.9123887465
O         20.2399479029       25.0419568039       11.4360546135
C         22.3214172831       27.8712609236       11.2148135321
C         21.8359374947       29.2945904539       11.5574705990
O         21.9899119750       30.2443531570       10.8074562957
N         21.1606596430       29.4169019589       12.7525941451
C         20.2422161974       30.5194450087       13.0689078738
C         18.7724378793       30.0523405733       12.8850705831
C         20.5469980690       31.0720895372       14.4897992020
C         18.5097451769       29.4082472378       11.5285235311
O         20.3374666093       30.0491085521       15.4680950117
C         19.6989961250       32.3288843952       14.8219813905
C         18.5503400134       30.1827727418       10.3547858101
C         18.2327047536       28.0314678319       11.4371921976
N         20.1203066125       33.0655765074       16.0474247912
C         18.3144390003       29.5884983706        9.1038304201
C         17.9922624502       27.4369165889       10.1874421508
C         21.4961877918       33.6258151648       16.0476395178
S         19.5744202247       32.5151489309       17.5729365900
C         18.0307932500       28.2160003652        9.0205215632
C         21.8414661302       34.5218186467       14.8290044975
C         17.8650609296       31.9954644678       17.2804191453
O         20.4267482493       31.3744551357       17.9336668274
O         19.4993008796       33.7284157212       18.3959757423
C         20.8844877405       35.7310586388       14.7228033259
C         23.2996484702       35.0161067132       14.9327952392
C         17.5342465693       30.6277790794       17.2123205482
C         16.8573607386       32.9610228385       17.0885098100
C         16.2110133665       30.2336876246       16.9529281703
C         15.5338326386       32.5647473154       16.8305238062
C         15.2066886069       31.1955299026       16.7608007213
O         13.9267907708       30.7476416745       16.5070325613
C         12.8121794323       31.6317857771       16.2792541873
H         19.8204302083       23.7466866323        5.3396381055
H         19.7643594972       26.2416691388        5.4124840512
H         20.4373292032       27.4377361003        7.4746308992
H         21.2404791406       23.6456629829        9.4005622858
H         23.0833408974       27.2686241823        9.2543369527
H         21.6218641857       28.3108382835        9.1868855025
H         23.3812555227       27.8048466435       11.4891348507
H         21.0930460436       28.5789144296       13.3176443056
H         20.4239597825       31.3365155395       12.3569173880
H         18.5143524821       29.3479473139       13.6861562231
H         18.0949479049       30.9055200819       13.0057269939
H         21.6063122795       31.3610537352       14.4903540143
H         20.6627753004       30.3929138177       16.3326869008
H         19.7531362930       33.0072502485       13.9622376608
H         18.6455763574       32.0366252461       14.8917067762
H         18.7711491656       31.2451358341       10.4120120229
H         18.2070353209       27.4192533414       12.3348519580
H         18.3489875833       30.1922768521        8.2005636114
H         17.7804978074       26.3722904965       10.1239344921
H         21.6339547082       34.2335140836       16.9528713220
H         22.2257995224       32.8073413704       16.1109466066
H         17.8432950902       27.7561280751        8.0535085221
H         21.7645199614       33.9288621472       13.9075834373
H         20.9344335836       36.3533094332       15.6255649949
H         21.1432479675       36.3605460724       13.8619067915
H         19.8442480153       35.4067202065       14.5954449888
H         23.9983731552       34.1707180005       14.9767206483
H         23.5691314286       35.6258192151       14.0607706626
H         23.4486669342       35.6274350773       15.8323221130
H         18.3018021561       29.8703793134       17.3527275204
H         17.1034910941       34.0195409267       17.1337642082
H         15.9609314901       29.1778276103       16.8975080862
H         14.7749786648       33.3269708992       16.6843917825
H         12.9940755588       32.2667273981       15.4024817949
H         11.9008025115       31.0482852168       16.0974414379
H         12.6407240324       32.2727370805       17.1537440424
    79
VM2 Rank=20     G=205.884           E=113.848           -TS=92.036              
C         22.7791345167       24.8167823297        6.0472333325
C         22.1554143506       26.0719921355        6.1309821941
C         23.1078771906       24.1234958652        7.2212262659
C         21.8626985122       26.6270892844        7.3882492686
F         23.7108673939       22.9193161721        7.1422753459
C         22.8154995376       24.6753931804        8.4774881896
C         22.1848713698       25.9314884998        8.5711993003
N         21.8871396222       26.4964158027        9.8432461302
C         21.3663398420       25.8302476002       10.9371171070
C         22.1433956307       27.9029091500       10.1317184209
O         21.2704038248       26.7253930841       11.9607117795
O         21.0419431643       24.6570878297       11.0035112110
C         21.7649018209       28.0454534638       11.6159887851
C         20.7294800106       29.1606692955       11.8575422811
O         20.9391636808       30.3245692934       11.5614114807
N         19.5152362481       28.7476777085       12.3610955941
C         18.2599399826       29.4851469034       12.1485345567
C         17.1902812386       28.5085326160       11.6009353862
C         17.7973430094       30.2232097279       13.4353160754
C         17.6661060377       27.7473387110       10.3685487295
O         16.5856754101       30.9379805655       13.1818060954
C         18.8760748007       31.2167742439       13.9445897794
C         17.8661159690       28.4249428795        9.1518441406
C         17.9277850413       26.3664658929       10.4404623211
N         18.4597345073       32.0916843506       15.0788884950
C         18.3198469010       27.7299599065        8.0184038649
C         18.3781333893       25.6699974867        9.3067130777
C         19.4333165820       33.1754457294       15.3920350604
S         17.7544933741       31.2808476784       16.4174100234
C         18.5734510919       26.3512291296        8.0951999314
C         19.7969983710       34.1125390215       14.2087147915
C         17.7473188495       32.4764109041       17.7782483267
O         16.3555432036       31.0739857872       16.0204041876
O         18.6565344547       30.1712179946       16.7480117391
C         18.5371669250       34.7424655971       13.5710988509
C         20.7490651527       35.2265852957       14.6936555469
C         16.7473142166       33.4663959819       17.8451382445
C         18.7511473466       32.4389977793       18.7665098807
C         16.7530951944       34.4064946779       18.8891663748
C         18.7548818123       33.3804620149       19.8100930858
C         17.7528747532       34.3696956018       19.8740457394
O         17.7071839558       35.3198160406       20.8732105265
C         18.6762117138       35.3933967871       21.9370184819
H         23.0086504893       24.3820719009        5.0785854740
H         21.8980548966       26.6134944136        5.2238625832
H         21.3725783035       27.5954994661        7.4370424829
H         23.0827025262       24.1232381362        9.3735876167
H         23.2009218622       28.1463375879        9.9689830859
H         21.5109694838       28.5444756103        9.5042976923
H         22.6547280477       28.2794421204       12.2132001501
H         19.4521942686       27.7582306457       12.5678458002
H         18.4306877040       30.2502673086       11.3778305636
H         16.9004447641       27.8073550189       12.3936299450
H         16.2813329976       29.0692556441       11.3482647646
H         17.6220751171       29.4623875553       14.2082115569
H         16.2553569173       31.2266338878       14.0652242458
H         19.7646091622       30.6441265075       14.2413012375
H         19.1619716765       31.8233097757       13.0788505515
H         17.6716238347       29.4921292243        9.0861454663
H         17.7858624752       25.8310026896       11.3753621533
H         18.4730414747       28.2592382574        7.0813598188
H         18.5824983377       24.6039230202        9.3698068543
H         19.0298313465       33.8291058569       16.1738002713
H         20.3562009168       32.7315359197       15.7902453944
H         18.9251844579       25.8121497043        7.2190276602
H         20.3363142610       33.5419476586       13.4405336894
H         18.8099696808       35.4152229020       12.7481996778
H         17.8710471731       33.9725084075       13.1609742186
H         17.9685682010       35.3218276190       14.3096328502
H         21.0461968953       35.8768036009       13.8607674569
H         20.2716501709       35.8532352847       15.4582000731
H         21.6635534294       34.8002558581       15.1258140259
H         15.9698025574       33.5090434382       17.0857488044
H         19.5309623714       31.6820526733       18.7241278477
H         15.9807858514       35.1692962360       18.9364937797
H         19.5387158786       33.3325140309       20.5594857246
H         19.6835346641       35.5581102012       21.5330982743
H         18.4349140964       36.2274072090       22.6081063014
H         18.6759458224       34.4673632652       22.5264544948
    79
VM2 Rank=21     G=205.923           E=114.430           -TS=91.493              
C         20.1524354197       24.9105001630        6.3784813439
C         20.5501311487       23.9790649504        7.3512792613
C         20.1779880514       26.2808407411        6.6757695949
C         20.9682592829       24.4226332328        8.6175851918
F         19.7918064506       27.1771182033        5.7445551355
C         20.5983944521       26.7258398446        7.9377664270
C         20.9912896856       25.7982440019        8.9223400197
N         21.4105251359       26.2463218198       10.2059913436
C         21.0457786462       25.7037524805       11.4239902574
C         22.3302401943       27.3680801177       10.3597285324
O         21.6785147063       26.4150015800       12.4000244507
O         20.2971625500       24.7623467706       11.6211940669
C         22.5061196932       27.4893185294       11.8831400339
C         22.0819197237       28.8749624691       12.4060703422
O         22.7474279045       29.8798978061       12.2232874123
N         20.8487141751       28.9282294003       13.0167322537
C         20.0346621015       30.1501182752       13.0736023248
C         18.5340225095       29.7685294266       12.9811374858
C         20.3934722648       30.9819370463       14.3365406429
C         18.2345323363       28.8836084562       11.7772718918
O         20.1368976304       30.2086620044       15.5057484678
C         19.6348407272       32.3316987391       14.3984486152
C         18.2116145904       29.4343876074       10.4829648022
C         17.9999561904       27.5063520397       11.9463985654
N         20.1073716229       33.2663318063       15.4589232888
C         17.9521189501       28.6182641835        9.3693230345
C         17.7412369473       26.6895932068       10.8333012813
C         21.5190208530       33.7182193610       15.3708359626
S         19.5136424751       33.1093271330       17.0596568383
C         17.7155327378       27.2454699258        9.5447090719
C         21.9394444080       34.3093411275       13.9992661191
C         17.8689973056       32.3646020380       16.8998429203
O         20.4166953025       32.2199922550       17.8002176881
O         19.2885212005       34.4973778075       17.4829206332
C         21.0786824786       35.5361630801       13.6206458517
C         23.4306212935       34.7053400971       14.0291322473
C         17.6477013786       31.0239045036       17.2711745420
C         16.7991980531       33.1237792499       16.3856392765
C         16.3774062323       30.4433692336       17.1158186210
C         15.5290378569       32.5429088989       16.2333174418
C         15.3120774010       31.2032316370       16.5925555212
O         14.0461133299       30.6853925187       16.4128501193
C         13.7078746028       29.3139462309       16.6968210779
H         19.8255700487       24.5743840335        5.3986308963
H         20.5336492735       22.9155475750        7.1254003014
H         21.2749795012       23.6921404317        9.3620393330
H         20.5994418990       27.7905071169        8.1481212673
H         23.2877515800       27.1493647761        9.8703709264
H         21.8981176592       28.2858199636        9.9403894671
H         23.5551925693       27.3307415798       12.1616976505
H         20.3721471711       28.0399373445       13.1114425619
H         20.2789203762       30.7606159765       12.1923203449
H         18.2227862274       29.2643242777       13.9052052920
H         17.9223757703       30.6758507845       12.9137668472
H         21.4685658575       31.1979119471       14.2774524604
H         20.5911979870       29.3542961247       15.3556637154
H         19.7385971784       32.8184377100       13.4216490020
H         18.5641750391       32.1326676856       14.5083554019
H         18.3968724349       30.4955614710       10.3401589047
H         18.0208730321       27.0659549227       12.9397186849
H         17.9364768693       29.0485515892        8.3710873136
H         17.5671324939       25.6249988141       10.9694513802
H         21.6928092141       34.4906632814       16.1329519141
H         22.1840896891       32.8805137516       15.6213318191
H         17.5191534461       26.6122804348        8.6830382491
H         21.8234622314       33.5421159407       13.2216309997
H         21.1727665098       36.3302803662       14.3724196682
H         21.3883320214       35.9475516259       12.6515231203
H         20.0170875767       35.2703149198       13.5443020186
H         23.7510824128       35.0968189979       13.0550697299
H         23.6213086880       35.4786528202       14.7845396111
H         24.0615410171       33.8380903306       14.2631758002
H         18.4661745118       30.4271403069       17.6672390909
H         16.9567283854       34.1604895290       16.0969335192
H         16.2350469163       29.4059267527       17.4011097388
H         14.7083520179       33.1305240852       15.8312631645
H         14.3138451901       28.6314761289       16.0868146566
H         13.8731480050       29.0853658158       17.7576408399
H         12.6502321170       29.1325256133       16.4674834146
    79
VM2 Rank=22     G=205.929           E=113.300           -TS=92.629              
C         20.5425193669       26.5643614895        5.3553666598
C         19.6288865983       27.3861385420        6.0347192594
C         21.7229544232       26.1591281555        5.9951243226
C         19.8997891703       27.7976155411        7.3507148459
F         22.6036801593       25.3731465431        5.3421059834
C         21.9948511781       26.5679084996        7.3093683156
C         21.0814363454       27.3875758984        8.0008833104
N         21.3534456743       27.8067474066        9.3337391432
C         21.8733146240       27.0278772777       10.3510322717
C         21.1194803390       29.1806305047        9.7635011636
O         22.0167306139       27.8221760927       11.4495244751
O         22.1600380365       25.8440241712       10.3037103575
C         21.6360032365       29.2021694627       11.2124145007
C         20.5818186589       29.7172659383       12.2110429362
O         20.0555942751       30.8115793307       12.1027561068
N         20.2161309709       28.8313180531       13.2010304363
C         18.9149691312       28.8781609381       13.8873483545
C         18.2324121104       27.4938763835       13.7533139637
C         19.0609422688       29.3442420771       15.3633735102
C         18.1579003771       27.0102789598       12.3090924613
O         17.7879921241       29.3037336134       16.0107294721
C         19.6421527158       30.7824556115       15.4531204665
C         17.3363022058       27.6761042621       11.3810326733
C         18.9224311729       25.9069003329       11.8866082271
N         20.0762149924       31.2019216218       16.8157955294
C         17.2767814372       27.2423898843       10.0461518244
C         18.8605716198       25.4700040231       10.5529852654
C         21.1527735747       30.3945005231       17.4458139628
S         18.9086218269       31.8144303827       17.9044949865
C         18.0369677616       26.1368360443        9.6326658485
C         22.4183860264       30.1865013353       16.5716354747
C         17.8433541982       32.8596557233       16.8805783883
O         18.1787159563       30.6534896103       18.4312344385
O         19.6600063064       32.7266750240       18.7754067664
C         23.0712884809       31.5330381409       16.1844906527
C         23.4400928382       29.3060435014       17.3213241435
C         18.3094058502       34.1073412224       16.4224698806
C         16.5531691047       32.4265791719       16.5159073831
C         17.4928858157       34.9110615645       15.6093020878
C         15.7383443390       33.2314977225       15.7014831329
C         16.2076869974       34.4795163782       15.2445734558
O         15.4534192072       35.3102589542       14.4419552948
C         14.1275378900       34.9768440864       13.9870782668
H         20.3395827783       26.2430490833        4.3377677629
H         18.7121099846       27.7030314187        5.5433603376
H         19.1797552542       28.4272156018        7.8660549105
H         22.9171541581       26.2460470922        7.7837251945
H         20.0476561080       29.4156176354        9.7278914703
H         21.6780886538       29.8852740240        9.1345850170
H         22.5168115524       29.8511809965       11.2910556512
H         20.7116649647       27.9481643719       13.1881872490
H         18.2735675889       29.6104618182       13.3767489818
H         18.7702654370       26.7645997176       14.3720135509
H         17.2167256248       27.5468005322       14.1654785374
H         19.7494685606       28.6469254797       15.8580440917
H         17.9350015121       29.4960302540       16.9668118015
H         20.5048938597       30.8508436539       14.7822324325
H         18.9073324012       31.4812351395       15.0360966472
H         16.7452426766       28.5322536931       11.6950968489
H         19.5680832901       25.3877481820       12.5898095098
H         16.6403877573       27.7613004334        9.3338508940
H         19.4565461494       24.6191089558       10.2319895776
H         21.4704393960       30.8859055370       18.3759613266
H         20.7522189308       29.4137111850       17.7352383700
H         17.9915838977       25.7996616956        8.6000879970
H         22.1425571747       29.6515756742       15.6526089882
H         23.3673253040       32.0982901345       17.0774832080
H         23.9675169827       31.3715520167       15.5721598293
H         22.3817925175       32.1585713229       15.6040882552
H         23.0053596305       28.3309084129       17.5760617237
H         24.3277749354       29.1233003864       16.7021429279
H         23.7694943955       29.7852264166       18.2524065163
H         19.3055203900       34.4498417323       16.6935148321
H         16.1829826930       31.4630543782       16.8582931356
H         17.8566800731       35.8722136691       15.2566682357
H         14.7492083588       32.8753055341       15.4315105416
H         13.7298878297       35.7865814482       13.3623041719
H         14.1432228094       34.0570052737       13.3882022378
H         13.4495095485       34.8357499028       14.8387384272
    79
VM2 Rank=23     G=205.936           E=111.227           -TS=94.709              
C         21.9267468084       23.8490340162        8.5071138588
C         21.3330192924       23.3437985127        9.6751410530
C         22.1756071709       25.2244314051        8.3920416851
C         20.9883098339       24.2170685386       10.7209215559
F         22.7417260965       25.7125067071        7.2691632625
C         21.8354444261       26.0973247088        9.4359936675
C         21.2322181824       25.6003598987       10.6078465627
N         20.8821655132       26.4837993337       11.6666296180
C         19.7060764318       26.4697377715       12.3929123414
C         21.7920709412       27.5301891227       12.1182334245
O         19.7847722151       27.4587314496       13.3268417864
O         18.7527561777       25.7252358167       12.2442536420
C         21.0441315620       28.1781766329       13.2949174512
C         20.8588184756       29.6948846451       13.1077420596
O         21.7753027684       30.4917196302       13.2081740038
N         19.5965541163       30.0983516756       12.7358126084
C         19.3180331619       31.3278501619       11.9755839515
C         18.1864194332       31.0512278250       10.9566839220
C         19.0161574649       32.5393178187       12.9045305126
C         18.5195538427       29.8870610178       10.0312820842
O         20.1878795950       32.8473068319       13.6553657604
C         17.8040305602       32.2912042534       13.8453271767
C         17.9283392697       28.6256773759       10.2335279751
C         19.4395413555       30.0577760538        8.9808973317
N         17.5842065189       33.3277103739       14.8921189749
C         18.2490761743       27.5486806889        9.3908733973
C         19.7604369042       28.9812301967        8.1371252695
C         17.3488416180       34.7120822814       14.4126499171
S         18.3807686389       33.2140611802       16.4083600405
C         19.1623772309       27.7272490657        8.3400512239
C         16.1866709742       34.8646364434       13.3962825607
C         19.0674815870       31.5374823076       16.5120531465
O         19.4846214170       34.1824511919       16.4094393227
O         17.2886346295       33.2936438610       17.3864050018
C         14.8447265911       34.3786782234       13.9897098032
C         16.0610556805       36.3374501360       12.9531523821
C         20.4543292344       31.3208652674       16.3916669177
C         18.2142625211       30.4353272714       16.7225198797
C         20.9756385798       30.0183336297       16.4572314184
C         18.7360013290       29.1313687550       16.7750014970
C         20.1220733389       28.9190050505       16.6374126134
O         20.6891298936       27.6618911372       16.6627522956
C         19.9119924441       26.4490817348       16.6852570431
H         22.1934593846       23.1800008119        7.6939752227
H         21.1395785609       22.2779959076        9.7701356603
H         20.5311624453       23.8137504589       11.6210770951
H         22.0286213850       27.1590805404        9.3199955033
H         21.9686561641       28.2599668776       11.3173517640
H         22.7454995657       27.0981998603       12.4477371121
H         21.5979690940       28.0172379406       14.2274672875
H         18.9061655919       29.3589712605       12.7018781576
H         20.2174609389       31.5815815377       11.3956665823
H         17.2465777611       30.8442064152       11.4822682096
H         18.0081250255       31.9543808588       10.3591242631
H         18.7783987023       33.4023409244       12.2685647297
H         20.7549478169       32.0396771974       13.6215954155
H         16.9052541479       32.2321680349       13.2220460022
H         17.8960630443       31.2992640727       14.2961383913
H         17.2214415761       28.4763210080       11.0453102842
H         19.9074645707       31.0252589261        8.8196806813
H         17.7924833273       26.5755691672        9.5550309148
H         20.4718905207       29.1186895096        7.3267235033
H         17.1231187394       35.3542860696       15.2752967392
H         18.2745938050       35.1017580327       13.9671112367
H         19.4110925642       26.8935313993        7.6880668674
H         16.4091426349       34.2723794271       12.4986599629
H         14.0298940296       34.4971326789       13.2642338889
H         14.8921923633       33.3177087623       14.2650579228
H         14.5830964149       34.9482741617       14.8906592366
H         16.9960091370       36.6914435621       12.4999421845
H         15.2637520626       36.4554972037       12.2080920840
H         15.8280784228       36.9896736721       13.8048249859
H         21.1271018993       32.1610290599       16.2357820913
H         17.1430420146       30.5911808377       16.8277368242
H         22.0450429515       29.8578581243       16.3526271348
H         18.0569758955       28.2974633737       16.9216087249
H         19.2482687938       26.3980763956       15.8122956789
H         20.5768531540       25.5765123717       16.6637469557
H         19.3043764367       26.3947401419       17.5976678789
    79
VM2 Rank=24     G=205.965           E=114.490           -TS=91.475              
C         22.8186987585       24.6494599315        6.0482509058
C         22.2748585010       25.9418070115        6.1235043973
C         23.0543616645       23.9241569483        7.2252687809
C         21.9685205817       26.5018957571        7.3753007136
F         23.5806828748       22.6840445338        7.1546516966
C         22.7481726520       24.4810351926        8.4760328111
C         22.1970970899       25.7746200518        8.5609956676
N         21.8859189623       26.3447606437        9.8275097266
C         21.2801862568       25.7027864478       10.8917185934
C         22.2203337317       27.7287364587       10.1434916182
O         21.2017077940       26.5918101941       11.9221065134
O         20.8783388099       24.5525743527       10.9304708600
C         21.7941297030       27.8802194869       11.6139162723
C         20.8248741742       29.0583263452       11.8307185154
O         21.1159253981       30.2072838952       11.5452165893
N         19.5733978306       28.7220563803       12.2986306538
C         18.3738589419       29.5385630770       12.0552988874
C         17.2676248025       28.6386553255       11.4516087362
C         17.9114601098       30.2814846436       13.3390014165
C         17.7410351257       27.8686867356       10.2237026113
O         16.7467416871       31.0640990241       13.0634797509
C         19.0250812224       31.2059679973       13.8996678927
C         18.0328145969       28.5520218504        9.0289323600
C         17.9082609211       26.4724461476       10.2784981070
N         18.6028853573       32.0765918663       15.0268623704
C         18.4839819085       27.8477374418        7.9002170372
C         18.3558133414       25.7668811776        9.1492722679
C         19.5428836449       33.1942517718       15.2806705202
S         17.7897715822       31.3312816642       16.3412314661
C         18.6429228423       26.4540685828        7.9596003127
C         18.8421524174       34.5745484109       15.2374142850
C         17.9114007253       32.4666138951       17.7502805603
O         16.3856037839       31.2690016145       15.9154636119
O         18.5778005853       30.1333994424       16.6543541626
C         19.7997475280       35.6783544683       15.7314326650
C         18.3383647287       34.9012142753       13.8139479143
C         16.8746632699       33.3827910154       18.0197580069
C         19.0329916423       32.4256772552       18.6026266614
C         16.9713574802       34.2664676342       19.1082593604
C         19.1277441948       33.3095335767       19.6904480367
C         18.1035864974       34.2345679890       19.9466876865
O         18.2543281827       35.0789633431       21.0270907480
C         17.2859180972       36.0845561429       21.3834082489
H         23.0582673150       24.2106688149        5.0838858228
H         22.0898384627       26.5082714982        5.2139912166
H         21.5407986423       27.4997525501        7.4171761677
H         22.9428324484       23.9034259942        9.3747755122
H         23.2968063638       27.9051568114       10.0244032795
H         21.6551699768       28.4160534256        9.5005193871
H         22.6732916119       28.0488063651       12.2478299318
H         19.4420170766       27.7380262264       12.4990346658
H         18.6183073654       30.3050035439       11.3061141758
H         16.9060500326       27.9445246205       12.2206673371
H         16.4047916744       29.2584512572       11.1763022895
H         17.6716002357       29.5205614060       14.0943062931
H         16.4156256346       31.3758002232       13.9385118840
H         19.8709364526       30.5838668677       14.2206969813
H         19.3815660273       31.8296145517       13.0689366606
H         17.9116317196       29.6307303852        8.9766894525
H         17.6948492225       25.9318184348       11.1966910401
H         18.7082910158       28.3814897000        6.9801903393
H         18.4868191011       24.6886406964        9.1992318109
H         20.0518901959       33.0577503884       16.2424403428
H         20.3375663137       33.2048263954       14.5220203346
H         18.9922911230       25.9076907171        7.0870112814
H         17.9734242863       34.5639732543       15.9054151578
H         19.3049590918       36.6580214592       15.7225185666
H         20.1269341190       35.4803859760       16.7605214947
H         20.6923890343       35.7430962206       15.0958933865
H         17.8358718211       35.8764950386       13.7907019651
H         19.1685728126       34.9295308550       13.0967541941
H         17.6183503871       34.1481696649       13.4677565625
H         15.9968253063       33.4169903123       17.3785606735
H         19.8337728500       31.7133717028       18.4174584817
H         16.1636697209       34.9685726396       19.2895974984
H         19.9983681618       33.2793253257       20.3397876272
H         17.6240917651       36.6341508108       22.2709470451
H         17.1540607096       36.8030426601       20.5640212544
H         16.3160647631       35.6247210244       21.6133589695
    79
VM2 Rank=25     G=205.970           E=114.528           -TS=91.442              
C         23.3282951196       24.5492283948        7.1641927338
C         23.8796528349       24.4553628929        8.4522980597
C         22.3493279381       25.5168098545        6.8952714982
C         23.4470322551       25.3277494117        9.4656434457
F         21.8157516553       25.6064732674        5.6596306313
C         21.9182856759       26.3905114825        7.9044500928
C         22.4603766395       26.2985655624        9.2012999743
N         22.0235609720       27.1810363765       10.2283220004
C         21.7266746660       26.8375124965       11.5338542726
C         21.8657300819       28.6109399925        9.9893226290
O         21.3857868379       27.9794122644       12.1953113474
O         21.7574747178       25.7250301211       12.0310796270
C         21.4027206389       29.1593588765       11.3507249102
C         20.0274136140       29.8509002348       11.2737037362
O         19.7781464287       30.7285677430       10.4653374492
N         19.0777013606       29.3801339432       12.1537189147
C         17.6285186245       29.5793110124       11.9880359104
C         16.9455375064       28.1936376594       11.8731095497
C         17.0560806533       30.4479229916       13.1429789390
C         17.5756646348       27.3107645543       10.8013727591
O         15.6315078438       30.5186092152       13.0727570555
C         17.6294832107       31.8899383531       13.1347666410
C         17.4192755379       27.6291927679        9.4399950328
C         18.3336338107       26.1814486785       11.1631736195
N         18.0179052709       32.3545374700       14.4908763136
C         18.0085420537       26.8245688256        8.4504811059
C         18.9213667049       25.3748568624       10.1745692366
C         19.2787737024       33.1380692511       14.5346369029
S         16.7559930998       32.9073764784       15.5056765766
C         18.7560590484       25.6943385448        8.8177842094
C         20.5479308581       32.3088037349       14.2004127706
C         17.5215986700       32.9259134743       17.1439341423
O         16.3881486175       34.2526961537       15.0485714001
O         15.7730482219       31.8163972968       15.5404348985
C         21.8069355508       33.1913218528       14.3289526396
C         20.6802394084       31.0681993450       15.1133068890
C         17.8822726468       31.7150236088       17.7656853195
C         17.7870625253       34.1462543914       17.7955775616
C         18.5011198141       31.7263361640       19.0267934843
C         18.4056039371       34.1553716763       19.0577216094
C         18.7655424838       32.9417233191       19.6780300914
O         19.3767993547       32.8897497448       20.9137071338
C         19.7094247731       34.0640436587       21.6794968854
H         23.6565629885       23.8767477288        6.3768152288
H         24.6402913872       23.7081585269        8.6656321190
H         23.8831176572       25.2469854428       10.4582522040
H         21.1537766760       27.1258753342        7.6745427672
H         22.8222116910       29.0582235779        9.6907613759
H         21.1105192719       28.7932626658        9.2138187619
H         22.1230874040       29.8906818383       11.7374284746
H         19.3915429169       28.6438970237       12.7737566614
H         17.4453848100       30.1177123620       11.0475267839
H         16.9815217408       27.6916221409       12.8481049983
H         15.8809543297       28.3310306990       11.6449956594
H         17.3483360947       29.9609030645       14.0838620873
H         15.3449448051       30.9059075630       13.9355427857
H         18.4919571729       31.9145517400       12.4621759794
H         16.8961447664       32.5791481944       12.6945599475
H         16.8421612576       28.5030438077        9.1496468818
H         18.4716040491       25.9288020638       12.2110819629
H         17.8836568705       27.0756419789        7.4001961725
H         19.5081767063       24.5054080976       10.4609956448
H         19.2057092425       33.9912624442       13.8461402403
H         19.4281338565       33.5584785148       15.5368141190
H         19.2100523792       25.0694322941        8.0526902517
H         20.4960333233       31.9676334668       13.1593747372
H         22.7092213411       32.6281331568       14.0582156597
H         21.7449237629       34.0618063593       13.6632226777
H         21.9320577556       33.5570418927       15.3564219802
H         19.8298119637       30.3875498183       14.9836438003
H         21.5918074559       30.5043534886       14.8782221642
H         20.7233666789       31.3590200433       16.1708207079
H         17.6874199597       30.7680804367       17.2674660075
H         17.5171928590       35.0875150593       17.3222110327
H         18.7798916071       30.7902655849       19.5027303773
H         18.6011419620       35.1073149079       19.5412582453
H         20.1877966442       33.7739771667       22.6235132236
H         20.4066118260       34.7044772325       21.1238439772
H         18.8063013200       34.6416255070       21.9155572467
    79
VM2 Rank=26     G=205.984           E=114.561           -TS=91.423              
C         23.2928147085       24.4887799373        7.2281658972
C         23.8336943498       24.3958440760        8.5207721160
C         22.3307790481       25.4693067517        6.9454014113
C         23.4075484488       25.2821390515        9.5247511195
F         21.8072613712       25.5581640369        5.7054070130
C         21.9062603777       26.3568597298        7.9452135193
C         22.4378370365       26.2660563409        9.2464966845
N         22.0075895547       27.1626731173       10.2640126522
C         21.6967338507       26.8334960566       11.5700001522
C         21.8730085933       28.5929510845       10.0133479902
O         21.3685935361       27.9853350157       12.2206005612
O         21.7073838638       25.7244524083       12.0756815133
C         21.4106476463       29.1587514485       11.3678371122
C         20.0478098838       29.8729223671       11.2770701955
O         19.8184767253       30.7484757685       10.4605460149
N         19.0846531577       29.4248306430       12.1543209958
C         17.6399983658       29.6449382349       11.9758300551
C         16.9364332960       28.2690181948       11.8680095673
C         17.0722662253       30.5329054623       13.1183243998
C         17.5605106047       27.3669371857       10.8087877376
O         15.6495228886       30.6246652655       13.0361830676
C         17.6678128351       31.9658100716       13.1010688833
C         17.4211597010       27.6769595108        9.4436154319
C         18.2958367796       26.2277581738       11.1860496578
N         18.0484939244       32.4392141184       14.4563012740
C         18.0048988086       26.8544111230        8.4656325018
C         18.8779132585       25.4032174910       10.2089693798
C         19.3225068320       33.2007954791       14.5060759910
S         16.7846585084       33.0243005456       15.4503819508
C         18.7296881364       25.7145276802        8.8483210186
C         20.5803201835       32.3446480205       14.1977092135
C         17.5334424545       33.0540786792       17.0961765081
O         16.4407773891       34.3684255890       14.9716310960
O         15.7860933752       31.9477834271       15.4900061091
C         21.8534484302       33.2061641203       14.3295241541
C         20.6797121408       31.1140918130       15.1282103477
C         17.8764501522       31.8467001589       17.7350719814
C         17.8038749732       34.2789154981       17.7366589798
C         18.4834857762       31.8621326876       19.0023926093
C         18.4097450386       34.2921472527       19.0043427007
C         18.7524134068       33.0890500421       19.6421080038
O         19.3476392516       33.1661508166       20.8842690569
C         19.7578051112       32.0072155247       21.6357233751
H         23.6161393720       23.8056181670        6.4479712537
H         24.5812296230       23.6386188337        8.7448211503
H         23.8354538305       25.2019227509       10.5209553627
H         21.1548121273       27.1021970114        7.7046204773
H         22.8378454787       29.0233846516        9.7169101938
H         21.1250288064       28.7807448938        9.2321589919
H         22.1408796871       29.8805162535       11.7539941414
H         19.3821893402       28.6882140162       12.7819088122
H         17.4723526126       30.1775157209       11.0291379418
H         16.9574456167       27.7752645970       12.8476499426
H         15.8758209538       28.4208089113       11.6307165760
H         17.3498632397       30.0503661028       14.0659231627
H         15.3620923066       31.0251461530       13.8926420220
H         18.5379727767       31.9700697133       12.4379949710
H         16.9500198305       32.6612265649       12.6452765846
H         16.8615844998       28.5581467304        9.1413560268
H         18.4205472488       25.9812446563       12.2370743768
H         17.8932736281       27.0990960652        7.4123511111
H         19.4471974998       24.5261634124       10.5073268825
H         19.2731254048       34.0463731051       13.8061748102
H         19.4673908785       33.6311722467       15.5046740080
H         19.1793330106       25.0757615691        8.0921581969
H         20.5342660362       31.9905208458       13.1607187321
H         21.8148677381       34.0686238838       13.6516912142
H         21.9731924436       33.5833266741       15.3534947363
H         22.7485197993       32.6233666193       14.0769494824
H         21.5837238398       30.5311179993       14.9112854350
H         20.7157734558       31.4180884244       16.1822559841
H         19.8188308928       30.4469734183       14.9971761301
H         17.6768089117       30.8969935315       17.2439945458
H         17.5484142641       35.2181923682       17.2515621389
H         18.7408197700       30.9192150755       19.4744286728
H         18.6180200398       35.2383706745       19.4961215729
H         18.8967370394       31.3627014921       21.8550917639
H         20.5036363668       31.4271018735       21.0769748878
H         20.2065413847       32.3164031314       22.5881855242
    79
VM2 Rank=27     G=206.006           E=114.172           -TS=91.833              
C         22.0989005186       23.6695957072        6.0310852120
C         21.4511981361       22.8930469665        7.0053927292
C         22.4766359353       24.9867553525        6.3296529386
C         21.1816312425       23.4388263175        8.2721037167
F         23.0975384140       25.7352619073        5.3948728326
C         22.2109601164       25.5325125752        7.5942435680
C         21.5542304568       24.7638336212        8.5753132296
N         21.2810471329       25.3145327152        9.8590792551
C         20.1096230686       25.1762996071       10.5796735618
C         22.2751953674       26.1009635098       10.5798356257
O         20.2782046596       25.8143453500       11.7716917728
O         19.0952014339       24.5938813216       10.2363533923
C         21.5728555304       26.4556608970       11.9040601046
C         21.4497254237       27.9751829127       12.1387621741
O         22.3376108858       28.7620302146       11.8546676793
N         20.2398455844       28.3987942723       12.6447417605
C         19.7405311195       29.7772265219       12.5407865259
C         18.6854150363       29.8676160021       11.4048564242
C         19.2231663677       30.2541448742       13.9279046795
C         19.1730871206       29.2866897072       10.0821214602
O         18.1007960280       29.4718541768       14.3483954163
C         18.8521951728       31.7614046628       13.9529918436
C         18.6125876751       28.0985857735        9.5771684334
C         20.1934085409       29.9297908826        9.3578004132
N         18.2984275393       32.2581751288       15.2466986418
C         19.0612534825       27.5638308610        8.3581151762
C         20.6459058623       29.3937920519        8.1405682665
C         17.7614336270       33.6469349996       15.1829112996
S         19.1856294908       31.8357615694       16.6548231252
C         20.0761368487       28.2132024349        7.6379509198
C         16.6729044057       33.8959497019       14.1041519643
C         18.5604798367       32.8996616877       17.9810192369
O         18.7504369153       30.4664228598       16.9599512305
O         20.5846407878       32.1797062043       16.3736103255
C         15.4917026608       32.9083082874       14.2457661199
C         16.1550260369       35.3465667074       14.2046803700
C         17.3608116556       32.5733601142       18.6440903236
C         19.2558294994       34.0697519297       18.3448310201
C         16.8613627223       33.4068263566       19.6595160432
C         18.7548128544       34.9012935836       19.3604866138
C         17.5593845064       34.5766480222       20.0212311542
O         17.1167495113       35.4327546380       21.0082934828
C         15.9034807898       35.2162170125       21.7547499365
H         22.3088606714       23.2546121330        5.0494183056
H         21.1584535393       21.8703393128        6.7800432928
H         20.6827905805       22.8259338427        9.0187183098
H         22.5090415395       26.5556507581        7.7995781425
H         23.1783923625       25.5051376901       10.7619244330
H         22.5331586775       27.0055114233       10.0142410220
H         22.1183038952       26.0295190182       12.7548357681
H         19.5665482976       27.6735527587       12.8610794538
H         20.5806521664       30.4307236128       12.2674331368
H         17.7693186892       29.3529501413       11.7215368337
H         18.4023865072       30.9136560055       11.2427911166
H         20.0524178366       30.0959188622       14.6309385351
H         17.9884194369       29.6624432824       15.3090464974
H         19.7474777774       32.3420476051       13.6934760275
H         18.1197159816       31.9198752107       13.1574638458
H         17.8300479169       27.5861566986       10.1306262572
H         20.6394191440       30.8432769043        9.7416042965
H         18.6245245260       26.6449284111        7.9744101167
H         21.4352489498       29.8951867535        7.5862927707
H         17.2957170702       33.9147715962       16.1380981489
H         18.5897170702       34.3508691592       15.0225175123
H         20.4218178062       27.8009988855        6.6932159083
H         17.1131934535       33.7817357259       13.1047014042
H         15.8222458947       31.8696495489       14.1167039201
H         15.0235492424       32.9923915808       15.2348040260
H         14.7229285159       33.1065962044       13.4882115055
H         15.4109348524       35.5511083949       13.4241138593
H         15.6838816504       35.5343361074       15.1783017829
H         16.9750269330       36.0654403998       14.0796113111
H         16.8133125353       31.6749988825       18.3679004952
H         20.1811008047       34.3363075783       17.8392354393
H         15.9345386994       33.1353899194       20.1550659860
H         19.2932319752       35.8034110165       19.6377816296
H         15.7592177484       36.0264015517       22.4806624134
H         15.0342865861       35.1968412400       21.0845917725
H         15.9505689158       34.2671814379       22.3043756804
    79
VM2 Rank=28     G=206.017           E=113.401           -TS=92.615              
C         20.8704237844       26.7867406725        5.3269728793
C         19.9692984459       27.6460848011        5.9758640500
C         21.9639474243       26.2639037553        6.0325127227
C         20.1656469713       27.9773593012        7.3272488031
F         22.8329222909       25.4416048052        5.4091477836
C         22.1612219795       26.5924920122        7.3821005259
C         21.2592058986       27.4491896349        8.0430049378
N         21.4558343834       27.7872932598        9.4116541707
C         21.8348787098       26.9266828211       10.4252950395
C         21.2910369674       29.1550698470        9.8901859675
O         21.9491993148       27.6585727300       11.5696128550
O         22.0364171573       25.7274229173       10.3409463055
C         21.6917921237       29.0730327898       11.3731693445
C         20.6031625857       29.6246534787       12.3136139156
O         20.1718655743       30.7611923699       12.2217663630
N         20.0928487580       28.7267115425       13.2257713288
C         18.7472069752       28.8452834302       13.8101078829
C         17.9779380492       27.5243560798       13.5582609756
C         18.8056580721       29.2378287631       15.3133664690
C         17.9847843952       27.1083155041       12.0912820511
O         17.4837734752       29.2734110873       15.8542174318
C         19.4862595121       30.6197652067       15.5165726628
C         17.2914710960       27.8731667903       11.1352700279
C         18.6979801197       25.9680173119       11.6771443557
N         19.8284207410       30.9515692527       16.9286898342
C         17.3079817180       27.5011201879        9.7807002650
C         18.7118206376       25.5929263295       10.3234916356
C         20.7774976776       30.0357771109       17.6129868125
S         18.6207458367       31.6185568508       17.9388000122
C         18.0160338185       26.3586565717        9.3750657801
C         22.0966761562       29.7585775558       16.8435225698
C         17.7338284542       32.7812542028       16.8724367213
O         17.7595391491       30.5030138066       18.3533445476
O         19.3614156821       32.4365246884       18.9070796107
C         22.8844672171       31.0611784007       16.5753147810
C         22.9751066476       28.7701933953       17.6388753964
C         16.4496426758       32.4684575841       16.3851934505
C         18.3355661796       34.0005573898       16.5040513869
C         15.7778515888       33.3667391858       15.5392669682
C         17.6616793418       34.8980715633       15.6581063786
C         16.3771431265       34.5819101534       15.1716200134
O         15.6693976493       35.4219771764       14.3369659971
C         16.1784116386       36.6887876821       13.8763989893
H         20.7248619631       26.5269429514        4.2823444694
H         19.1197439013       28.0540601291        5.4335093028
H         19.4557011994       28.6374872759        7.8177832034
H         23.0172155579       26.1798769218        7.9077192816
H         21.9481575045       29.8410453147        9.3408856908
H         20.2457156284       29.4739135441        9.7856185860
H         22.6093583017       29.6475132078       11.5499940470
H         20.5195960462       27.8084706593       13.2057710188
H         18.2050640535       29.6450951314       13.2859132072
H         18.4091695422       26.7308218966       14.1813688662
H         16.9389567995       27.6380950426       13.8927502363
H         19.3951514434       28.4681097697       15.8282219331
H         17.5641278192       29.4188969606       16.8263333541
H         20.4081985140       30.6426358897       14.9261342047
H         18.8481032336       31.3909017822       15.0690791681
H         16.7412634285       28.7583247397       11.4430985866
H         19.2451685357       25.3720722419       12.4026174159
H         16.7706648782       28.0964555627        9.0468720473
H         19.2678011678       24.7128849660       10.0093925087
H         21.0473219101       30.4641351187       18.5883216254
H         20.2772737383       29.0806941955       17.8221706244
H         18.0294057190       26.0691917349        8.3272116282
H         21.8640131916       29.2830357758       15.8809326811
H         23.1415978004       31.5664631533       17.5150780778
H         23.8170994551       30.8505247425       16.0367300935
H         22.3008730999       31.7620935209       15.9656432370
H         23.8980781848       28.5392962415       17.0915458040
H         23.2555008066       29.1854865232       18.6155782418
H         22.4446944201       27.8247695901       17.8109539567
H         15.9746036020       31.5284682917       16.6560790113
H         19.3289397787       34.2488005907       16.8710153700
H         14.7885823620       33.1206482828       15.1634275863
H         18.1461863736       35.8307618090       15.3869443225
H         16.3805426092       37.3566436392       14.7237854667
H         17.1046870858       36.5492721268       13.3040871977
H         15.4418902657       37.1750358964       13.2242942994
    79
VM2 Rank=29     G=206.019           E=114.686           -TS=91.333              
C         22.2068442556       23.6632857489        5.9987697947
C         21.8002050217       22.8691359083        7.0831131750
C         22.4088767424       25.0389907295        6.1814213219
C         21.5945144210       23.4554260314        8.3436916085
F         22.7979159274       25.8042698945        5.1409445653
C         22.2067917650       25.6256766737        7.4394283758
C         21.7908719706       24.8384262182        8.5311628477
N         21.5827094548       25.4302120138        9.8088032578
C         20.5345931141       25.1724735681       10.6722715575
C         22.5195057187       26.4008315713       10.3625105809
O         20.7363106762       25.9087787663       11.8008022689
O         19.5891917453       24.4260204352       10.4847778897
C         21.9232533976       26.7409927796       11.7414705787
C         21.5940433915       28.2386266812       11.9087776890
O         22.3110909929       29.1255123980       11.4757954824
N         20.3990509093       28.5142099159       12.5375294405
C         19.6837529816       29.7930977267       12.4234848214
C         18.5072815620       29.6479374699       11.4204700193
C         19.2546098442       30.2828128616       13.8356655547
C         18.9284945920       29.0579895276       10.0790278170
O         18.3243926973       29.3710221728       14.4303972779
C         18.6563109976       31.7147417619       13.8267222302
C         19.7475758818       29.7958570684        9.2050079242
C         18.5080823602       27.7677482465        9.7058364818
N         18.1790324424       32.1899822555       15.1507993698
C         20.1391035047       29.2520405543        7.9702259474
C         18.8954846693       27.2244334936        8.4696785609
C         17.2744794262       33.3610305477       15.0666786638
S         19.2187846726       32.0013905860       16.5027294420
C         19.7087505675       27.9679487693        7.6001348452
C         15.8963012183       33.0842761299       15.7161162813
C         18.6312606573       33.1443788341       17.7824889598
O         18.9822162514       30.6257821388       16.9594110978
O         20.5311716598       32.4731623872       16.0451568425
C         15.0782125787       34.3882101488       15.8155934205
C         15.1080895005       32.0173771664       14.9239508063
C         17.7475567517       32.6986349470       18.7859728673
C         19.0720952015       34.4828938800       17.7980296683
C         17.2875133609       33.5857521703       19.7741197666
C         18.6115536171       35.3681449357       18.7868679768
C         17.7168249563       34.9279950262       19.7747912311
O         17.2969525820       35.8437887729       20.7171463729
C         16.3663459608       35.5227010871       21.7692253192
H         22.3660484498       23.2169600540        5.0213177977
H         21.6445747281       21.8015043484        6.9476307553
H         21.2831381965       22.8289527594        9.1758524892
H         22.3653109077       26.6931387280        7.5544111233
H         23.5174239156       25.9563955674       10.4652866924
H         22.5723079474       27.2916565803        9.7235492851
H         22.6194144242       26.4607978295       12.5413323155
H         19.8752492918       27.7150323403       12.8737580607
H         20.3766704197       30.5434840463       12.0180595287
H         17.7240264948       29.0250299459       11.8709153232
H         18.0482105298       30.6268789699       11.2427970332
H         20.1700221639       30.3031006252       14.4428734669
H         18.2697933272       29.6222002476       15.3819026887
H         19.4144501425       32.4088531718       13.4402155967
H         17.8131723395       31.7266808439       13.1259440209
H         20.0850673148       30.7898310640        9.4857366480
H         17.8826054471       27.1827973614       10.3750810891
H         20.7729077475       29.8270863132        7.2999306181
H         18.5679808430       26.2264912195        8.1882555201
H         17.7391938102       34.2408315217       15.5276907207
H         17.0975417501       33.6334686507       14.0172421742
H         20.0067561905       27.5487498483        6.6423236884
H         16.0435798625       32.7045607275       16.7338460509
H         14.8921614531       34.8168609978       14.8223469103
H         14.1072802094       34.2051418407       16.2935266957
H         15.6088514660       35.1378706636       16.4170274080
H         14.1358189213       31.8207198411       15.3932448468
H         14.9271474186       32.3434968702       13.8918562162
H         15.6569937772       31.0672552452       14.8873227408
H         17.4091681228       31.6650284002       18.7946245892
H         19.7659283962       34.8380699864       17.0395055600
H         16.6007141248       33.2203075377       20.5310538469
H         18.9483180911       36.4011634665       18.7896671876
H         16.1799024830       36.4086335838       22.3893099233
H         15.4081992515       35.1887261656       21.3503955630
H         16.7684316778       34.7307399316       22.4142573168
    79
VM2 Rank=30     G=206.025           E=114.684           -TS=91.341              
C         22.2716676347       23.7603384022        5.9399466888
C         22.1083144054       22.9691986935        7.0885230681
C         22.2864103889       25.1579797040        6.0544755085
C         21.9571998473       23.5799132958        8.3452183676
F         22.4416004734       25.9201746657        4.9524003067
C         22.1384856731       25.7694810319        7.3081933770
C         21.9657274995       24.9841965635        8.4649732075
N         21.8131212230       25.6007992885        9.7387470143
C         20.9165115005       25.2361211733       10.7255008168
C         22.6494705267       26.7225472549       10.1492800899
O         21.1290819777       26.0472445015       11.7994038403
O         20.0780527482       24.3527840763       10.6723156403
C         22.1648842984       27.0384637599       11.5769130617
C         21.6365561471       28.4790107976       11.7349528320
O         22.1609631276       29.4386216602       11.1942728993
N         20.4907367669       28.6084371282       12.4896878189
C         19.5842761645       29.7633006194       12.4203461713
C         18.3409915836       29.4029314048       11.5626409374
C         19.2420965133       30.2492027579       13.8574098162
C         18.6975168967       28.8193051587       10.1998600385
O         18.5307630150       29.2388788857       14.5810392333
C         18.4366498100       31.5756355492       13.8753408720
C         19.2966551825       29.6274847434        9.2164359553
C         18.4372103013       27.4657491018        9.9154896700
N         18.0394462936       32.0355203874       15.2309366758
C         19.6285432239       29.0900969366        7.9615347577
C         18.7648282075       26.9281871226        8.6596837621
C         16.9646541507       33.0559592296       15.2162288261
S         19.2370814062       32.0652486859       16.4594506874
C         19.3578803563       27.7413150218        7.6811908739
C         15.7243654814       32.6125809837       16.0303782557
C         18.6258947287       33.1656981405       17.7651718749
O         19.2648188910       30.6920875522       16.9795331715
O         20.4040323257       32.7052393290       15.8406371117
C         14.7338309943       33.7854601408       16.1807550703
C         15.0249102318       31.4029841196       15.3710205962
C         18.8525262671       34.5548876252       17.6895245510
C         17.9405435378       32.6394649217       18.8784059115
C         18.3752793968       35.4096653091       18.6977748680
C         17.4642000736       33.4954716082       19.8853926696
C         17.6743323889       34.8806716447       19.7999506040
O         17.1806136793       35.6706451893       20.8174014905
C         17.3152746601       37.1050158342       20.8386610105
H         22.3873237854       23.2949347643        4.9652739939
H         22.0987209275       21.8850083281        7.0057449325
H         21.8350739288       22.9559955699        9.2271058576
H         22.1487938170       26.8529251662        7.3702709568
H         23.7078484062       26.4331273716       10.1491351957
H         22.4974492006       27.5798846750        9.4810734345
H         22.9789168299       26.9002995852       12.2988468612
H         20.1325257693       27.7588395966       12.9091970969
H         20.1092583783       30.5870638277       11.9169576848
H         17.7130220243       28.6943661446       12.1176142705
H         17.7243603793       30.2956732150       11.4096244733
H         20.2044449693       30.4317304174       14.3550711164
H         18.5429674528       29.5226728964       15.5248274644
H         19.0345003087       32.3553147362       13.3848028397
H         17.5303695117       31.4312547919       13.2754147760
H         19.5098327247       30.6719031817        9.4272438571
H         17.9830556225       26.8274732331       10.6689000012
H         20.0922001234       29.7197802410        7.2064167560
H         18.5619533099       25.8812791012        8.4471525989
H         17.3394216230       34.0157118122       15.5916268339
H         16.6333657444       33.2480410014       14.1865715605
H         19.6092974681       27.3262604162        6.7083306086
H         16.0384301768       32.3103709037       17.0362114174
H         14.3768320323       34.1315656131       15.2021562418
H         13.8604256574       33.4859364351       16.7741381716
H         15.2073831524       34.6342509140       16.6912010815
H         14.1512665213       31.0894177336       15.9563783106
H         14.6842721457       31.6466933555       14.3566818380
H         15.7041954538       30.5431992640       15.3024091969
H         19.3937532953       34.9728942899       16.8437604008
H         17.7689046144       31.5685059846       18.9587042410
H         18.5560003962       36.4765888675       18.6126950079
H         16.9287496007       33.0854989015       20.7372916819
H         16.8419506206       37.5135369703       21.7404471368
H         18.3739442718       37.3950497390       20.8453055544
H         16.8288030580       37.5529155589       19.9624654630
