    79
VM2 Rank=1      G=215.653           E=129.884           -TS=85.769              
C         22.9776703161       24.4557212167        6.0279634562
C         23.2429162478       23.5583680181        7.0741340372
F         23.0798669984       24.0310724532        4.7486616496
C         22.6077224635       25.7817078628        6.3188330699
C         23.1362114653       23.9848110407        8.4094331401
F         22.3412082498       26.6578275604        5.3245470083
C         22.5047454755       26.2077124729        7.6524489189
C         22.7639299705       25.3105768084        8.7069315196
N         22.6492329349       25.7388038153       10.0574547982
C         23.2662819241       26.9753436993       10.5236514212
C         21.9875538686       25.0742681206       11.0722388828
C         22.7910833453       27.0863440308       11.9831769770
O         22.1169308078       25.8198024016       12.2061169924
O         21.3939692101       24.0125040522       10.9958634374
C         21.8583083753       28.2970252894       12.1886481429
N         20.5513320615       28.0005199611       12.5030479811
O         22.2284250791       29.4467568023       12.0200261785
C         19.4370330887       28.9417956961       12.3361220895
C         19.1268825295       29.6666024107       13.6756415771
C         18.2199421828       28.2061979640       11.7205445191
C         18.1323159653       30.8419543961       13.4796588413
O         18.6175318327       28.7397493983       14.6396682596
C         18.5614081705       27.5269981140       10.3997265201
N         18.1139346130       31.8364868151       14.5869738333
C         18.7361225913       26.1318904387       10.3394641573
C         18.7192899175       28.2933053312        9.2304311861
S         17.1369721653       31.4603918370       15.9374956819
C         19.3926227022       32.5436463470       14.8711628816
C         19.0587436813       25.5091605539        9.1222913393
C         19.0419050321       27.6714881691        8.0125442887
O         15.8132124538       31.1751626385       15.3714852399
O         17.8738851664       30.4700374667       16.7332059100
C         16.9714991144       33.0415758069       16.7987623735
C         20.0549163402       33.2149801132       13.6397744755
C         19.2076385250       26.2783892747        7.9575802938
C         16.2121213120       34.0796206840       16.2266365959
C         17.6187886917       33.2551151533       18.0312098310
C         19.1236529232       34.2717703214       13.0027641944
C         21.3889088853       33.8728536403       14.0507898892
C         16.0997191364       35.3152887258       16.8819336496
C         17.5059711447       34.4928630284       18.6878979361
F         15.3648185607       36.2925719130       16.3054527051
C         16.7441282392       35.5342168830       18.1169954773
O         16.6106870021       36.7669836721       18.7316549645
C         17.2299592390       37.0987376016       19.9899536778
H         23.5286030385       22.5347405971        6.8487564856
H         23.3428078573       23.2815129269        9.2126502161
H         22.2045079096       27.2305205147        7.8586572414
H         22.9306593580       27.8349178823        9.9293917050
H         24.3595128535       26.8944201168       10.4752900506
H         23.6423013254       27.1987988017       12.6656824373
H         20.3363478244       27.0241973949       12.6590616600
H         19.7526039181       29.7094753249       11.6152959220
H         20.0825600047       30.0735329422       14.0304353411
H         17.8381138599       27.4673552944       12.4368276499
H         17.4011694578       28.9166196163       11.5565397170
H         18.3849986219       31.3544822794       12.5438732322
H         17.1252614891       30.4304077036       13.3313302673
H         18.5364792930       29.2194403223       15.4975932710
H         18.6253579070       25.5281340109       11.2363313704
H         18.5921676983       29.3719282916        9.2659052843
H         19.2259666260       33.3342465699       15.6132896164
H         20.1067319141       31.8433215845       15.3249376179
H         19.1964771039       24.4312747976        9.0837980577
H         19.1621106364       28.2685692364        7.1120467473
H         20.2895433326       32.4492067181       12.8875663138
H         19.4566029968       25.7966035801        7.0153791093
H         15.7129024973       33.9304752161       15.2729256887
H         18.2122914515       32.4613761814       18.4797979686
H         18.8713849035       35.0610269611       13.7225993098
H         18.1858541751       33.8205585443       12.6556641692
H         19.6039318000       34.7443463993       12.1365100042
H         21.2308739601       34.6588296658       14.8006628578
H         22.0776460005       33.1308254302       14.4750424076
H         21.8841032943       34.3275327889       13.1831246894
H         18.0151065569       34.6308100835       19.6367041233
H         18.3223777559       37.0185901428       19.9180600457
H         16.8750981365       36.4306959917       20.7854160083
H         16.9797480735       38.1295120040       20.2711708255
    79
VM2 Rank=2      G=215.684           E=129.962           -TS=85.722              
C         23.0232096714       24.4138031791        6.0591121511
C         23.2694479304       23.5255474868        7.1176178870
F         23.1436782046       23.9767910552        4.7855763530
C         22.6531471191       25.7436165307        6.3317999829
C         23.1436345345       23.9649038952        8.4470532623
F         22.4048273833       26.6111530263        5.3253516495
C         22.5310813715       26.1825061895        7.6596165392
C         22.7711140341       25.2945641655        8.7263439844
N         22.6371975842       25.7358818182       10.0708825225
C         23.2508151194       26.9750007951       10.5347334000
C         21.9584861392       25.0826972705       11.0817761285
C         22.7554150593       27.1002856484       11.9863935317
O         22.0735368026       25.8381125686       12.2106286328
O         21.3626886350       24.0221060498       11.0062543162
C         21.8243345863       28.3159952260       12.1687429630
N         20.5140453162       28.0269303812       12.4762461926
O         22.1991283834       29.4625191949       11.9889591514
C         19.4035571018       28.9690509288       12.2895811067
C         19.0765571779       29.7009559954       13.6211650579
C         18.1938579994       28.2323704536       11.6608740564
C         18.0850761739       30.8756496600       13.4063889604
O         18.5543275813       28.7791447388       14.5831253959
C         18.5524083570       27.5458676886       10.3483785973
N         18.0537631137       31.8766177862       14.5076087320
C         18.7242102998       26.1500311340       10.2973418703
C         18.7291237801       28.3060753596        9.1777988463
S         17.0605507103       31.5083307009       15.8484545599
C         19.3291703525       32.5851200214       14.8029524728
C         19.0625529430       25.5205516835        9.0879312053
C         19.0675208743       27.6775187722        7.9676816998
O         15.7431249466       31.2217059626       15.2685320387
O         17.7867456427       30.5210540739       16.6576916540
C         16.8878428823       33.0928075943       16.7023637692
C         20.0072489903       33.2479836428       13.5755573269
C         19.2302413937       26.2837383678        7.9217963188
C         17.5178017394       33.3051253621       17.9433603185
C         16.1409929118       34.1337656031       16.1178751129
C         19.0847739691       34.3013310621       12.9203504449
C         21.3365479834       33.9075724825       13.9988619412
C         17.3976032681       34.5439767694       18.5917537835
C         16.0213399950       35.3747908106       16.7667505902
F         18.0151823748       34.7171722578       19.7817344552
C         16.6499921270       35.5894455386       18.0113975866
O         16.5573910864       36.7970703260       18.6810080043
C         15.8267063497       37.9317607424       18.1755954459
H         23.5552530469       22.4989609766        6.9062838373
H         23.3356353609       23.2685752824        9.2599067620
H         22.2311366669       27.2081720129        7.8515728324
H         22.9257248681       27.8299769553        9.9281127773
H         24.3444097430       26.8910329200       10.5024769780
H         23.5973566295       27.2153814721       12.6798760340
H         20.2951517917       27.0531313639       12.6424116841
H         19.7298822022       29.7328394114       11.5694213589
H         20.0277929764       30.1092338219       13.9861991422
H         17.8008683320       27.4978483168       12.3755583580
H         17.3786795934       28.9433117927       11.4819032796
H         18.3492686427       31.3826169300       12.4707570059
H         17.0796657448       30.4637013198       13.2483017721
H         18.4626880928       29.2630969545       15.4375898981
H         18.5990076384       25.5509445586       11.1954420993
H         18.6044328400       29.3851889499        9.2062605747
H         19.1534968361       33.3808580129       15.5374432005
H         20.0371900505       31.8875440196       15.2703098349
H         19.1978595711       24.4421251813        9.0565941950
H         19.2022191323       28.2699183995        7.0661453894
H         20.2505996666       32.4772552015       12.8312311027
H         19.4913418032       25.7967388490        6.9855768304
H         18.1019995103       32.5138874759       18.4054792201
H         15.6563378009       33.9797533213       15.1560943070
H         18.1510206799       33.8485209553       12.5645435266
H         18.8242051133       35.0951823641       13.6321096385
H         19.5761078024       34.7681388061       12.0571766119
H         21.8428267197       34.3563026049       13.1345022923
H         21.1698202407       34.6984937307       14.7416214213
H         22.0194050900       33.1678433064       14.4364234862
H         15.4403146520       36.1598851452       16.2929897013
H         15.9001190880       38.7696552405       18.8803826344
H         14.7650772361       37.6839908977       18.0470714694
H         16.2358320063       38.2584616132       17.2107831086
    79
VM2 Rank=3      G=215.763           E=129.377           -TS=86.385              
C         23.0369435351       23.3689732283        6.2461452438
C         23.1552208831       22.7218986158        7.4858245217
F         23.1923363454       22.6556578890        5.1083927769
C         22.7597874808       24.7474749901        6.1995184451
C         22.9934099216       23.4505810700        8.6770994602
F         22.6397439284       25.3876553859        5.0150267100
C         22.6013261025       25.4749589538        7.3896324422
C         22.7106368277       24.8307659980        8.6379979349
N         22.5454075152       25.5664856606        9.8447965307
C         23.1725706261       26.8685545794       10.0386108171
C         21.8253805708       25.1687363492       10.9554337716
C         22.7205680704       27.2860617507       11.4511476493
O         21.9548591622       26.1393726936       11.9027520075
O         21.1848423009       24.1403441202       11.0899693655
C         21.8823537253       28.5811960557       11.4619703522
N         20.7995149949       28.5772266176       12.3145341238
O         22.1233323370       29.5316616945       10.7362339406
C         19.6495896046       29.4836766824       12.1896964495
C         19.3127454244       30.1107248606       13.5717895089
C         18.4557727813       28.7368023851       11.5369582881
C         18.1938200560       31.1822779811       13.4704711315
O         18.9406135335       29.0858580435       14.4993556901
C         18.8175755405       28.0619888666       10.2186521313
N         18.0864944721       32.0913201220       14.6443417263
C         18.8606245983       26.6582894365       10.1264521432
C         19.1177063932       28.8369282167        9.0834617597
S         17.1827616895       31.5229373968       15.9786064653
C         19.2802433075       32.9228284538       14.9571937210
C         19.1919755820       26.0361725350        8.9113175911
C         19.4529774301       28.2160690583        7.8686162941
O         15.8940730250       31.1126396215       15.4085227259
O         18.0451030137       30.5844017150       16.7082284186
C         16.8422525923       33.0203267510       16.9331836298
C         19.8065692298       33.7742754704       13.7728251685
C         19.4850464444       26.8152209877        7.7809852306
C         17.4678857113       33.2297079607       18.1768400613
C         15.9667566130       33.9991721487       16.4249131911
C         18.7263353038       34.7515189337       13.2552198640
C         21.0611062214       34.5621879346       14.2050047782
C         17.2162554804       34.4038505800       18.9032769956
C         15.7154977669       35.1755275891       17.1519001487
F         17.8331573951       34.5761873911       20.0937340696
C         16.3396437985       35.3869102401       18.3993708063
O         16.1196318590       36.5321485301       19.1445819052
C         15.2515508047       37.6014444553       18.7204140134
H         23.3713679830       21.6578199979        7.5214660818
H         23.0898559782       22.9380655249        9.6312355954
H         22.3822052877       26.5365854343        7.3323855667
H         22.8241502309       27.5827617558        9.2817542981
H         24.2649064176       26.7776992840        9.9887532955
H         23.5872803442       27.4440697155       12.1044115793
H         20.6834787405       27.7518710334       12.8902126928
H         19.9308611499       30.3091318440       11.5210129121
H         20.2326382359       30.5982403644       13.9194051125
H         18.0676624436       27.9910426905       12.2424142732
H         17.6329764182       29.4392307675       11.3597350451
H         18.3718458757       31.7807166938       12.5691038382
H         17.2344057346       30.6742676671       13.3064786758
H         18.8280217089       29.5106511880       15.3823749044
H         18.6392895421       26.0471036093       10.9975526627
H         19.0951195900       29.9215852267        9.1441705207
H         19.0476091336       33.6205230448       15.7711921756
H         20.0903158130       32.2802147049       15.3272852042
H         19.2234482929       24.9511512820        8.8475703929
H         19.6841525884       28.8207177806        6.9953025552
H         20.1063499545       33.1104466498       12.9505223763
H         19.7381840244       26.3344106705        6.8393650911
H         18.1501706626       32.4865348601       18.5806714863
H         15.4843223749       33.8476966441       15.4616147062
H         17.8424598777       34.2130653889       12.8912449003
H         18.4006578554       35.4364547713       14.0486482193
H         19.1115609019       35.3551451266       12.4235779320
H         21.4637323975       35.1463316137       13.3674577851
H         20.8319284437       35.2575968367       15.0229186244
H         21.8525341101       33.8831683426       14.5476539404
H         15.0369842725       35.9137334830       16.7358701815
H         15.2404597126       38.3977680593       19.4753490656
H         14.2238088260       37.2385877130       18.5898506873
H         15.6005875797       38.0320933778       17.7729446696
    79
VM2 Rank=4      G=215.805           E=129.239           -TS=86.566              
C         23.7825907230       24.4440247836        6.3697560653
C         24.4845513188       24.3363085765        7.5801823235
F         24.1589166218       23.6863201102        5.3153881190
C         22.6993926916       25.3356746764        6.2654669692
C         24.1025765436       25.1159926376        8.6858295006
F         22.0093356725       25.4509938671        5.1088555362
C         22.3204636261       26.1160725458        7.3691355076
C         23.0151516578       26.0074949155        8.5902399288
N         22.6286622269       26.7960358549        9.7099248241
C         22.3125760632       28.2130188036        9.5721392415
C         22.5240304685       26.3666912454       11.0198982189
C         22.0209563326       28.6634022914       11.0142133855
O         22.1619281380       27.4387093619       11.7798977885
O         22.7140863366       25.2405028920       11.4457882042
C         20.6288222457       29.3068849393       11.1636917589
N         19.7843642303       28.6960128854       12.0651474335
O         20.2701248467       30.2576435171       10.4903154354
C         18.3171397819       28.7993743489       12.0034058132
C         17.7553231549       29.6327146927       13.1901044330
C         17.7221883294       27.3706086695       11.9293603678
C         18.2584879567       31.1029659808       13.1484892325
O         16.3264072699       29.6220906841       13.1609374514
C         18.3312513311       26.5323580288       10.8104836066
N         18.1218369486       31.8496319814       14.4285775463
C         18.0835925390       26.8603503127        9.4648491447
C         19.1560181632       25.4325395133       11.1117917328
S         16.6027339979       32.5645431841       14.7435528951
C         18.8584077467       31.3015691558       15.6001226759
C         18.6490655357       26.0945828729        8.4316283392
C         19.7191347390       24.6640796276       10.0794301225
O         16.3209143139       33.3804215739       13.5565829440
O         15.7063361324       31.4850179786       15.1774063337
C         16.9482349270       33.7375050961       16.0756083042
C         20.3654142574       31.0273177385       15.3533022390
C         19.4636083110       24.9932026373        8.7391097052
C         16.4741844806       33.4947807326       17.3788171239
C         17.7163793050       34.8901083383       15.8216780415
C         21.1175040820       32.3157515082       14.9484852752
C         21.0072827546       30.4226141007       16.6195591528
C         16.7634918716       34.3978557982       18.4134062112
C         18.0069672664       35.7940659375       16.8579727570
F         16.2950187407       34.1362365190       19.6541921444
C         17.5314124712       35.5541580624       18.1643849544
O         17.7972873774       36.4188176949       19.2117580711
C         18.5778464712       37.6219533276       19.0701331408
H         25.3223255505       23.6492389596        7.6596439877
H         24.6563304725       25.0251570198        9.6171751528
H         21.4770698794       26.7924459181        7.2711233940
H         21.4303381098       28.3503205452        8.9333769728
H         23.1659019230       28.7613232301        9.1534357705
H         22.7661589934       29.3985594228       11.3419855841
H         20.1837235900       27.9073763920       12.5592910827
H         18.0370678862       29.3203129388       11.0768712369
H         18.1086354855       29.1544823871       14.1124337373
H         17.8598272541       26.8716384652       12.8968403357
H         16.6373829821       27.4350827882       11.7766252311
H         19.3126384934       31.1104519958       12.8528087081
H         17.7290425344       31.6294309659       12.3431886698
H         16.0103173616       30.0850789272       13.9731287714
H         17.4520455635       27.7102658954        9.2203246613
H         19.3631448489       25.1716975570       12.1461993019
H         18.7958551223       32.0014161166       16.4425857366
H         18.3757953645       30.3735844624       15.9349102237
H         18.4526363851       26.3522884990        7.3939429269
H         20.3567709353       23.8166010302       10.3192211511
H         20.4751102109       30.2871735688       14.5491866398
H         19.8983504689       24.3974318521        7.9404315071
H         15.8845158167       32.6073816344       17.5925904942
H         18.0918794096       35.0815141065       14.8186741504
H         22.1829978734       32.1109892779       14.7839863144
H         20.7146945665       32.7378508221       14.0193725420
H         21.0362263391       33.0822615654       15.7298205541
H         20.5069864453       29.4883846280       16.9053809883
H         22.0671766580       30.1936256669       16.4493873864
H         20.9430730344       31.1162483020       17.4679711955
H         18.6020917187       36.6739350259       16.6342190421
H         18.1096373942       38.3060940563       18.3506229987
H         19.5944992642       37.3871682892       18.7291389194
H         18.6508564713       38.1378438135       20.0359006138
    79
VM2 Rank=5      G=215.812           E=129.425           -TS=86.387              
C         23.0051042278       23.3839239814        6.2162626016
C         23.1292998537       22.7271179464        7.4502304922
F         23.1496336068       22.6785060670        5.0721726161
C         22.7333720002       24.7638631423        6.1818429907
C         22.9788002967       23.4475290824        8.6479994166
F         22.6077958227       25.4133764560        5.0030195026
C         22.5862065475       25.4830713948        7.3784197081
C         22.7014932799       24.8291193465        8.6211643325
N         22.5477748586       25.5564804562        9.8345424002
C         23.1812045546       26.8547524176       10.0333858250
C         21.8343350531       25.1531880408       10.9474333592
C         22.7420672669       27.2629153273       11.4526908968
O         21.9745480879       26.1161557801       11.9010253571
O         21.1907117176       24.1263325085       11.0789523602
C         21.9101162581       28.5618173406       11.4805128618
N         20.8338720866       28.5559259265       12.3413697497
O         22.1499668272       29.5170110803       10.7606342861
C         19.6870555070       29.4683465085       12.2324748319
C         19.3629312439       30.0850361636       13.6222554075
C         18.4853118985       28.7321217318       11.5821612270
C         18.2477102936       31.1619315601       13.5383314772
O         18.9934750386       29.0538499035       14.5438764880
C         18.8347271165       28.0664834289       10.2558678383
N         18.1519106931       32.0603954381       14.7213016549
C         18.8707960130       26.6634031859       10.1519607211
C         19.1303554548       28.8493137264        9.1249186556
S         17.2550062827       31.4835114814       16.0564774116
C         19.3508530224       32.8846225623       15.0335207536
C         19.1907924569       26.0497513355        8.9295006228
C         19.4542950232       28.2368997726        7.9027346189
O         15.9613225491       31.0825248037       15.4911155326
O         18.1190120130       30.5360009168       16.7724402162
C         16.9244755885       32.9748769207       17.0237616232
C         19.8704013013       33.7468592558       13.8539969742
C         19.4794400333       26.8366839634        7.8035001582
C         16.0457248074       33.9561007685       16.5273063685
C         17.5603881218       33.1780636337       18.2638341799
C         18.7889952934       34.7323438434       13.3547275997
C         21.1304392634       34.5268235898       14.2845775672
C         15.8043671705       35.1251724425       17.2647916211
C         17.3182805648       34.3490085857       19.0029408968
F         14.9568958313       36.0493366447       16.7596252161
C         16.4368157454       35.3332455025       18.5078855322
O         16.1743589159       36.4997863124       19.2047482124
C         16.7695604110       36.8154197234       20.4787078369
H         23.3412736692       21.6619260538        7.4764369930
H         23.0797747812       22.9274935414        9.5975867607
H         22.3711667276       26.5459967730        7.3306028219
H         22.8291944407       27.5760268443        9.2849326293
H         24.2727708072       26.7604672336        9.9739665195
H         23.6145647273       27.4115539902       12.1004292948
H         20.7184427718       27.7264615219       12.9112374765
H         19.9671100685       30.2982163007       11.5687618983
H         20.2873397673       30.5658926621       13.9671583808
H         18.0988537884       27.9823499864       12.2842626820
H         17.6644484580       29.4396158214       11.4165076202
H         18.4221880150       31.7679904464       12.6413708433
H         17.2851751474       30.6592972553       13.3760908082
H         18.8891195362       29.4715973234       15.4312544311
H         18.6528372812       26.0461242624       11.0196091061
H         19.1130947266       29.9335298312        9.1946012357
H         19.1271913536       33.5742756717       15.8568572212
H         20.1617075038       32.2355091885       15.3902912460
H         19.2169145614       24.9651571466        8.8567114281
H         19.6820567876       28.8476206468        7.0327556713
H         20.1619496922       33.0906889318       13.0226340677
H         19.7237863673       26.3624498302        6.8562400881
H         15.5536504704       33.8149612186       15.5686778420
H         18.2453135765       32.4284789344       18.6543454290
H         19.1695812685       35.3433335565       12.5263302759
H         18.4712941342       35.4101728379       14.1574600989
H         17.9008220418       34.2001407311       12.9920108740
H         21.5283104741       35.1184180282       13.4499938529
H         20.9094892128       35.2144274975       15.1113049358
H         21.9225218644       33.8421355157       14.6141821838
H         17.8215324802       34.4804909752       19.9557942597
H         16.4092779933       37.7906071411       20.8299774923
H         17.8630050310       36.8638066923       20.3949969319
H         16.5025855788       36.0605995570       21.2296644508
    79
VM2 Rank=6      G=215.821           E=128.809           -TS=87.012              
C         21.1658858379       23.6265296025        6.6380035698
C         21.2840303544       22.9562192929        7.8652656937
F         20.9475519304       22.9127166110        5.5109511549
C         21.2762002133       25.0283028986        6.5924482505
C         21.5085993988       23.6858741541        9.0457152918
F         21.1630293364       25.6917685426        5.4201565309
C         21.5033853925       25.7559020696        7.7713071428
C         21.6149205127       25.0908111124        9.0085182740
N         21.8411891255       25.8280320771       10.2045914484
C         22.8202836857       26.9069913194       10.2639087565
C         21.2183573879       25.6273590325       11.4220398071
C         22.7285967780       27.4055044503       11.7188113823
O         21.7510604085       26.5117799610       12.3110190648
O         20.3495335609       24.8123983949       11.6808428619
C         22.3024360108       28.8840321819       11.8286724498
N         21.4099429859       29.1679134276       12.8396781315
O         22.6848791668       29.7427167633       11.0511192162
C         20.5555937244       30.3628447049       12.8730775464
C         20.6167226464       31.0169442704       14.2822985619
C         19.1162305973       29.9961509358       12.4193029647
C         19.8438606741       32.3618554122       14.3368832424
O         20.1146144252       30.1063414514       15.2651858507
C         19.0727545290       29.2622317698       11.0838625631
N         20.0708504538       33.1680687329       15.5700317340
C         18.6945110211       27.9077598637       11.0288800548
C         19.4144420222       29.9314725790        9.8945174445
S         19.1768255084       32.7955949037       16.9807273405
C         21.4631315872       33.6203977835       15.8227808245
C         18.6503045069       27.2321854927        9.7980343735
C         19.3745976964       29.2558770818        8.6633918041
O         19.8314841143       31.6330084075       17.5948568371
O         19.0383766177       34.0793495106       17.6787489984
C         17.5256717958       32.3745424526       16.3701065638
C         22.1313407182       34.3807017027       14.6469042377
C         18.9871871204       27.9073252723        8.6143458739
C         16.6686568566       33.3884987877       15.9014296366
C         17.0957405974       31.0336229498       16.3299573403
C         21.3301813141       35.6442244077       14.2579912846
C         23.5758019015       34.7722288496       15.0235449462
C         15.3997968416       33.0638569500       15.3976505905
C         15.8260520396       30.7080574997       15.8230300617
F         14.6031118614       34.0605800399       14.9512255531
C         14.9670837161       31.7226475247       15.3511880929
O         13.7116508124       31.4418289440       14.8410910796
C         13.1855422145       30.1059498275       14.7169055713
H         21.2011158231       21.8735426220        7.8997599299
H         21.6009765482       23.1543178189        9.9897725779
H         21.5801166698       26.8372602752        7.7157221877
H         22.5616295493       27.7029492085        9.5540143201
H         23.8249804638       26.5246870788       10.0439908590
H         23.6951163320       27.2982646296       12.2260052671
H         21.1574328283       28.3972383345       13.4466205937
H         20.9551228068       31.0948649145       12.1574252274
H         21.6765583461       31.2201175486       14.4854102186
H         18.6379757808       29.3840015397       13.1945558156
H         18.5102493064       30.9058555021       12.3385719610
H         20.1401281295       32.9548573939       13.4634518607
H         18.7758682295       32.1619055101       14.1992261398
H         20.3000468224       30.4933008006       16.1525535016
H         18.4360221654       27.3758373846       11.9407733856
H         19.7153593896       30.9750999121        9.9251956030
H         21.4679882832       34.2909495180       16.6934975202
H         22.0862128557       32.7575406403       16.0939606170
H         18.3572223218       26.1856755378        9.7631416695
H         19.6401882577       29.7787483511        7.7480990939
H         22.1921987652       33.7184217631       13.7727020982
H         18.9496206629       27.3861172061        7.6610404495
H         16.9877496544       34.4271626860       15.9212496532
H         17.7489837127       30.2397331010       16.6850188056
H         20.3134942792       35.3886278596       13.9347485849
H         21.2492298559       36.3359590605       15.1062972697
H         21.8166686826       36.1770044703       13.4310429898
H         24.1710790842       33.8841868146       15.2722420245
H         24.0730219606       35.2831508807       14.1889606301
H         23.5916767559       35.4457309275       15.8902721709
H         15.5231298126       29.6659132084       15.8002741178
H         13.8234702229       29.4970095999       14.0632370661
H         12.1791135374       30.1380013501       14.2807450893
H         13.1177302156       29.6223205153       15.6999777097
    79
VM2 Rank=7      G=215.881           E=129.464           -TS=86.418              
C         23.0149863163       23.5972079767        6.0103714618
C         22.7282686116       24.9707554700        5.9909441345
F         23.1701551594       22.9358134577        4.8416214973
C         23.1396753870       22.9252392394        7.2400716711
C         22.5648245626       25.6716853840        7.1983434829
F         23.4198969567       21.6032658956        7.2780136705
C         22.9752903144       23.6259341385        8.4456289522
C         22.6813990198       25.0039787396        8.4344215345
N         22.5153078993       25.7146235988        9.6565091917
C         23.1189169221       27.0252398434        9.8669535920
C         21.8184528375       25.2820081642       10.7690539113
C         22.7040327629       27.3939532447       11.3041245750
O         21.9448941444       26.2349404212       11.7345669272
O         21.1971076288       24.2403448792       10.8910597624
C         21.8759039235       28.6928684065       11.3836962277
N         20.8119914450       28.6629712379       12.2592618057
O         22.1067216372       29.6682330862       10.6883013116
C         19.6582049667       29.5699196479       12.1820150485
C         19.3460430018       30.1572103367       13.5871676723
C         18.4534605350       28.8392031750       11.5307151039
C         18.2216275235       31.2266062755       13.5369534825
O         18.9953037176       29.1056907731       14.4930034638
C         18.7956552800       28.1886211882       10.1949825610
N         18.1327063956       32.1013543512       14.7381091502
C         18.8219525982       26.7867607355       10.0731534191
C         19.0969950739       28.9837254195        9.0741035571
S         17.2562597791       31.4916832915       16.0723166702
C         19.3286879562       32.9292172473       15.0520704476
C         19.1384747530       26.1865544687        8.8431896422
C         19.4181164938       28.3846653706        7.8445765885
O         15.9590637040       31.0914346636       15.5145285593
O         18.1360133311       30.5374682237       16.7596235454
C         16.9258262355       32.9613696300       17.0722677781
C         19.8270613722       33.8184211647       13.8834794933
C         19.4342417643       26.9856546114        7.7277733429
C         16.0335007057       33.9449364002       16.6055545214
C         17.5751509226       33.1456210108       18.3083438320
C         18.7317817376       34.8042936829       13.4162374908
C         21.0857657239       34.6004400383       14.3142357060
C         15.7920296472       35.0975502788       17.3684767934
C         17.3329502854       34.3000735689       19.0729175157
F         14.9313182342       36.0244920119       16.8915754085
C         16.4379061231       35.2866063691       18.6077015073
O         16.1748935651       36.4373122852       19.3302140538
C         16.7831830451       36.7330505963       20.6027699357
H         22.6326736717       25.4892605036        5.0410841017
H         22.3375860548       26.7338261625        7.1663940040
H         23.0792709889       23.0920774850        9.3857987347
H         22.7266457592       27.7505097987        9.1426498385
H         24.2108038395       26.9637874834        9.7778454093
H         23.5885423815       27.5225388232       11.9397603782
H         20.7045003604       27.8172337203       12.8062911231
H         19.9254440654       30.4144785975       11.5316937974
H         20.2708105407       30.6385559220       13.9304259481
H         18.0727170258       28.0807917608       12.2266159820
H         17.6305303130       29.5473670317       11.3785192143
H         18.3809259479       31.8511920928       12.6499357696
H         17.2612162851       30.7194748915       13.3760357299
H         18.8986372083       29.5054468456       15.3894883361
H         18.5998947689       26.1599103744       10.9328395505
H         19.0875509507       30.0670633425        9.1576209362
H         19.1094522732       33.6009276148       15.8912748126
H         20.1489556470       32.2800184679       15.3864639281
H         19.1574547193       25.1028394236        8.7565519184
H         19.6509590625       29.0048578849        6.9826972282
H         20.1139846353       33.1809048387       13.0361475953
H         19.6767726128       26.5213913423        6.7752270935
H         15.5309353097       33.8184301930       15.6503315483
H         18.2705828984       32.3941387701       18.6759727018
H         18.4181633805       35.4637735184       14.2356864816
H         17.8437129968       34.2717890133       13.0537071852
H         19.0974682191       35.4343718258       12.5954630089
H         21.8872905275       33.9161609199       14.6210767416
H         21.4687842820       35.2113893918       13.4866767623
H         20.8691348987       35.2700406960       15.1567336359
H         17.8467189155       34.4171307900       20.0220316975
H         17.8751101389       36.7918232624       20.5067920983
H         16.5313258761       35.9617472252       21.3421104570
H         16.4196456292       37.6983454647       20.9772439605
    79
VM2 Rank=8      G=215.892           E=129.485           -TS=86.406              
C         23.0500696391       23.5876908569        6.0365803746
C         22.7685725878       24.9622097793        6.0105000964
F         23.2205078958       22.9237177243        4.8714235729
C         23.1537623493       22.9174205332        7.2691589505
C         22.5894356488       25.6658177557        7.2141083423
F         23.4286373548       21.5945274625        7.3135548935
C         22.9736993859       23.6207899255        8.4709155643
C         22.6849935550       24.9998473026        8.4529163761
N         22.5030674048       25.7132113594        9.6711298278
C         23.1093280671       27.0213873645        9.8889253376
C         21.7869858189       25.2855430626       10.7733183482
C         22.6723970898       27.3950286923       11.3182709529
O         21.9022682488       26.2397049148       11.7390254416
O         21.1594796732       24.2466743972       10.8873629687
C         21.8475655594       28.6969644311       11.3810534979
N         20.7692685738       28.6729657092       12.2390282998
O         22.0932163499       29.6697994828       10.6871943810
C         19.6203691321       29.5840652060       12.1406957022
C         19.2892560697       30.1785528136       13.5384311487
C         18.4228225930       28.8555421341       11.4739257674
C         18.1712976240       31.2534407266       13.4661534991
O         18.9188694209       29.1325802194       14.4428442930
C         18.7827694576       28.1990382190       10.1457770909
N         18.0695922239       32.1352230487       14.6611400419
C         19.1040381073       28.9891045052        9.0268688908
C         18.8054995447       26.7966765932       10.0291279689
S         17.1700789840       31.5372314870       15.9852932834
C         19.2656482955       32.9577762615       14.9885852465
C         19.4414131488       28.3845738456        7.8043902640
C         19.1382702701       26.1910174256        8.8061449232
O         15.8782230811       31.1432164950       15.4109081510
O         18.0333475786       30.5800024466       16.6890742435
C         16.8366911424       33.0122061305       16.9765852766
C         19.7890108125       33.8353468703       13.8220958275
C         19.4538915447       26.9851162464        7.6926021213
C         17.4678007535       33.1905712910       18.2223099839
C         15.9614561663       34.0048162376       16.4952769787
C         18.7083954419       34.8256874599       13.3308446089
C         21.0462469142       34.6114156237       14.2676589667
C         17.2218899721       34.3476987870       18.9774304817
C         15.7159376553       35.1641585382       17.2509953404
F         17.8440064181       34.4903256235       20.1691035581
C         16.3456315652       35.3444563040       18.5005587220
O         16.1314394432       36.4722168258       19.2735953000
C         15.2648514370       37.5536418810       18.8781150937
H         22.6891547130       25.4793899057        5.0584304786
H         22.3664257348       26.7286906933        7.1769675726
H         23.0615118332       23.0882330399        9.4134711486
H         22.7327674686       27.7470252156        9.1567041717
H         24.2022376908       26.9544753850        9.8181776304
H         23.5468382103       27.5222223505       11.9679609026
H         20.6497534551       27.8289793265       12.7862584668
H         19.9008087660       30.4248891099       11.4911007936
H         20.2110086804       30.6565465695       13.8942399145
H         18.0288315209       28.1009906742       12.1666395206
H         17.6049291865       29.5662049565       11.3069303639
H         18.3466963320       31.8723982329       12.5782284377
H         17.2106731358       30.7504170518       13.2939618895
H         18.8100869701       29.5365583057       15.3360495238
H         19.0974470560       30.0727536918        9.1065222876
H         18.5680944473       26.1736451699       10.8874878940
H         19.0369468987       33.6370368593       15.8191163865
H         20.0761078124       32.3057751465       15.3409894537
H         19.6896555800       29.0008846040        6.9440254811
H         19.1544436618       25.1069425499        8.7235173264
H         20.0848953265       33.1900811505       12.9837604635
H         19.7091325904       26.5166308759        6.7454586874
H         18.1499645359       32.4364875861       18.6055961288
H         15.4748072052       33.8773596397       15.5306229435
H         18.3865920753       35.4927902338       14.1408741023
H         19.0915457755       35.4476008749       12.5118133100
H         17.8224097865       34.2969476343       12.9578722374
H         20.8210171831       35.2882811299       15.1020600450
H         21.8378755000       33.9236294003       14.5918655431
H         21.4467670567       35.2139685940       13.4422316165
H         15.0375204512       35.9135874090       16.8553761503
H         15.6116210423       38.0056281337       17.9397956946
H         15.2588221357       38.3318960604       19.6517203331
H         14.2356063468       37.1968148202       18.7428675832
    79
VM2 Rank=9      G=215.893           E=128.875           -TS=87.017              
C         21.0665142824       23.8247130705        6.4788108499
C         21.0231723326       23.0974907663        7.6782622022
F         20.8728213003       23.1811880190        5.3058627783
C         21.3109779205       25.2098321207        6.5083510730
C         21.2202969907       23.7540256833        8.9056121312
F         21.3543697346       25.9275581218        5.3636888073
C         21.5106162469       25.8641349723        7.7342233218
C         21.4602696512       25.1424056805        8.9434000204
N         21.6585795263       25.8057074756       10.1868569069
C         22.7242798576       26.7840264497       10.3699706287
C         20.9268919557       25.6154412028       11.3439669343
C         22.5684189476       27.2255479739       11.8377433398
O         21.4676713140       26.4076978744       12.3114980797
O         19.9692245772       24.8771798019       11.4983291102
C         22.2780581540       28.7327491230       11.9915076277
N         21.3406857891       29.0590047530       12.9476009606
O         22.7998618133       29.5825029452       11.2887743558
C         20.6021262306       30.3288388964       12.9777934546
C         20.6108433070       30.9104191111       14.4197691469
C         19.1756484238       30.1243129195       12.3982118364
C         19.9651864586       32.3202837670       14.4862326448
O         19.9492865709       30.0094989483       15.3130220192
C         19.1702125672       29.4546309656       11.0287318022
N         20.1537483621       33.0378854858       15.7790946107
C         18.6682109585       28.1485047515       10.8780369048
C         19.6707209771       30.1349678144        9.9036410965
S         19.1060678369       32.6846104647       17.0852393147
C         21.5534133617       33.3396271333       16.1748640144
C         18.6590189741       27.5324926999        9.6155881543
C         19.6659026586       29.5185001721        8.6412516841
O         19.6010743378       31.4424908995       17.6930421410
O         19.0136777791       33.9436872033       17.8339530886
C         17.4876152401       32.4357436238       16.3134018948
C         22.3910999652       34.0917035885       15.1072266033
C         19.1548970058       28.2189307163        8.4960665641
C         16.9503870060       31.1409331429       16.1785861875
C         16.7667555626       33.5378218339       15.8139017157
C         21.7468989982       35.4448393664       14.7282591381
C         23.8256595207       34.3223906233       15.6272789429
C         15.7106482073       30.9529935502       15.5488136000
C         15.5241577739       33.3499986350       15.1844414221
F         15.2251265708       29.6969440865       15.4303496896
C         14.9864340858       32.0531811284       15.0456383420
O         13.7686494775       31.8265755163       14.4285073992
C         12.9558213880       32.8749869225       13.8655974597
H         20.8367591236       22.0274621167        7.6549466598
H         21.1870393108       23.1785047759        9.8275612401
H         21.6926691427       26.9342489826        7.7359055459
H         22.5928729743       27.6309153423        9.6844414096
H         23.7040024810       26.3190108015       10.2031228061
H         23.4783271957       27.0011815677       12.4075095915
H         20.9695929438       28.2911943233       13.4942857965
H         21.1246731628       31.0493917809       12.3332895561
H         21.6652421299       31.0007945343       14.7129206758
H         18.5805526015       29.5302197288       13.1036162111
H         18.6668241947       31.0915996080       12.3164078346
H         20.3934892757       32.9237897132       13.6771386307
H         18.9000978597       32.2339186948       14.2465184184
H         20.0996128374       30.3350156703       16.2310857689
H         18.2857836706       27.6080009274       11.7399973536
H         20.0678782437       31.1408733081       10.0088450703
H         21.5417351789       33.9605081542       17.0816199096
H         22.0678315675       32.4076237254       16.4451399876
H         18.2696027139       26.5231470712        9.5066493812
H         20.0544646299       30.0495960454        7.7760088842
H         22.4693035284       33.4726040512       14.2032690668
H         19.1445503005       27.7442191906        7.5181142426
H         17.4933559461       30.2776363617       16.5533151469
H         17.1753413258       34.5416459781       15.9089715556
H         20.7442705868       35.3052229632       14.3055079078
H         21.6535988660       36.0964479128       15.6065389960
H         22.3522886594       35.9702927001       13.9787491136
H         24.4403784541       34.8254120412       14.8697251795
H         23.8252030080       34.9456415313       16.5309570444
H         24.3125318416       33.3695191262       15.8718511183
H         14.9915123141       34.2173963778       14.8071759441
H         13.4992629866       33.4034514082       13.0716444744
H         12.6632112268       33.5970385665       14.6388749207
H         12.0424892684       32.4493513640       13.4310562044
    79
VM2 Rank=10     G=215.894           E=129.322           -TS=86.571              
C         23.6335335853       24.5967387050        6.1802103936
C         24.4713441101       24.6300263397        7.3055754788
F         23.9784136077       23.8333116469        5.1192365838
C         22.4485739954       25.3549758122        6.1667855296
C         24.1239025883       25.4172126013        8.4172802311
F         21.6274980417       25.3332921428        5.0931977942
C         22.1038413206       26.1431153234        7.2761485316
C         22.9357312096       26.1752642342        8.4129885155
N         22.5843078518       26.9714118296        9.5388324892
C         22.0912618649       28.3351697951        9.3844959300
C         22.6745775076       26.6002148977       10.8675082596
C         21.9079379363       28.8226179745       10.8323431952
O         22.2747181604       27.6621228823       11.6227543519
O         23.0406701998       25.5255660536       11.3112565055
C         20.4744650743       29.3119247955       11.1155500564
N         19.8114327784       28.6566638422       12.1303951732
O         19.9349055922       30.1805697750       10.4519465829
C         18.3443590830       28.5910267623       12.2334400783
C         17.8220745731       29.4150449249       13.4444412224
C         17.9168964179       27.1024966962       12.2821101103
C         18.1408379951       30.9286020004       13.2894054424
O         16.4098860189       29.2418431718       13.5804509533
C         18.4937398667       26.2824762102       11.1330550131
N         18.0580101881       31.7194777512       14.5473533281
C         19.4700739135       25.2991184388       11.3788338720
C         18.0632083939       26.5120390497        9.8133603903
S         16.5089155441       32.2730922679       15.0074279047
C         18.9781884338       31.3188893442       15.6465468744
C         20.0029226200       24.5476437629       10.3182860746
C         18.5979773463       25.7634646121        8.7515869748
O         16.0035843596       32.9887021562       13.8299262287
O         15.8001911374       31.1229553366       15.5837004956
C         16.8591773833       33.5468543965       16.2420125078
C         20.4710105945       31.2064677330       15.2391036649
C         19.5650724612       24.7777138064        9.0047290447
C         17.4471080033       34.7645945660       15.8508812665
C         16.5716168074       33.3219328697       17.6022430754
C         21.0152236954       32.5500247066       14.7021532116
C         21.3151423761       30.7444798861       16.4453644951
C         17.7406680807       35.7463208091       16.8094974496
C         16.8653830558       34.3055010865       18.5626003492
F         18.3069839547       36.9042455668       16.4020781176
C         17.4533055818       35.5273876718       18.1726039937
O         17.7591083035       36.5191207727       19.0881813823
C         17.5142183865       36.3972849922       20.5031208762
H         25.3873932028       24.0460607597        7.3146737209
H         24.7829357968       25.4364412705        9.2819217304
H         21.1814580884       26.7148755386        7.2496866266
H         21.1346525521       28.3400838520        8.8459001311
H         22.8237041037       28.9537555945        8.8506468133
H         22.5927727815       29.6527613579       11.0446689417
H         20.3524400030       27.9443307222       12.6052687478
H         17.9051911667       29.0294754523       11.3261483937
H         18.3285549937       29.0273934634       14.3374296990
H         18.2175306870       26.6718613741       13.2454923038
H         16.8218674025       27.0366972535       12.2526434576
H         19.1480228587       31.0398357654       12.8747598622
H         17.4680825827       31.3500777064       12.5306284608
H         16.1328178698       29.7066964858       14.4057194722
H         19.8186167647       25.1159179253       12.3916984698
H         17.3132075372       27.2720460903        9.6111550135
H         18.9250890912       32.0484259531       16.4641225666
H         18.6490891858       30.3599363930       16.0687322351
H         20.7581242761       23.7904947988       10.5149948652
H         18.2600119694       25.9445996981        7.7343556587
H         20.5794799387       30.4436264871       14.4563057446
H         19.9764842769       24.1949232489        8.1844085442
H         17.6804455396       34.9483902130       14.8055010826
H         16.1220261167       32.3823304783       17.9160942731
H         20.4657523514       32.8753533940       13.8100067618
H         22.0730715162       32.4601406874       14.4243992822
H         20.9292528367       33.3412397622       15.4579645038
H         21.2619489797       31.4686531685       17.2686479376
H         20.9641151754       29.7750470382       16.8218660113
H         22.3697313050       30.6296563080       16.1635369140
H         16.6335289060       34.1063418651       19.6042610996
H         18.0699655678       35.5481575469       20.9215692909
H         16.4439046758       36.2551764567       20.7011032164
H         17.8402876201       37.3085545937       21.0202766438
    79
VM2 Rank=11     G=215.905           E=129.471           -TS=86.434              
C         23.6738366122       23.9732155782        6.6987547662
C         23.8785599761       23.3999013478        7.9632590039
F         24.0730642624       23.3032728439        5.5945736911
C         23.0580855473       25.2337300492        6.5927318002
C         23.4655927521       24.0837034618        9.1200406176
F         22.8490236071       25.8001839141        5.3833297024
C         22.6488477808       25.9173022955        7.7485369107
C         22.8437443120       25.3445233451        9.0210260230
N         22.4240269848       26.0352115716       10.1919581693
C         22.6876683047       27.4579468417       10.3742091344
C         21.7624422617       25.4874181839       11.2751274827
C         22.1132465845       27.7593390886       11.7693669827
O         21.5708625134       26.4802769365       12.1892506335
O         21.4030351811       24.3310074360       11.4140642746
C         21.0560830153       28.8801015099       11.7396496263
N         19.7830433437       28.5099378901       12.1154011083
O         21.3069296613       30.0064742077       11.3464714247
C         18.5703035247       29.2124251389       11.6673538273
C         17.9573755442       30.0867504344       12.7966305629
C         17.5678400629       28.1750974854       11.1045111540
C         18.9723192477       31.1367054350       13.3237104039
O         16.7931578575       30.7626362988       12.3158321281
C         18.1788125373       27.2943869534       10.0203022128
N         18.4253077818       32.1317087909       14.2913430530
C         18.4369153578       25.9333239993       10.2681381893
C         18.5022777295       27.8402656283        8.7645425429
S         17.5539481422       31.4725260150       15.6148651149
C         19.3628532269       33.2484502318       14.5985690830
C         19.0043186386       25.1255344363        9.2686574335
C         19.0723917183       27.0339156737        7.7653051847
O         16.2171035246       31.2003507961       15.0710733274
O         18.4055046190       30.4245655917       16.1894651161
C         17.3681696145       32.8203061251       16.8101686648
C         19.8708530618       34.0528120735       13.3715077065
C         19.3199932818       25.6749370752        8.0162200831
C         18.2223488865       32.9058065759       17.9265760556
C         16.3783403591       33.8045213623       16.6204845455
C         18.6999226538       34.5988087172       12.5220509036
C         20.7641255475       35.2208275852       13.8413269270
C         18.0856942204       33.9622103787       18.8402387228
C         16.2420663374       34.8629146519       17.5352389428
F         18.9228374752       34.0168403637       19.9002419502
C         17.0966100893       34.9498651752       18.6543075561
O         16.9954647175       35.9770915121       19.5761657856
C         16.0270515415       37.0398689933       19.4784214709
H         24.3557511575       22.4273336897        8.0447426171
H         23.6316083072       23.6298498557       10.0940917660
H         22.1674001940       26.8847855177        7.6457106092
H         22.1744176364       28.0478246471        9.6036674027
H         23.7659981277       27.6585441897       10.3412518808
H         22.9131710386       28.0716349721       12.4518470662
H         19.6881481705       27.5495347894       12.4223112777
H         18.8417266944       29.8875597185       10.8432403053
H         17.6803972404       29.4155491368       13.6211165774
H         17.1851432111       27.5575272642       11.9268087366
H         16.6962059443       28.6986862726       10.6915249648
H         19.8112566875       30.6054182071       13.7920917724
H         19.3703350238       31.6436183716       12.4384200259
H         16.3532935048       31.1396226891       13.1140603649
H         18.1994825586       25.4990320222       11.2355917681
H         18.3110626180       28.8910345740        8.5635416179
H         18.8748827523       33.9815439671       15.2506958495
H         20.2288427420       32.8558481486       15.1493707629
H         19.2033314470       24.0751985943        9.4673815287
H         19.3189558346       27.4612600514        6.7965931922
H         20.4952282351       33.4055706264       12.7407738287
H         19.7587019247       25.0493965654        7.2428611749
H         18.9938912903       32.1576170096       18.0870690181
H         15.7161154887       33.7504608555       15.7589958968
H         18.0494308779       35.2509208233       13.1186749234
H         18.0841997124       33.7832221504       12.1214614319
H         19.0731101557       35.1797024479       11.6691156143
H         20.2021034746       35.9246873337       14.4688619253
H         21.6177014987       34.8519052679       14.4245270808
H         21.1630375639       35.7773046659       12.9834257158
H         15.4713945800       35.6078936664       17.3633988912
H         15.0058196448       36.6380608846       19.5029628298
H         16.1649554393       37.6063737575       18.5483497893
H         16.1432060447       37.7322216059       20.3218310547
    79
VM2 Rank=12     G=215.920           E=129.504           -TS=86.416              
C         23.6644763905       23.9562377193        6.6843814077
C         23.8519633115       23.3627775753        7.9422476588
F         24.0593150328       23.2945514357        5.5736632516
C         23.0703286472       25.2281193366        6.5916930284
C         23.4433114071       24.0378532189        9.1056687662
F         22.8780823305       25.8140727148        5.3888083384
C         22.6654135786       25.9029177183        7.7541570303
C         22.8430256701       25.3100478839        9.0199580889
N         22.4276901616       25.9919632703       10.1975788320
C         22.7135934980       27.4075998966       10.4003458806
C         21.7506408393       25.4408774614       11.2694687293
C         22.1367030294       27.6996611514       11.7964631348
O         21.5699240168       26.4245618679       12.1956506424
O         21.3713728046       24.2888398060       11.3908310722
C         21.0994403841       28.8390660185       11.7767437402
N         19.8179437916       28.4860347047       12.1400489891
O         21.3721940991       29.9662502964       11.4008627003
C         18.6203424971       29.2153202510       11.6940770123
C         18.0155103434       30.0854671506       12.8309412160
C         17.6035451918       28.2030480993       11.1116609512
C         19.0453872419       31.1099457838       13.3787099777
O         16.8668878440       30.7883624754       12.3514625173
C         18.2058957740       27.3257558242       10.0198801298
N         18.5105182582       32.1025040150       14.3556707894
C         18.4382092746       25.9572102025       10.2514997757
C         18.5471425850       27.8820271385        8.7734215988
S         17.6191531373       31.4431901520       15.6657016292
C         19.4686811114       33.1955556647       14.6839073992
C         18.9976795330       25.1524719139        9.2451100779
C         19.1093565973       27.0786764801        7.7673153682
O         16.2837461127       31.1925668948       15.1081934737
O         18.4520615324       30.3798974857       16.2394716411
C         17.4357342805       32.7853908842       16.8675472709
C         19.9961901336       34.0092123052       13.4713022075
C         19.3311990610       25.7123643542        8.0019785325
C         16.4596908454       33.7811449665       16.6705883580
C         18.2771798923       32.8558715363       17.9952744356
C         18.8388365951       34.5903030696       12.6265539579
C         20.9096330888       35.1526644143       13.9622764907
C         16.3275974090       34.8322973323       17.5907570339
C         18.1449415159       33.9090215567       18.9168091139
F         15.3823771428       35.7734912413       17.3713411857
C         17.1673628665       34.9071769622       18.7209795616
O         17.0075114414       35.9603934282       19.6044074616
C         17.8142097006       36.1362363413       20.7855895413
H         24.3125036296       22.3814154133        8.0134539523
H         23.5958595483       23.5683492949       10.0744895937
H         22.2007172811       26.8795761966        7.6615179821
H         22.2141088477       28.0160424502        9.6352085362
H         23.7952086188       27.5909506616       10.3755875976
H         22.9381664299       27.9884394423       12.4874406007
H         19.7045779085       27.5232282834       12.4328416675
H         18.9085535071       29.8962903293       10.8805307956
H         17.7210257957       29.4085306995       13.6446039730
H         17.2049104745       27.5817531566       11.9235141975
H         16.7438211534       28.7471168179       10.7001839889
H         19.8712745069       30.5573335091       13.8456116939
H         19.4587117991       31.6209597813       12.5028387987
H         16.4271029223       31.1601230412       13.1521613772
H         18.1868100929       25.5146985765       11.2116730198
H         18.3758755960       28.9385495595        8.5849831056
H         18.9936390623       33.9275526676       15.3466197218
H         20.3249600312       32.7771436763       15.2308827604
H         19.1767317266       24.0962655897        9.4313125658
H         19.3697353316       27.5140852001        6.8058364343
H         20.6104762674       33.3601964150       12.8325489017
H         19.7637703423       25.0891898620        7.2232700702
H         15.8060107359       33.7438796954       15.8032134515
H         19.0373803033       32.0946893877       18.1568680930
H         19.2260002946       35.1774816995       11.7842166945
H         18.2096509523       33.7927022805       12.2109294555
H         18.1983076879       35.2449813017       13.2311166510
H         20.3587040752       35.8572651959       14.5987535058
H         21.7538985905       34.7586102947       14.5425805395
H         21.3221824396       35.7146823755       13.1144976327
H         18.8071190183       33.9390145388       19.7765262142
H         18.8735318370       36.2457119190       20.5194626881
H         17.7034485225       35.2792453697       21.4625413143
H         17.5007128887       37.0401504478       21.3230321962
    79
VM2 Rank=13     G=215.947           E=130.029           -TS=85.918              
C         23.7507096343       23.8554560002        6.7415188885
C         23.9431030789       23.3049955920        8.0180538614
F         24.1603149587       23.1656708028        5.6534723944
C         23.1364599884       25.1139732682        6.6069045828
C         23.5193351873       24.0096277066        9.1583093984
F         22.9393149122       25.6586275847        5.3855457653
C         22.7164033904       25.8183493133        7.7462268761
C         22.8988881148       25.2685731431        9.0306522385
N         22.4685359033       25.9804747030       10.1849246331
C         22.7301898164       27.4064116289       10.3433538061
C         21.7976961315       25.4523897162       11.2721852220
C         22.1468683943       27.7323209721       11.7293132615
O         21.5989716557       26.4615067765       12.1667471848
O         21.4365647921       24.2987593436       11.4287420700
C         21.0924037880       28.8547693885       11.6745464598
N         19.8197807168       28.4973108075       12.0632620974
O         21.3447258181       29.9704370247       11.2528389361
C         18.6072634774       29.1924653471       11.6034457831
C         17.9896247379       30.0756857176       12.7227540866
C         17.6094993043       28.1471939515       11.0468029457
C         18.9958944685       31.1406893971       13.2352381995
O         16.8154621271       30.7341925915       12.2402512495
C         18.2275137059       27.2547325396        9.9762067008
N         18.4260487230       32.1305217199       14.1852557827
C         18.5615945729       27.7873887350        8.7175426528
C         18.4813537401       25.8957987392       10.2396687395
S         17.5388641926       31.5212189304       15.5214203741
C         19.2803799510       33.3302356473       14.3536085255
C         19.1380713336       26.9700909844        7.7309245869
C         19.0549868909       25.0770224706        9.2527608629
O         16.1858905017       31.3012676909       14.9947326014
O         18.3630806076       30.4394821526       16.0725877105
C         17.4624010404       32.8482601885       16.7546720101
C         18.5153884096       34.6450421576       14.0626620226
C         19.3812397569       25.6132646673        7.9973349164
C         18.5016904392       33.0081703889       17.6920523745
C         16.3522110011       33.7149289633       16.8041506207
C         19.3688582988       35.8640356137       14.4693560399
C         18.1193687031       34.7426636331       12.5725247024
C         18.4440128163       34.0375454414       18.6438351845
C         16.2943337969       34.7463226861       17.7572302292
F         19.4647455623       34.1699771434       19.5200704767
C         17.3439238807       34.9182627880       18.6836621878
O         17.3257806041       35.9236172161       19.6344308214
C         16.2622510750       36.8892687262       19.7492199361
H         24.4191844813       22.3339859780        8.1216293796
H         23.6759738429       23.5734008015       10.1419203859
H         22.2365132141       26.7840159846        7.6213760924
H         22.2211303655       27.9817891591        9.5591809194
H         23.8085401319       27.6073549093       10.3133654795
H         22.9429519021       28.0538943435       12.4119704266
H         19.7234956273       27.5448577917       12.3936397443
H         18.8796675791       29.8607040572       10.7741043160
H         17.7217183766       29.4133103371       13.5573546674
H         17.2231368946       27.5386445841       11.8740860146
H         16.7394513295       28.6647485533       10.6230254353
H         19.8404943181       30.6264767774       13.7125079865
H         19.3936919093       31.6643521536       12.3556389222
H         16.3849901456       31.1372119642       13.0305931721
H         18.3737626383       28.8363919222        8.5045014960
H         18.2357944280       25.4716887540       11.2096087907
H         19.7118902209       33.3569203664       15.3614523818
H         20.1357448541       33.2893368692       13.6651518388
H         19.3928330056       27.3872724034        6.7599081078
H         19.2505610972       24.0283928627        9.4635473237
H         17.5939547925       34.6711401381       14.6551487104
H         19.8247210188       24.9792180940        7.2336838088
H         19.3582992779       32.3395554502       17.6803281405
H         15.5356093326       33.5951739135       16.0954312959
H         18.8262578109       36.8001847552       14.2851998357
H         19.6184614816       35.8289914571       15.5377886646
H         20.3073045144       35.8987792768       13.9009520866
H         17.4716508857       33.9056931748       12.2804906297
H         17.5709214416       35.6720211742       12.3731819239
H         19.0053798596       34.7257320904       11.9251221254
H         15.4306097210       35.4038441029       17.7656723238
H         15.3070114207       36.3916123017       19.9608591376
H         16.1640495495       37.4702698173       18.8230503697
H         16.4748127292       37.5858719967       20.5700332632
    79
VM2 Rank=14     G=215.972           E=128.932           -TS=87.040              
C         22.5800029559       26.0933193027        5.7464919976
C         23.3933350099       25.4617478968        6.6999662274
F         22.6774813956       25.7312950575        4.4477007377
C         21.6755120482       27.0927221473        6.1493993294
C         23.3006059248       25.8259244862        8.0546037852
F         20.8816424174       27.7099481581        5.2460581780
C         21.5856901057       27.4579286118        7.5018853199
C         22.3930893431       26.8225948509        8.4661971906
N         22.2988271927       27.1900560572        9.8376265596
C         22.2367041262       28.5874492183       10.2502301670
C         22.2759473713       26.3288066500       10.9188535438
C         22.2098036803       28.5128676154       11.7867344868
O         22.2113226061       27.0858299162       12.0505635333
O         22.3057659046       25.1104996777       10.8939815390
C         20.9900849480       29.2343688384       12.3915864762
N         20.1334245311       28.4439447630       13.1266589817
O         20.7576622497       30.4133931674       12.1865763537
C         18.7115018457       28.7642636779       13.3307557505
C         18.4260916798       29.2137894608       14.7917395398
C         17.8598458031       27.5453843287       12.8962463349
C         19.2216709025       30.4963073048       15.1612420763
O         17.0278015152       29.4571927165       14.9551655502
C         18.1803338336       27.0754462004       11.4815345128
N         19.2114481245       30.8492213321       16.6092414575
C         18.8271046804       25.8438612883       11.2684258372
C         17.8427406794       27.8775705473       10.3759771680
S         17.8848192562       31.7231626409       17.2413675701
C         19.7970948274       29.8489216601       17.5387860138
C         19.1248507991       25.4153229774        9.9641564896
C         18.1430445514       27.4514341873        9.0714101121
O         16.7942155697       30.7559610939       17.4219165566
O         18.4472299030       32.4892452048       18.3600328094
C         17.4902559822       32.9331897417       15.9550792545
C         21.2226699185       29.3596895654       17.1677515632
C         18.7807087179       26.2177674424        8.8651835948
C         18.3340824628       34.0409610877       15.7478307602
C         16.3542276890       32.7675342146       15.1388305144
C         22.2306172671       30.5304073939       17.1123611805
C         21.7016368115       28.3045033683       18.1868297081
C         18.0443031624       34.9700403897       14.7369237780
C         16.0645256926       33.6973806733       14.1254837572
F         18.8758777471       36.0215077041       14.5623751001
C         16.9092133741       34.8077133613       13.9162570880
O         16.6588135811       35.7435936599       12.9279388302
C         15.5383718120       35.6649303615       12.0250426852
H         24.0931472147       24.6915198852        6.3881091189
H         23.9380536994       25.3307802150        8.7831587815
H         20.8758216441       28.2254352547        7.7941243692
H         21.3247439793       29.0625008940        9.8656963601
H         23.1200755247       29.1349731803        9.8980955559
H         23.1127943012       28.9731401452       12.2062271802
H         20.4201959404       27.4777264958       13.2254108376
H         18.4419453099       29.6032758361       12.6735902602
H         18.7390735452       28.3946468999       15.4522173105
H         18.0073398606       26.7272596662       13.6123774684
H         16.7952177899       27.8055303817       12.9528415827
H         20.2624728981       30.3606431691       14.8493114309
H         18.8511144761       31.3243990611       14.5457753655
H         16.8643573405       29.6252471447       15.9130918832
H         19.1011007395       25.2169011255       12.1126866108
H         17.3468813045       28.8324237408       10.5289550988
H         19.8489588765       30.2845886395       18.5463464538
H         19.1279536655       28.9810178582       17.6110649262
H         19.6263657859       24.4635149767        9.8065630505
H         17.8783066413       28.0750771020        8.2212506379
H         21.1957504728       28.8711073193       16.1841719433
H         19.0104079083       25.8853416963        7.8559445404
H         19.2167515066       34.1797322250       16.3664195335
H         15.6967127630       31.9134384953       15.2850681369
H         21.9413417178       31.2710506924       16.3565278323
H         22.2912414919       31.0440822302       18.0803794964
H         23.2349506783       30.1702077442       16.8557713974
H         21.7618522730       28.7275519831       19.1979880631
H         21.0156644996       27.4481684177       18.2168831502
H         22.6961304157       27.9250290970       17.9189758818
H         15.1839235987       33.5430996483       13.5097781715
H         14.5909139243       35.6919093526       12.5787076391
H         15.5800146573       34.7404732389       11.4345831943
H         15.5545069153       36.5154717931       11.3318696492
    79
VM2 Rank=15     G=215.985           E=128.968           -TS=87.017              
C         22.8295305256       26.2199509446        5.8372249922
C         23.4793820133       25.4398100716        6.8060335922
F         23.0022450957       25.9307002627        4.5280548326
C         22.0086987521       27.2907657463        6.2357660002
C         23.3066036279       25.7271524371        8.1712649461
F         21.3720206109       28.0512798791        5.3173526109
C         21.8391194435       27.5789339394        7.5991644888
C         22.4817340632       26.7950940357        8.5779777984
N         22.3062415441       27.0848304483        9.9599863186
C         22.3631304999       28.4514365276       10.4658926599
C         22.0905540399       26.1664758478       10.9706417269
C         22.1892516540       28.2849729298       11.9854804430
O         22.0083006400       26.8539206228       12.1448304956
O         21.9873185088       24.9569405229       10.8604632471
C         21.0076213620       29.1054073227       12.5374857746
N         20.0016302846       28.3763003957       13.1336396668
O         20.9302080286       30.3146893187       12.4039872319
C         18.6117850232       28.8495171747       13.2356770418
C         18.2420409435       29.2461559958       14.6930726998
C         17.6729267398       27.7664078950       12.6482656043
C         19.1453692345       30.3954596504       15.2195725387
O         16.8733429106       29.6521805654       14.7464962665
C         18.0676871703       27.3457270874       11.2368680631
N         19.0168544391       30.6820212828       16.6765216818
C         17.9224049362       28.2444042198       10.1640708823
C         18.5918044242       26.0621653878       10.9954531355
S         17.7499247712       31.6954380677       17.2165149252
C         19.3633814306       29.5730361826       17.6024594095
C         18.2916843694       27.8630651618        8.8633477506
C         18.9582718383       25.6787362705        9.6946445606
O         16.5359643982       30.8689867687       17.2430308534
O         18.2842784493       32.3440616161       18.4199676225
C         17.6379724006       32.9888944210       15.9558255594
C         20.7507706766       28.9209887404       17.3593636726
C         18.8060248433       26.5781202500        8.6278631479
C         16.5741237034       32.9982327984       15.0332421556
C         18.6310464291       33.9843711078       15.8754119488
C         21.8949489574       29.9531112173       17.4825251882
C         20.9759047806       27.7680629942       18.3600915615
C         16.5072951114       33.9906801592       14.0434115497
C         18.5640861656       34.9786913835       14.8842893511
F         15.4743916974       33.9711785740       13.1714482372
C         17.4997075464       34.9887866643       13.9584745981
O         17.3993827711       35.9492448669       12.9670958468
C         18.3650331444       37.0026122438       12.7807473214
H         24.1147972526       24.6143049049        6.4977632639
H         23.8175316140       25.1167254674        8.9119623989
H         21.1951429597       28.4040825804        7.8869240502
H         21.5483558698       29.0532385381       10.0425915099
H         23.3302278663       28.9124095047       10.2285050148
H         23.0961176561       28.6095105397       12.5103459490
H         20.1669609720       27.3784159403       13.1831687439
H         18.5008659461       29.7503904095       12.6154784054
H         18.3898252979       28.3581793337       15.3215209125
H         17.6616239443       26.8962042855       13.3165033634
H         16.6433386527       28.1459183947       12.6322040494
H         20.1891894171       30.1375650597       15.0121120821
H         18.9541931431       31.2915594274       14.6177290817
H         16.6386208363       29.7888010334       15.6944494932
H         17.5224963655       29.2395666160       10.3395398093
H         18.7170353814       25.3596769414       11.8150592173
H         19.3524165536       29.9521304779       18.6339030711
H         18.5882929915       28.7966924375       17.5497010297
H         18.1756789320       28.5614996562        8.0384103662
H         19.3644046298       24.6861796589        9.5152630545
H         20.7767847652       28.4848038630       16.3514204128
H         19.0889902963       26.2807430332        7.6212209824
H         15.8013977190       32.2355506167       15.0763272433
H         19.4593370535       33.9827392425       16.5807877280
H         22.8700141623       29.4781840711       17.3153072952
H         21.7877690305       30.7579567370       16.7447811257
H         21.9068521052       30.4108221273       18.4800009912
H         20.1906470416       27.0070465170       18.2652240699
H         21.9400975821       27.2757119116       18.1793014202
H         20.9715179993       28.1339388771       19.3950570333
H         19.3441931161       35.7325286825       14.8448533945
H         19.3584723666       36.5855971938       12.5705891965
H         18.4261935647       37.6360086450       13.6751808007
H         18.0721432799       37.6345423829       11.9327783502
    79
VM2 Rank=16     G=216.004           E=128.943           -TS=87.060              
C         21.2157258835       23.9123996276        6.3707776209
C         21.3449723405       25.3097038761        6.3728790220
F         21.0262655799       23.2659378562        5.1987332556
C         21.2864496839       23.2008639344        7.5823545834
C         21.5429294647       25.9953419434        7.5838860773
F         21.1686557150       21.8542276178        7.5988981327
C         21.4832393426       23.8866033792        8.7916511330
C         21.6077470611       25.2901721128        8.8028890828
N         21.8082157216       25.9855927037       10.0287113777
C         22.7864821559       27.0605315269       10.1465633106
C         21.1609555653       25.7426342909       11.2256978737
C         22.6864238466       27.4878737153       11.6232759967
O         21.6787750815       26.5911689595       12.1574173451
O         20.2841307001       24.9224847702       11.4368007624
C         22.2999129336       28.9701929023       11.8031546456
N         21.3976447384       29.2272696634       12.8126658846
O         22.7186226371       29.8560092095       11.0763513997
C         20.5647640828       30.4357555329       12.8831169050
C         20.6117303947       31.0276821669       14.3201425811
C         19.1271737234       30.1167240156       12.3887656486
C         19.8604747769       32.3822837486       14.4191310101
O         20.0771831936       30.0844551924       15.2539591810
C         19.0944117307       29.4254830639       11.0303431414
N         20.0697821256       33.1262612998       15.6938272241
C         18.6752031594       28.0861684833       10.9245572265
C         19.4888588412       30.1180525135        9.8710238299
S         19.1334640074       32.7065796444       17.0633071228
C         21.4627172625       33.5407381759       16.0016062323
C         18.6432920278       27.4487618515        9.6732052609
C         19.4619494113       29.4802249090        8.6195660359
O         19.7561212103       31.5092143766       17.6429091966
O         18.9937238721       33.9610476020       17.8124304499
C         17.4937209612       32.3352901822       16.3924370440
C         22.1727175478       34.3440157479       14.8800681279
C         19.0342952358       28.1466904733        8.5198718240
C         16.6622778071       33.3803874548       15.9466441048
C         17.0483345714       31.0034017984       16.2817607013
C         21.4027423035       35.6387201724       14.5329770896
C         23.6136536588       34.6912917593       15.3098659861
C         15.4036331800       33.0954135000       15.3954546276
C         15.7889967434       30.7176469988       15.7272710150
F         14.6318139720       34.1214812086       14.9724487476
C         14.9558619465       31.7635190455       15.2779780657
O         13.7115477307       31.5223748449       14.7223790007
C         13.1744060708       30.2003261481       14.5212451161
H         21.2910222110       25.8586020940        5.4369189347
H         21.6357730673       27.0779050885        7.5691908520
H         21.5398275574       23.3206396644        9.7169601364
H         22.5284170246       27.8901827360        9.4760003129
H         23.7930062378       26.6917889481        9.9123201397
H         23.6426169352       27.3276288526       12.1360479937
H         21.1148423609       28.4338566325       13.3753264472
H         20.9906601389       31.1899928278       12.2068312936
H         21.6709337894       31.2036784315       14.5502401009
H         18.6192741677       29.4918051182       13.1343925200
H         18.5437369157       31.0424048875       12.3249579842
H         20.1886305015       33.0096950858       13.5818808184
H         18.7931109516       32.2083910401       14.2461426264
H         20.2498201439       30.4309864293       16.1603673129
H         18.3758916363       27.5361021642       11.8128716656
H         19.8218267343       31.1499863312        9.9410735655
H         21.4570997678       34.1688482224       16.9034229131
H         22.0641479008       32.6547881349       16.2458971175
H         18.3187378145       26.4136614321        9.5989951415
H         19.7690127456       30.0207834932        7.7278432697
H         22.2442739810       33.7230750988       13.9768208792
H         19.0070776397       27.6544114934        7.5510637495
H         16.9936154598       34.4127457147       16.0207106349
H         17.6817983854       30.1858693734       16.6185312112
H         20.3903586678       35.4169623979       14.1732889282
H         21.3120941002       36.2906393884       15.4113052883
H         21.9186090261       36.2014767827       13.7445911516
H         24.1400503148       35.2323567956       14.5130265429
H         23.6191088006       35.3224154090       16.2080465632
H         24.1876046476       33.7819229048       15.5299823764
H         15.4739438002       29.6817078850       15.6503589630
H         13.0741921510       29.6720825957       15.4782385667
H         13.8234029899       29.6148703025       13.8570942703
H         12.1807956660       30.2650981292       14.0600468894
    79
VM2 Rank=17     G=216.013           E=129.346           -TS=86.668              
C         23.4018352745       24.6407710115        5.9782148654
C         22.1946920035       25.3558693998        6.0032165562
F         23.6995502485       23.8802182723        4.9009926424
C         24.2872878966       24.7231823519        7.0683757884
C         21.8719866986       26.1510646182        7.1164482884
F         25.4565395161       24.0446930332        7.0596359352
C         23.9636762176       25.5168347418        8.1804615618
C         22.7507172819       26.2330467515        8.2157728622
N         22.4216753258       27.0385369089        9.3422449187
C         21.8595851517       28.3752078105        9.1862704964
C         22.5993924370       26.7038821385       10.6719691965
C         21.7497953915       28.8954102152       10.6300906202
O         22.1950655239       27.7658548414       11.4247601624
O         23.0354214081       25.6567218054       11.1182578565
C         20.3241941918       29.3573825495       10.9884572228
N         19.7428466831       28.7163386290       12.0608021249
O         19.7212385252       30.1913585751       10.3350018021
C         18.2867775992       28.6061182765       12.2479902445
C         17.8046356645       29.4449108700       13.4653023080
C         17.9125975292       27.1063923666       12.3566085155
C         18.0624314619       30.9632399288       13.2538663718
O         16.4089393048       29.2289949181       13.6847555241
C         18.4628318351       26.2735881256       11.2035999985
N         18.0227524371       31.7853149644       14.4938041842
C         17.9776513996       26.4649111643        9.8967927198
C         19.4708363582       25.3184463943       11.4320969064
S         16.4834192993       32.2999850938       15.0263195263
C         19.0157517940       31.4453720405       15.5491667825
C         18.4910105312       25.7075301868        8.8307475810
C         19.9819343065       24.5577297890       10.3674878188
O         15.8892724286       32.9667918253       13.8616977196
O         15.8473043493       31.1431680205       15.6699601278
C         16.8561587867       33.6158747618       16.2091418044
C         20.4865156115       31.3694105516       15.0610421129
C         19.4910770466       24.7508467457        9.0668172237
C         16.6448649556       33.4159378098       17.5865922638
C         17.3844656990       34.8416547579       15.7604007081
C         20.9548191892       32.7144416788       14.4600715947
C         21.4113824049       30.9678528283       16.2291425690
C         16.9558361029       34.4331875814       18.5020789565
C         17.6967872689       35.8601164789       16.6772839394
F         16.7426801425       34.2102763586       19.8182618104
C         17.4840698605       35.6630233101       18.0579829123
O         17.7801636079       36.6401262783       18.9922794490
C         18.3295332500       37.9273832404       18.6487354266
H         21.5112985818       25.2918727921        5.1611442393
H         20.9299932171       26.6927436567        7.1242109140
H         24.6610817968       25.5721218865        9.0112759045
H         20.8699869692       28.3225382632        8.7138538296
H         22.5260263212       29.0094844986        8.5882235796
H         22.4248575070       29.7469819191       10.7795665187
H         20.3320446440       28.0329178634       12.5206685930
H         17.7836010117       29.0061713824       11.3563518532
H         18.3728646162       29.0985378340       14.3378727219
H         18.2728321242       26.7133636698       13.3156137379
H         16.8202301566       27.0043678680       12.3815527253
H         19.0405762475       31.0957337582       12.7800267748
H         17.3344461744       31.3415366942       12.5238587018
H         16.1620258774       29.7069046936       14.5121405378
H         17.2026149813       27.2028335550        9.7076734351
H         19.8614932264       25.1649882703       12.4344721938
H         18.9839287433       32.1956546221       16.3488599422
H         18.7430541613       30.4885841208       16.0142944048
H         18.1113318566       25.8597304985        7.8235908766
H         20.7622802017       23.8230204913       10.5506028240
H         20.5767168505       30.5892481423       14.2931380296
H         19.8873129940       24.1620885977        8.2433029656
H         16.2427875273       32.4739478957       17.9497350028
H         17.5567469336       35.0015921747       14.6981439641
H         20.8845238305       33.5228063842       15.1991473681
H         21.9979966610       32.6508434399       14.1254017798
H         20.3459520628       32.9974677504       13.5924000065
H         21.1144229430       29.9984013693       16.6495653473
H         22.4519131120       30.8790508895       15.8912379449
H         21.3799076420       31.7122674260       17.0353122687
H         18.1036873327       36.7946460943       16.3037925114
H         17.6487694004       38.4752787001       17.9844037232
H         19.3005441814       37.8142805726       18.1494078933
H         18.4784646716       38.5261908165       19.5561646596
    79
VM2 Rank=18     G=216.043           E=128.979           -TS=87.064              
C         21.1844678030       24.1725526499        6.1832175399
C         21.4781251813       25.5403954033        6.2924504681
F         21.0462398067       23.6200470001        4.9571959936
C         21.0396654340       23.3925523083        7.3450384014
C         21.6252483911       26.1285062361        7.5606411928
F         20.7613988404       22.0724305565        7.2588762871
C         21.1858201280       23.9810063788        8.6114199860
C         21.4745225435       25.3551667295        8.7296920582
N         21.6237613687       25.9518638803       10.0135039381
C         22.7041969064       26.8882739390       10.3001947548
C         20.8282582797       25.7261564481       11.1212172578
C         22.4993096596       27.2418404806       11.7855504266
O         21.3406230848       26.4508196897       12.1549499771
O         19.8429699253       25.0115077121       11.1883654816
C         22.2760037036       28.7486860672       12.0274626187
N         21.3085835112       29.0606990787       12.9580461133
O         22.8726252720       29.6138110012       11.4079142492
C         20.6224215205       30.3581793194       13.0274457940
C         20.5866258812       30.8595217836       14.4988061967
C         19.2178265076       30.2491611963       12.3730869825
C         19.9950301728       32.2897123904       14.6151354640
O         19.8482953820       29.9403990219       15.3095493060
C         19.2478144698       29.6424162836       10.9747817463
N         20.1505669081       32.9276079604       15.9533725922
C         18.6825086312       28.3755628216       10.7377474473
C         19.8464730539       30.3403748835        9.9099917795
S         19.0292348025       32.5485133290       17.1892351267
C         21.5408442673       33.1481889172       16.4279456400
C         18.7085877630       27.8160252326        9.4495563720
C         19.8774523399       29.7797839387        8.6221752847
O         19.4455588233       31.2556260599       17.7481939937
O         18.9513892054       33.7680035746       18.0023574032
C         17.4404529441       32.4100060332       16.3326907612
C         22.4571083404       33.9210898594       15.4429135868
C         19.3039334373       28.5193638875        8.3907658576
C         16.8594976714       31.1481071059       16.1015420326
C         16.7879783430       33.5668242374       15.8638971496
C         21.8855359163       35.3186801017       15.1117981264
C         23.8735018362       34.0626991900       16.0390732949
C         15.6443711897       31.0467892103       15.4072178722
C         15.5699727775       33.4657275784       15.1697841015
F         15.1157926594       29.8205006232       15.1968699045
C         14.9886314945       32.2020632501       14.9345332743
O         13.7932583160       32.0605670408       14.2516985606
C         13.0495155067       33.1711896101       13.7130976042
H         21.5905928138       26.1421023339        5.3949429292
H         21.8473502600       27.1900454639        7.6283166140
H         21.0751184988       23.3626055694        9.4974431006
H         22.6184537484       27.7796928070        9.6656854479
H         23.6792383491       26.4107211815       10.1415457405
H         23.3694151577       26.9339634217       12.3780416851
H         20.8747138843       28.2790526463       13.4343480781
H         21.2043470639       31.0892575584       12.4490834557
H         21.6288357043       30.8890291607       14.8434706779
H         18.5625183395       29.6531857265       13.0211954223
H         18.7588514689       31.2427250930       12.3139455339
H         20.4847239116       32.9175573489       13.8612773312
H         18.9398901499       32.2614293746       14.3231254584
H         19.9683785287       30.2087785533       16.2502639239
H         18.2240257549       27.8213345521       11.5525795937
H         20.2931101474       31.3158309682       10.0822058792
H         21.5109794699       33.7189162224       17.3666763252
H         22.0046242116       32.1820436670       16.6683203765
H         18.2702868184       26.8365969281        9.2738302077
H         20.3425415023       30.3239253665        7.8040928985
H         22.5533902414       33.3491257407       14.5101076707
H         19.3217443941       28.0876847919        7.3932692649
H         17.3496951095       30.2437380814       16.4513150191
H         17.2309045256       34.5459818174       16.0333414535
H         20.8992748590       35.2444943345       14.6371823074
H         21.7766619738       35.9250904546       16.0201405169
H         22.5459751286       35.8580318911       14.4209412303
H         24.3102310842       33.0783389885       16.2515038677
H         24.5427182924       34.5797019224       15.3393196315
H         23.8550038591       34.6355579882       16.9753235654
H         15.0903268518       34.3738916733       14.8182205937
H         12.7495564921       33.8615940211       14.5120374849
H         12.1415470570       32.8084524824       13.2149173706
H         13.6499121938       33.7189832073       12.9752565718
    79
VM2 Rank=19     G=216.067           E=129.578           -TS=86.489              
C         23.6101326131       24.1802543510        6.4416885209
C         22.9802473311       25.4320701714        6.3680926689
F         23.9905473158       23.5616064248        5.3014954012
C         23.8399750582       23.5845185402        7.6953267591
C         22.5793827850       26.0871925200        7.5453128880
F         24.4490658887       22.3809946848        7.7853886037
C         23.4381931332       24.2390478896        8.8707024745
C         22.7999472923       25.4934708030        8.8047154160
N         22.3915839057       26.1578864629        9.9952488032
C         22.6249278209       27.5841195796       10.1916000033
C         21.7722732410       25.5793711231       11.0876252690
C         22.1022529412       27.8466497216       11.6146046983
O         21.5841319028       26.5537587762       12.0221159696
O         21.4423916930       24.4132079583       11.2182034568
C         21.0401692451       28.9622017956       11.6562686158
N         19.7856659149       28.5760891699       12.0755699806
O         21.2689849976       30.0988034567       11.2793832706
C         18.5519977372       29.2742910071       11.6811503869
C         17.9667267332       30.1191147539       12.8467390467
C         17.5430189454       28.2381731156       11.1277316232
C         18.9879452437       31.1686535592       13.3623203334
O         16.7812419522       30.7920178250       12.4165387964
C         18.1335466111       27.3786529173       10.0154533237
N         18.4634535568       32.1397187333       14.3661434778
C         18.3937240080       26.0126129361       10.2316644141
C         18.4391485771       27.9497669821        8.7664429546
S         17.6416026096       31.4476013126       15.7044130944
C         19.4027138605       33.2571907036       14.6655074224
C         18.9463845678       25.2251635450        9.2080253252
C         18.9950928298       27.1638704983        7.7432727323
O         16.2935295522       31.1622574498       15.1962511256
O         18.5254461683       30.4051750364       16.2389217835
C         17.4660119762       32.7770939989       16.9214564253
C         19.8599466235       34.0932010293       13.4396477430
C         19.2461182762       25.8001467839        7.9632054544
C         16.4557239930       33.7459838176       16.7680000327
C         18.3470202428       32.8648359572       18.0173086268
C         18.6549725369       34.6466820000       12.6443902841
C         20.7592452996       35.2588921745       13.9037047840
C         16.3289508616       34.7876603950       17.6996180448
C         18.2200999029       33.9085037904       18.9503108037
F         15.3501388134       35.7030153784       17.5221865514
C         17.2082425518       34.8797360727       18.7980619426
O         17.0522973447       35.9229114304       19.6940120133
C         17.8977855449       36.1148333674       20.8451786541
H         22.8026315245       25.8914566706        5.3997905238
H         22.0851040368       27.0521177300        7.4716894447
H         23.6269445364       23.7663208972        9.8301827714
H         22.0619821238       28.1711072758        9.4542248215
H         23.6947492692       27.8161803761       10.1157720712
H         22.9270981032       28.1448367099       12.2733268438
H         19.7094392046       27.6080705722       12.3633372875
H         18.7902261300       29.9692113729       10.8632601259
H         17.7228484493       29.4287748628       13.6658666021
H         17.1860236983       27.6052600190       11.9499188588
H         16.6574835965       28.7614826415       10.7450672770
H         19.8461750069       30.6364708327       13.7932801643
H         19.3531384400       31.6964932952       12.4751047308
H         16.3620791367       31.1459386644       13.2361672539
H         18.1701686452       25.5588981787       11.1934851817
H         18.2461774381       29.0045445431        8.5896312779
H         18.9334615620       33.9712289869       15.3515185859
H         20.2908574743       32.8595553757       15.1759494810
H         19.1476730813       24.1709688194        9.3824794295
H         19.2284198096       27.6109808130        6.7802881235
H         20.4670415610       33.4659400033       12.7729047210
H         19.6751606930       25.1905195036        7.1719207046
H         15.7711689696       33.6952650729       15.9254811765
H         19.1338140215       32.1245366067       18.1450922404
H         18.0201067891       35.2789830028       13.2780456149
H         18.9926692120       35.2500642949       11.7922764786
H         18.0328835540       33.8342553089       12.2472068765
H         21.1228357377       35.8377772036       13.0449355336
H         20.2137559827       35.9435289352       14.5661267234
H         21.6360024931       34.8851992992       14.4481936437
H         18.9130814730       33.9522615290       19.7847881259
H         18.9427869130       36.2558813424       20.5401385844
H         17.8368748904       35.2511801586       21.5199805318
H         17.5794820671       37.0063848813       21.4001614178
    79
VM2 Rank=20     G=216.081           E=129.565           -TS=86.516              
C         23.6039196827       24.2011681555        6.4408835665
C         22.9311999278       25.4296110451        6.3537554849
F         23.9806354351       23.5698374683        5.3064296928
C         23.8798932282       23.6417036019        7.7019054065
C         22.5336063672       26.0975456018        7.5248697193
F         24.5305564924       22.4611936099        7.8048888144
C         23.4813712561       24.3089778269        8.8712081883
C         22.8003790044       25.5399241050        8.7918088721
N         22.3952827420       26.2171987438        9.9761913840
C         22.5852688873       27.6543454630       10.1363627537
C         21.8186202621       25.6434002095       11.0941002273
C         22.0839871232       27.9315625205       11.5642739572
O         21.6179142169       26.6318480519       12.0110449459
O         21.5304696606       24.4702888630       11.2571515551
C         20.9863593521       29.0122172899       11.6045217036
N         19.7545215794       28.5946312050       12.0593531606
O         21.1691429233       30.1469162582       11.1979351077
C         18.4902366961       29.2429199510       11.6768670018
C         17.9018893985       30.0940110638       12.8363264976
C         17.5048762315       28.1620858179       11.1682356899
C         18.8983667028       31.1876957031       13.3066684827
O         16.6859134171       30.7180115078       12.4175534304
C         18.1001600952       27.2976638023       10.0623078721
N         18.3625314952       32.1626099972       14.3006589467
C         18.3600134744       27.8502587919        8.7947489240
C         18.4102674350       25.9461251401       10.3024805117
S         17.5912606845       31.4727498614       15.6698793128
C         19.2678600816       33.3183592513       14.5558754881
C         18.9201352435       27.0602570824        7.7770318673
C         18.9671546028       25.1544557435        9.2844016740
O         16.2402999311       31.1417413026       15.1984049958
O         18.5158167290       30.4643809100       16.2008339835
C         17.4113644727       32.8167918570       16.8702809054
C         19.6758600543       34.1387260797       13.3023708092
C         19.2211121446       25.7108199756        8.0210778670
C         18.3179100745       32.9427601048       17.9406089468
C         16.3726981312       33.7580345500       16.7300667233
C         18.4396371137       34.6327967149       12.5159832558
C         20.5436621858       35.3443498921       13.7222740819
C         18.1846646793       33.9965760829       18.8577606745
C         16.2398254190       34.8138740595       17.6482638305
F         19.0725727258       34.0907452177       19.8727246762
C         17.1468168744       34.9413254555       18.7212216276
O         17.0506809940       35.9675330969       19.6447483640
C         16.0352847715       36.9889709681       19.5946590196
H         22.7179733629       25.8609721980        5.3797666093
H         22.0059512846       27.0437813328        7.4410238288
H         23.7059753557       23.8644534288        9.8364291744
H         21.9879403145       28.2059234901        9.3987019695
H         23.6450021152       27.9194566470       10.0324336672
H         22.9120023432       28.2715134236       12.1983279273
H         19.7166813895       27.6314085900       12.3699175127
H         18.6878932561       29.9267613986       10.8390700481
H         17.6982956600       29.4145355494       13.6752970089
H         17.1865602538       27.5364079930       12.0115734743
H         16.5945422873       28.6473286471       10.7936848509
H         19.7828164910       30.6938182245       13.7301447604
H         19.2268094322       31.7074978166       12.4005466614
H         16.2735631405       31.0787655613       13.2376835261
H         18.1282449321       28.8938683142        8.5992572376
H         18.2223663940       25.5070581859       11.2786203104
H         18.7853372691       34.0329094799       15.2321822690
H         20.1775516008       32.9639340303       15.0601613373
H         19.1180177533       27.4930228385        6.7996654450
H         19.2071889923       24.1116559886        9.4773495805
H         20.2920350738       33.5156680577       12.6400156682
H         19.6535423346       25.0980150430        7.2341029881
H         19.1273825750       32.2281099169       18.0624791202
H         15.6695812024       33.6726114130       15.9042603219
H         17.7953938731       35.2595496056       13.1456512942
H         18.7423694895       35.2256083004       11.6435536062
H         17.8378059818       33.7910169780       12.1499592836
H         21.4416924888       35.0131169225       14.2595322885
H         20.8728308410       35.9138353519       12.8435672515
H         19.9871674714       36.0265537362       14.3780170169
H         15.4307846762       35.5253179037       17.5150043506
H         16.1015040953       37.5565230633       18.6573868824
H         16.1659169782       37.6892911953       20.4293260004
H         15.0342090524       36.5454618445       19.6728443529
    79
VM2 Rank=21     G=216.097           E=129.431           -TS=86.666              
C         23.2130811894       24.7233942583        5.8411284020
C         21.9500305437       25.3224914572        5.9634840379
F         23.4794022672       23.9523850405        4.7631212738
C         24.1860727735       24.9313004446        6.8357798675
C         21.6590036627       26.1270140544        7.0787436923
F         25.4095722554       24.3657018578        6.7322370800
C         23.8941902785       25.7341605761        7.9500343263
C         22.6262467263       26.3342187073        8.0831885030
N         22.3291924627       27.1489005917        9.2119390763
C         21.6274427125       28.4197132379        9.0721122402
C         22.6644169095       26.8849190447       10.5271138449
C         21.6057951991       28.9837513029       10.5034300073
O         22.2322451773       27.9329950763       11.2838989466
O         23.2407147270       25.9016625581       10.9594674684
C         20.1827864860       29.3240002338       10.9866038327
N         19.7711191995       28.6738998437       12.1297232737
O         19.4423177634       30.0716190347       10.3710997617
C         18.3570679696       28.4351086433       12.4625267328
C         17.9135940834       29.2723863083       13.6954694762
C         18.1423833090       26.9123749542       12.6526884250
C         18.0018927874       30.7986428779       13.4140675842
O         16.5725296980       28.9356941838       14.0573318986
C         18.6587535836       26.0899750001       11.4767746036
N         17.9983845756       31.6616589080       14.6264996920
C         19.7718548565       25.2432343444       11.6336711977
C         18.0354046660       26.1834906476       10.2188221626
S         16.4729537416       32.0508655548       15.2893820472
C         19.1136670173       31.4580698104       15.5909012474
C         20.2509411624       24.4924800766       10.5473250162
C         18.5162766359       25.4362166219        9.1307238874
O         15.7104201414       32.6107407807       14.1673044659
O         16.0157454319       30.8666773261       16.0282025181
C         16.8260778712       33.4446292927       16.3857552371
C         20.5328894077       31.5028931639       14.9656603399
C         19.6223824997       24.5874974462        9.2959805092
C         17.1831038040       34.6940840538       15.8445287227
C         16.7719281748       33.2854629264       17.7840531407
C         20.8090597995       32.8617505959       14.2823879539
C         21.5974285707       31.2366582055       16.0505335338
C         17.4791987521       35.7718143459       16.6928994580
C         17.0682136342       34.3651718334       18.6340112911
F         17.8205825778       36.9582337009       16.1421175056
C         17.4247719758       35.6188351901       18.0936870854
O         17.7251569761       36.7048769676       18.8971850354
C         17.7057059631       36.6573489200       20.3374035978
H         21.1990490746       25.1616164821        5.1951394083
H         20.6738542496       26.5777971730        7.1630286219
H         24.6588303219       25.8872456385        8.7060598305
H         20.6071275998       28.2557928223        8.7015095684
H         22.1689121343       29.0897238671        8.3924002499
H         22.2062399852       29.8999943890       10.5599189430
H         20.4649263834       28.0672105360       12.5495488075
H         17.7349450045       28.7507065204       11.6130487598
H         18.5929309593       29.0153077157       14.5180568170
H         18.6286708665       26.5930247638       13.5829963740
H         17.0724422398       26.7094521995       12.7881285710
H         18.9141344331       31.0034046773       12.8442019900
H         17.1757559156       31.0778649028       12.7466008242
H         16.3598844926       29.4209811006       14.8899171322
H         20.2690025537       25.1666000971       12.5969411648
H         17.1779715974       26.8375530957       10.0847024418
H         19.0830803914       32.2320223537       16.3677843938
H         18.9803591217       30.4983881492       16.1079860824
H         21.1127612606       23.8418852329       10.6748424930
H         18.0296872751       25.5124560501        8.1616504434
H         20.6271702031       30.7054117825       14.2162416262
H         19.9938256524       24.0064630772        8.4555973186
H         17.2353406452       34.8287518660       14.7674104788
H         16.5021734567       32.3227687241       18.2129333925
H         20.7289623356       33.6881929501       15.0001896845
H         21.8177621978       32.8842575041       13.8507817418
H         20.0973536640       33.0516578126       13.4693107010
H         22.6056276134       31.2336742293       15.6166034396
H         21.5683899863       32.0056558685       16.8333810608
H         21.4373464719       30.2606005737       16.5264112867
H         17.0188909635       34.2152166357       19.7080495432
H         16.7037714715       36.3988795676       20.7038563021
H         17.9788426696       37.6372423583       20.7489703045
H         18.4241108347       35.9162553171       20.7110941992
    79
VM2 Rank=22     G=216.115           E=129.937           -TS=86.178              
C         21.3299657844       24.6632466050        6.4047901356
C         21.2830709238       23.6986891918        7.4231884866
F         21.1916950288       24.2751365283        5.1172991768
C         21.5185612974       26.0185313991        6.7318171953
C         21.4209220302       24.0882777280        8.7668694067
F         21.5605731966       26.9624982286        5.7651669146
C         21.6598850067       26.4062106365        8.0735292394
C         21.6057456285       25.4445334919        9.1017313609
N         21.7377552529       25.8392759015       10.4618954361
C         22.7763828364       26.7696869144       10.8902076842
C         20.9571020600       25.4103855191       11.5189102993
C         22.5251089081       26.9255291175       12.3999435950
O         21.4173419697       26.0210489324       12.6476572657
O         20.0218580970       24.6299676596       11.4788161499
C         22.2007274255       28.3826663296       12.7813405088
N         20.8710902095       28.6561326013       13.0146034690
O         23.0447754145       29.2621610559       12.7974444349
C         20.2872437097       29.9944593244       12.8510170773
C         20.4197885398       30.8082555288       14.1685333663
C         18.8273099213       29.8578769992       12.3458637486
C         19.9069304536       32.2630027225       14.0256307419
O         19.7236950432       30.1381911115       15.2161211718
C         18.7266452151       29.0042020556       11.0876126617
N         20.2824852664       33.1684372608       15.1481170457
C         18.2364389082       27.6868921524       11.1575446622
C         19.1397653871       29.5223074017        9.8465766773
S         19.3559998746       33.1640704845       16.5901012914
C         21.7334326809       33.4064181108       15.3580820599
C         18.1554146983       26.8982450591        9.9979717982
C         19.0580543798       28.7345033082        8.6862309097
O         19.9311292879       32.1714241750       17.5056351180
O         19.2740824526       34.5846463833       16.9522127962
C         17.6797302836       32.6866220385       16.0953722960
C         22.5210512896       33.8555441573       14.0989064956
C         18.5637218138       27.4225268182        8.7616176404
C         17.1521968436       31.4340161086       16.4627371855
C         16.8918214044       33.5692865094       15.3305585150
C         21.9558484186       35.1694837289       13.5125693850
C         24.0137421643       34.0368635215       14.4461312727
C         15.8612717726       31.0638707188       16.0564211977
C         15.5980378894       33.1998544922       14.9242975907
F         15.3872574860       29.8506747159       16.4187967215
C         15.0731177754       31.9404815260       15.2828147922
O         13.8056686281       31.5383950591       14.8990820676
C         12.9275573421       32.3444706874       14.0892329553
H         21.1385511292       22.6521559522        7.1700065633
H         21.3829809365       23.3320059767        9.5472243532
H         21.7923254347       27.4580182726        8.3068300445
H         22.6772825049       27.7328973522       10.3733706990
H         23.7708287822       26.3461762536       10.7008431184
H         23.4085989946       26.6164715941       12.9719593602
H         20.2476710987       27.8596853754       12.9704947191
H         20.8614137461       30.5214349275       12.0752974451
H         21.4901811989       30.8442733228       14.4110100314
H         18.1992902960       29.4331944496       13.1397798498
H         18.4124915039       30.8502402303       12.1335937349
H         20.3050830415       32.6698483587       13.0888489707
H         18.8204513483       32.2430702665       13.8919614529
H         20.0574523825       29.2176313833       15.2024882361
H         17.9188127787       27.2712836858       12.1101881562
H         19.5244816790       30.5364986056        9.7814521879
H         21.8579856575       34.1858260604       16.1227990704
H         22.1955188783       32.4968872886       15.7654991755
H         17.7804377804       25.8794828756       10.0592877504
H         19.3781991091       29.1398917984        7.7296261099
H         22.4603746388       33.0704901463       13.3328456783
H         18.5019859217       26.8114998051        7.8646088630
H         17.7467266803       30.7406260089       17.0514899488
H         17.2886019840       34.5412436605       15.0451947484
H         20.9073855827       35.0538991274       13.2112979421
H         22.0060659328       35.9825711671       14.2481027982
H         22.5236673913       35.4785352524       12.6257743535
H         24.4423362071       33.1030683199       14.8325417498
H         24.5900863572       34.3246053177       13.5574335029
H         24.1531149305       34.8156977099       15.2070549380
H         15.0154151672       33.8982725797       14.3317453201
H         11.9844737341       31.8116031879       13.9137178095
H         13.3863470177       32.5595243115       13.1154565842
H         12.6969979999       33.2926410487       14.5919653417
    79
VM2 Rank=23     G=216.124           E=130.128           -TS=85.996              
C         23.7146546734       24.0290050816        6.5167616227
C         23.1214757564       25.2964171340        6.4117561327
F         24.1198374159       23.3918428326        5.3954533820
C         23.8826283269       23.4370161131        7.7819346360
C         22.6955206016       25.9708844279        7.5690776813
F         24.4557657271       22.2185763747        7.9023253666
C         23.4558066949       24.1108968359        8.9373774001
C         22.8540385851       25.3811876861        8.8396608767
N         22.4205647109       26.0653084075       10.0100001031
C         22.6839245889       27.4865057296       10.2048092494
C         21.7475530718       25.5116309527       11.0833157357
C         22.1202004504       27.7729542477       11.6074226671
O         21.5526079718       26.4975883236       12.0041484380
O         21.3820134825       24.3556542009       11.2095419598
C         21.0888301264       28.9178169472       11.6069405361
N         19.8147119254       28.5726887781       12.0016710064
O         21.3579032463       30.0419322281       11.2193578760
C         18.6104568694       29.2998946694       11.5705807404
C         18.0108688903       30.1556115832       12.7203961721
C         17.5953464976       28.2882143990       10.9839634055
C         19.0356024454       31.1881722515       13.2617466017
O         16.8448827150       30.8466314105       12.2643930952
C         18.2005411095       27.4138881194        9.8912112706
N         18.4855616808       32.1557021131       14.2457838964
C         18.4153889759       26.0409969132       10.1137638891
C         18.5651301737       27.9775032171        8.6546721721
S         17.5948844351       31.5188540148       15.5665086175
C         19.3594974229       33.3356613681       14.4488426161
C         18.9814727553       25.2395301571        9.1085051953
C         19.1346393716       27.1775314843        7.6500315984
O         16.2379043706       31.3310064418       15.0376975285
O         18.4067784486       30.4118472157       16.0848080079
C         17.5344325611       32.8139143999       16.8341868370
C         18.6178009686       34.6697901448       14.1873321832
C         19.3401132764       25.8071804892        7.8759609499
C         16.4380773348       33.6961199351       16.8990586985
C         18.5709362051       32.9340724311       17.7813954358
C         19.4865156587       35.8636585413       14.6342209205
C         18.2361700132       34.8139202485       12.6972248556
C         16.3950873054       34.7003514388       17.8781806929
C         18.5282601609       33.9399387729       18.7620639963
F         15.3342827208       35.5377873727       17.9038024178
C         17.4395094550       34.8350761597       18.8154881558
O         17.3623792912       35.8403805812       19.7633599855
C         18.3814415314       36.0778578253       20.7542653948
H         22.9916885248       25.7529341486        5.4345451421
H         22.2303228837       26.9480131252        7.4709430753
H         23.5968261593       23.6407173893        9.9062653731
H         22.1614787586       28.0819901273        9.4447814952
H         23.7613102848       27.6906664483       10.1638751908
H         22.9300529963       28.0521853419       12.2925196031
H         19.7047711970       27.6113758288       12.3008046598
H         18.8892485848       29.9908623713       10.7622720890
H         17.7364807331       29.4709570071       13.5346719233
H         17.1965631260       27.6645766739       11.7939321338
H         16.7356896833       28.8326916358       10.5728926296
H         19.8742409356       30.6459663946       13.7181196456
H         19.4377221758       31.7336879361       12.3975211426
H         16.4230310086       31.2291420076       13.0694472173
H         18.1461253596       25.5927571173       11.0663979845
H         18.4075680032       29.0373631286        8.4732272292
H         19.7849706196       33.3299748723       15.4596128552
H         20.2184293707       33.2972759612       13.7646896785
H         19.1473983412       24.1800122370        9.2878646329
H         19.4136111779       27.6189428239        6.6966056731
H         17.6917249233       34.6940894379       14.7727233444
H         19.7793517168       25.1866358393        7.0988857047
H         15.6225126054       33.6120026667       16.1858438194
H         19.4155773495       32.2490019235       17.7531666161
H         20.4303112940       35.8990364115       14.0747854790
H         18.9601226934       36.8129173730       14.4713061649
H         19.7261674648       35.7955045385       15.7033333812
H         17.7038756740       35.7568248370       12.5187907842
H         19.1273349118       34.8006472903       12.0568494852
H         17.5780824216       33.9954317713       12.3772954724
H         19.3447801356       34.0128548636       19.4737004411
H         19.3415000483       36.3104585494       20.2755503622
H         18.5083896744       35.1987124751       21.3991908277
H         18.0987335777       36.9287802579       21.3868638392
    79
VM2 Rank=24     G=216.159           E=130.012           -TS=86.147              
C         21.5017113908       24.9712574367        6.1690138665
C         21.7193403764       26.3021555406        6.5570218012
F         21.4411364668       24.6658744916        4.8535186661
C         21.3500823994       23.9721226732        7.1478658089
C         21.7842455867       26.6345398709        7.9211945515
F         21.1431217716       22.6843872178        6.7922434252
C         21.4138341200       24.3051861481        8.5103258698
C         21.6266661964       25.6400246165        8.9076356870
N         21.6874279822       25.9796351079       10.2881335408
C         22.7193952319       26.8678348809       10.8118076425
C         20.8415971055       25.5247239950       11.2824552979
C         22.4114597498       26.9371300346       12.3175504497
O         21.2554169509       26.0714453553       12.4607873067
O         19.8912734574       24.7719092848       11.1575353367
C         22.1397240747       28.3790541450       12.7871516986
N         20.8167073978       28.6955238492       13.0015971290
O         23.0197631722       29.2170587890       12.8846346504
C         20.2939209498       30.0644421500       12.8948366871
C         20.3927202284       30.7914361678       14.2646891654
C         18.8576913778       30.0193446443       12.3115478974
C         19.9410443896       32.2712292500       14.1882892788
O         19.6220658384       30.0880076330       15.2353746662
C         18.7899899621       29.2389889373       11.0044006539
N         20.2985834163       33.0932956275       15.3787355210
C         18.2360937752       27.9456178033       10.9743771260
C         19.3026680396       29.7983751510        9.8197453966
S         19.3092881755       33.0388489377       16.7772588056
C         21.7463717758       33.2621154908       15.6640458190
C         18.1918101175       27.2213261200        9.7716452141
C         19.2583337585       29.0747636561        8.6164554722
O         19.8048998736       31.9698429173       17.6524167428
O         19.2653739451       34.4369332164       17.2237070839
C         17.6398180170       32.6615324667       16.1831559123
C         22.6049959427       33.7544845854       14.4690892023
C         18.7017237825       27.7860025856        8.5921101276
C         17.0483559543       31.4119731227       16.4496684945
C         16.9216346753       33.6204140120       15.4418190903
C         22.1138996184       35.1215771336       13.9403458740
C         24.0862203188       33.8575151879       14.8897139945
C         15.7634362234       31.1207101144       15.9672287670
C         15.6338812508       33.3299868219       14.9593839814
F         15.2270501539       29.9086106742       16.2336022321
C         15.0450529553       32.0741843567       15.2169461517
O         13.7812333594       31.7488143521       14.7562361536
C         12.9709386946       32.6387634473       13.9637017600
H         21.8348565078       27.0735106123        5.8008450852
H         21.9421302758       27.6711219109        8.2062992560
H         21.2972520364       23.5211313187        9.2528804563
H         22.6483109812       27.8614546266       10.3508447039
H         23.7164022351       26.4451590012       10.6344116483
H         23.2550872162       26.5466926490       12.8999042451
H         20.1631749047       27.9308002054       12.8865528164
H         20.9260550728       30.6131069726       12.1817480184
H         21.4508182597       30.7697149036       14.5576884179
H         18.1727591666       29.5798930245       13.0483038550
H         18.4953385030       31.0388784289       12.1347506159
H         20.3958891550       32.7165852472       13.2958937907
H         18.8616776973       32.3019849979       14.0070069048
H         19.9222783422       29.1574495369       15.1807261318
H         17.8417106931       27.4982712118       11.8829405884
H         19.7373042818       30.7942494688        9.8321470319
H         21.8647197003       33.9893675475       16.4794505393
H         22.1568081745       32.3128569530       16.0344436736
H         17.7675956875       26.2203092883        9.7558458686
H         19.6557955568       29.5119970446        7.7040327020
H         22.5505564270       33.0191018256       13.6547904399
H         18.6699157670       27.2239337231        7.6621118310
H         17.5887282868       30.6604449924       17.0189578637
H         17.3680911972       34.5905305500       15.2341659035
H         21.0765067273       35.0643634145       13.5882951874
H         22.1601813895       35.8871133610       14.7254922813
H         22.7315017549       35.4606397839       13.0989545167
H         24.2192281552       34.5840243149       15.7018141739
H         24.4634887672       32.8867407576       15.2364681046
H         24.7115888729       34.1750453232       14.0454140166
H         15.1057457099       34.0863090665       14.3871910364
H         13.4796382154       32.8943955009       13.0251666273
H         12.7554016089       33.5628132132       14.5156115027
H         12.0165707269       32.1570129906       13.7162006780
    79
VM2 Rank=25     G=216.173           E=130.026           -TS=86.146              
C         21.2917617036       24.5390994406        6.4774308325
C         21.4019299300       23.6115524222        7.5249155711
F         21.0919390962       24.0944771703        5.2165730173
C         21.3888936470       25.9162560284        6.7482017846
C         21.6053593273       24.0596490020        8.8417621649
F         21.2794486424       26.8247728875        5.7532804430
C         21.5957901302       26.3626648633        8.0628781213
C         21.6992184380       25.4377490039        9.1206072752
N         21.8975862388       25.8910918480       10.4541856157
C         22.8825595325       26.9185915829       10.7734558241
C         21.2363059639       25.4382169449       11.5803563675
C         22.7318045007       27.1074789322       12.2927717992
O         21.7254627058       26.1251104786       12.6516649915
O         20.3699324319       24.5828244499       11.6355474271
C         22.3153235389       28.5460204094       12.6547642304
N         20.9879045304       28.7187082291       12.9792631101
O         23.0818524449       29.4911492160       12.5816406839
C         20.2839267736       29.9985771216       12.8207583272
C         20.4441805384       30.8671870168       14.0996692080
C         18.8073565212       29.7261518261       12.4324376379
C         19.8026802856       32.2696359397       13.9527126264
O         19.8851582224       30.1806717378       15.2165017736
C         18.6859016528       28.8210279363       11.2125729051
N         20.1823713945       33.2427554711       15.0156837927
C         18.3150041959       27.4715704387       11.3606124445
C         18.9605058283       29.3247935881        9.9280267625
S         19.3633713662       33.2195855192       16.5210839497
C         21.6203749109       33.6020232723       15.1104940006
C         18.2147009187       26.6365177666       10.2355566564
C         18.8593825745       28.4904937633        8.8022248755
O         20.0750806826       32.3034049800       17.4201672424
O         19.1999870602       34.6418517657       16.8472208263
C         17.6969716769       32.6065247883       16.1611311278
C         22.2772229142       34.0646917706       13.7830644924
C         18.4842960850       27.1462302561        8.9558435941
C         16.7923623302       33.4109155474       15.4415111047
C         17.2929839541       31.3262012370       16.5865761698
C         21.5672909231       35.3078401769       13.1997480344
C         23.7713584530       34.3749992260       14.0128867143
C         15.5073866876       32.9340188488       15.1408535549
C         16.0069343827       30.8470398344       16.2838429221
F         14.6666314012       33.7283174494       14.4410653643
C         15.1032605875       31.6482632341       15.5551184768
O         13.8304451687       31.2106915210       15.2330958373
C         13.3317997073       29.9016050575       15.5712403189
H         21.3279887408       22.5481971293        7.3150899640
H         21.6892377135       23.3316367196        9.6450698007
H         21.6558251810       27.4295624300        8.2536526457
H         22.6640174500       27.8511519168       10.2374620522
H         23.8925104066       26.5718237212       10.5206783199
H         23.6781725166       26.8922020094       12.8039659699
H         20.4316797203       27.8732295713       13.0054211551
H         20.7536746251       30.5421046082       11.9882715845
H         21.5227048562       30.9984246511       14.2589662309
H         18.2766769106       29.2820657810       13.2845528457
H         18.2970914824       30.6733493928       12.2217589892
H         20.0962421612       32.6732977072       12.9767329034
H         18.7148256116       32.1568293264       13.9022507174
H         20.2933205906       29.2905861643       15.2050535106
H         18.1053318199       27.0669557310       12.3472358005
H         19.2524748882       30.3639129359        9.8022531122
H         21.7352574624       34.4167182687       15.8390919184
H         22.1826309467       32.7474926797       15.5109962926
H         17.9325061303       25.5935017399       10.3569142490
H         19.0721988575       28.8849514960        7.8117510131
H         22.2255793651       33.2496296293       13.0483185485
H         18.4077084881       26.4993941153        8.0854831039
H         17.0877823649       34.4023930649       15.1088471106
H         17.9836695654       30.6953341111       17.1419392365
H         20.5127657277       35.0995006807       12.9807324715
H         21.6040572428       36.1489046305       13.9039522025
H         22.0435155797       35.6275408816       12.2641523842
H         24.2576051101       34.6741225070       13.0754216995
H         23.9013525787       35.1898069353       14.7369041823
H         24.3004972059       33.4924757940       14.3951728088
H         15.7270160016       29.8528567903       16.6176371147
H         13.3249600705       29.7577592478       16.6594369201
H         13.9512832275       29.1202020666       15.1122236030
H         12.3044222032       29.7848704318       15.2037903735
    79
VM2 Rank=26     G=216.178           E=130.068           -TS=86.111              
C         21.3903729579       24.8143298706        6.2449583569
C         21.4993432658       26.1787374470        6.5543241023
F         21.2383048762       24.4371428753        4.9557496977
C         21.4408974769       23.8565114166        7.2742454299
C         21.6573919820       26.5856906733        7.8903894196
F         21.3409399341       22.5377341957        6.9942459580
C         21.5975718739       24.2639354652        8.6086925501
C         21.7021819317       25.6322515204        8.9276637811
N         21.8568043168       26.0468123690       10.2801152392
C         22.8310148951       27.0636480067       10.6610137312
C         21.1641318132       25.5578099168       11.3719842282
C         22.6629312320       27.1769442901       12.1860640223
O         21.6264433930       26.2043974082       12.4795977584
O         20.2937034680       24.7046941248       11.3738608886
C         22.2829627145       28.6048175871       12.6222691042
N         20.9593824412       28.7935189488       12.9524988499
O         23.0731866298       29.5328527533       12.5997346051
C         20.2848741997       30.0942215746       12.8433960725
C         20.4330824070       30.8948420873       14.1670523542
C         18.8133001342       29.8720415728       12.4070937219
C         19.8201306366       32.3147815007       14.0770163702
O         19.8377785062       30.1641327370       15.2360267590
C         18.7064598590       29.0208863510       11.1476166682
N         20.1849935928       33.2235201586       15.2004705383
C         18.2943097095       27.6776837225       11.2280575426
C         19.0413927828       29.5666846093        9.8949996250
S         19.3200233514       33.1393809587       16.6778073264
C         21.6256646738       33.5491520961       15.3559463281
C         18.2140865873       26.8902429270       10.0676234707
C         18.9609531190       28.7798902724        8.7339811425
O         19.9898524407       32.1678288192       17.5505645252
O         19.1683702909       34.5462178974       17.0698645680
C         17.6563966313       32.5721282863       16.2384410998
C         22.3295929150       34.0696651637       14.0748828393
C         18.5461317764       27.4413022175        8.8201275995
C         16.7852260526       33.4266564373       15.5355324061
C         17.2216761692       31.2781086471       16.5848320894
C         21.6592089229       35.3556651945       13.5396594705
C         23.8214903478       34.3385642712       14.3638479716
C         15.5032394100       32.9861006981       15.1730237541
C         15.9386597004       30.8354080206       16.2200868093
F         14.6952276786       33.8284791957       14.4911178096
C         15.0687289801       31.6871747107       15.5078209094
O         13.8001542807       31.2867368902       15.1262602514
C         13.2734296419       29.9696741134       15.3804422543
H         21.4587834279       26.9180179007        5.7593657616
H         21.7291414016       27.6463059563        8.1154492454
H         21.6371939081       23.5111939489        9.3906926550
H         22.6079987702       28.0196036395       10.1698578792
H         23.8466306386       26.7392267711       10.4013521128
H         23.5957221947       26.9061153836       12.6958096101
H         20.3838802778       27.9607414166       12.9324093803
H         20.7845699892       30.6687901205       12.0501133116
H         21.5101801737       30.9972565024       14.3549275561
H         18.2512157490       29.4046837757       13.2259790951
H         18.3293376289       30.8385069735       12.2234804403
H         20.1490258155       32.7636687942       13.1325551149
H         18.7324976570       32.2250911176       13.9897216684
H         20.2304786964       29.2682891436       15.1884834893
H         18.0383063917       27.2407261370       12.1896336147
H         19.3657538113       30.6012051140        9.8216080005
H         21.7333560661       34.3211823710       16.1306428471
H         22.1603737596       32.6635424874       15.7254683195
H         17.9002435067       25.8515141453       10.1368014464
H         19.2207267805       29.2068929943        7.7686580650
H         22.2853086711       33.2963609338       13.2958619783
H         18.4867157974       26.8306740136        7.9226683748
H         17.1045098127       34.4291836080       15.2635733756
H         17.8863569018       30.6086857065       17.1266223763
H         20.6081477477       35.1795578704       13.2795455529
H         21.6898343647       36.1568981943       14.2891481190
H         22.1684945639       35.7159111515       12.6367815014
H         24.3404936655       34.6780455380       13.4582311073
H         23.9442557130       35.1108608852       15.1342388303
H         24.3234928182       33.4269222823       14.7129455068
H         15.6348042703       29.8298586289       16.4934262364
H         13.2318628731       29.7694791001       16.4589152830
H         13.8955263797       29.2037596254       14.8993816543
H         12.2560443597       29.8881114351       14.9774206456
    79
VM2 Rank=27     G=216.204           E=129.878           -TS=86.327              
C         23.2477702224       23.1942050363        6.4815827794
C         22.9643436484       22.4960227782        7.6654756175
F         23.5286989329       22.5022303731        5.3547714572
C         23.2379398562       24.6009996895        6.4790458816
C         22.6680398356       23.2025287814        8.8441756239
F         23.5065284564       25.2909890292        5.3480994751
C         22.9447553506       25.3057485881        7.6572318980
C         22.6508135039       24.6119116301        8.8479421282
N         22.3500007941       25.3256908280       10.0419461429
C         23.1297678429       26.4864171938       10.4554904603
C         21.3465203390       25.0285275491       10.9448846153
C         22.4738268448       26.9152882858       11.7817652285
O         21.4290622959       25.9257398493       11.9668873398
O         20.5248787670       24.1314615233       10.8661447671
C         21.9134798367       28.3519670504       11.7457672573
N         20.6866996556       28.5228257951       12.3499785211
O         22.4847887518       29.2707929403       11.1823005568
C         19.7832595664       29.6495725469       12.0771875959
C         19.2794408253       30.2539727955       13.4189182247
C         18.6475259472       29.1910286665       11.1223044034
C         18.4679956034       31.5639605808       13.2297331080
O         18.4968809644       29.2993540887       14.1434434372
C         19.1595809021       28.4920285149        9.8675927602
N         17.9125273620       32.1546463343       14.4826857337
C         18.9344192393       27.1157619628        9.6778703855
C         19.8667487319       29.2159252453        8.8902297577
S         19.0157373990       32.3188283711       15.7878908718
C         16.9706725330       33.2864617861       14.2524971154
C         19.4029980431       26.4723674307        8.5203408191
C         20.3396678612       28.5727865383        7.7341911038
O         19.0628552752       30.9819509633       16.3942027457
O         20.2026141342       32.9851337940       15.2390323920
C         18.2146807088       33.4132240649       16.9882044960
C         15.7584334949       32.9727207190       13.3344896661
C         20.1029436252       27.2017394789        7.5464566617
C         18.5461788917       34.7810548307       17.0379482189
C         17.2392631934       32.9062077972       17.8690984180
C         14.9607594795       31.7482873068       13.8399022221
C         14.8294296268       34.2026938196       13.2510712412
C         17.9096689873       35.6283071855       17.9579904186
C         16.6013039222       33.7550326676       18.7899908263
F         18.2488116652       36.9367251065       17.9787751539
C         16.9324146674       35.1253717303       18.8413634624
O         16.3257396140       35.9934848303       19.7321941397
C         15.3115328018       35.5870239223       20.6719048708
H         22.9744708306       21.4096770853        7.6677194441
H         22.4532107468       22.6495223566        9.7554077661
H         22.9373485207       26.3909451108        7.6330913790
H         23.0624638768       27.2835236329        9.7040724429
H         24.1798563173       26.2081366958       10.6098332603
H         23.1962992128       26.8593664832       12.6050720722
H         20.2922553068       27.7067130811       12.8021805854
H         20.3539450983       30.4353885491       11.5629410089
H         20.1804631590       30.4926873370       14.0004754080
H         17.9656299595       28.5251632944       11.6664074183
H         18.0458644347       30.0549243524       10.8185703106
H         19.1133546723       32.3016921809       12.7344071325
H         17.6508612278       31.3328345300       12.5417278868
H         18.4288028850       29.6520255928       15.0614550408
H         18.3971778912       26.5420997190       10.4285937298
H         20.0536245594       30.2772839869        9.0291507887
H         16.5402896253       33.6183149128       15.2039610309
H         17.5219125356       34.1406418967       13.8354625141
H         19.2252024055       25.4088231985        8.3804198753
H         20.8855431421       29.1380045075        6.9830155765
H         16.1124275612       32.7692932798       12.3151013380
H         20.4624154893       26.7051874703        6.6486459164
H         19.2936782077       35.1904273167       16.3638041243
H         16.9724511223       31.8519960462       17.8361652846
H         14.0979786182       31.5488189997       13.1917802577
H         15.5819817281       30.8434571266       13.8498999590
H         14.5886918370       31.9127961391       14.8591675035
H         13.9864582704       34.0107717017       12.5747751209
H         14.4199326880       34.4600906565       14.2365564005
H         15.3703009396       35.0778781524       12.8685234662
H         15.8525847706       33.3373289114       19.4558733373
H         15.7015891256       34.8245639011       21.3585480482
H         14.4369822118       35.1805910292       20.1475458873
H         14.9842805339       36.4489009404       21.2670997127
    79
VM2 Rank=28     G=216.207           E=129.073           -TS=87.134              
C         22.1113979278       26.2227455247        5.5159574081
C         21.1708482746       27.1557604223        5.9786021366
F         22.0987002811       25.8584989492        4.2141736841
C         23.0551280352       25.6792027521        6.4065867374
C         21.1722740153       27.5441306148        7.3294943408
F         23.9712845000       24.7824692469        5.9775186535
C         23.0551491332       26.0668213876        7.7560650604
C         22.1101241194       26.9985613346        8.2295806886
N         22.1090485392       27.3926114577        9.5972907565
C         21.9543352517       28.7889646543        9.9888480303
C         22.2702610654       26.5630707466       10.6916541400
C         22.0998884390       28.7563813213       11.5200911219
O         22.2447564238       27.3419434424       11.8100204959
O         22.4106664365       25.3522543103       10.6865916814
C         20.9009242339       29.3995836054       12.2430152194
N         20.1981034748       28.5682609412       13.0878899705
O         20.5519563838       30.5496410134       12.0386541843
C         18.7826901411       28.7771945715       13.4330534559
C         18.6116790527       29.2442750257       14.9061824792
C         17.9961382430       27.4812914467       13.1138629632
C         19.3287515960       30.5986046392       15.1628433846
O         17.2219465308       29.3757391765       15.2103333520
C         18.2186407151       26.9924874717       11.6867169607
N         19.4385601240       30.9919956035       16.5962109024
C         18.9285377585       25.8019611056       11.4434330643
C         17.7287985629       27.7380246418       10.5986329730
S         18.1145085619       31.7708552614       17.3469222342
C         20.2008364117       30.0715351881       17.4790013971
C         19.1393283676       25.3580584623       10.1274375149
C         17.9424601325       27.2969659721        9.2820520756
O         17.1351130716       30.7222192251       17.6610062669
O         18.7219301368       32.6131302987       18.3843300706
C         17.4871374938       32.9061482618       16.0852205751
C         21.6169014212       29.6915715666       16.9694517961
C         18.6452322963       26.1046074689        9.0464429200
C         18.2073893902       34.0734142289       15.7676045162
C         16.2910226260       32.6234033943       15.3970143791
C         22.5097673476       30.9397477383       16.7838576477
C         22.2874026131       28.7101164009       17.9535910817
C         17.7363442624       34.9455145575       14.7743015233
C         15.8197306453       33.4962099499       14.4012690305
F         18.4526538331       36.0566182525       14.4916055597
C         16.5404181224       34.6660358861       14.0815356710
O         16.1101721423       35.5488132413       13.1063757746
C         14.9130618653       35.3515592382       12.3286761205
H         20.4422373597       27.5750664113        5.2904821329
H         20.4325689409       28.2615724615        7.6743499749
H         23.7935974667       25.6401361119        8.4286117249
H         20.9631630089       29.1614047668        9.6988003866
H         22.7353560717       29.4095011083        9.5316124494
H         23.0043603967       29.2957727320       11.8270364284
H         20.5724961682       27.6312930054       13.1749475912
H         18.3777741473       29.5723145374       12.7909773832
H         19.0598121001       28.4737335171       15.5469834105
H         18.2779776532       26.7012485421       13.8322083607
H         16.9240564006       27.6581779130       13.2677311445
H         20.3393000270       30.5404969912       14.7451187700
H         18.8268337785       31.3746367849       14.5731876802
H         17.1441551784       29.5577785168       16.1764617404
H         19.3197764333       25.2193862143       12.2731624773
H         17.1827991461       28.6610488626       10.7744430489
H         20.3193478803       30.5394691805       18.4662523694
H         19.6195545798       29.1536091695       17.6394715317
H         19.6907810595       24.4386323119        9.9462742148
H         17.5607927247       27.8771897210        8.4457851566
H         21.5301291173       29.1737990920       16.0044369599
H         18.8094462748       25.7609460024        8.0282298198
H         19.1342731109       34.3026582149       16.2865932345
H         15.7274491370       31.7224667249       15.6291554537
H         22.0814020688       31.6313272651       16.0478283783
H         22.6261812091       31.4848614703       17.7293177808
H         23.5092277850       30.6567417773       16.4299445549
H         23.2775950763       28.4067471313       17.5899299828
H         22.4156384286       29.1661899872       18.9438384875
H         21.6840434984       27.8010819625       18.0735299318
H         14.8965200797       33.2517667217       13.8852402329
H         14.0291982306       35.3162560586       12.9786665323
H         14.9719818959       34.4169084833       11.7560037822
H         14.7847726744       36.1799811724       11.6205602354
    79
VM2 Rank=29     G=216.235           E=129.921           -TS=86.313              
C         23.1285015851       23.1000089786        6.5203371593
C         22.4441045057       22.3907980012        7.5193419921
F         23.5021623210       22.4593986069        5.3900945499
C         23.4187897745       24.4642186938        6.7042881245
C         22.0472356549       23.0447085211        8.6988242217
F         24.0754364144       25.1645128995        5.7526213865
C         23.0246272618       25.1157337823        7.8836579342
C         22.3296043960       24.4126447791        8.8877569516
N         21.9265220871       25.0733770425       10.0821550908
C         22.8215466348       25.9775577069       10.7947139747
C         20.7059625203       24.9463514403       10.7183010344
C         21.9904573649       26.4352437538       12.0083930113
O         20.7450749673       25.7086504239       11.8468686949
O         19.7517842033       24.2789041645       10.3576352830
C         21.7709878565       27.9613847735       12.0537928093
N         20.5048163232       28.3654887488       12.4181591859
O         22.6362336353       28.7635283188       11.7438743391
C         19.9464415888       29.6927423742       12.1235562939
C         19.2940017160       30.2832401537       13.4061345361
C         18.9838079010       29.5981192104       10.9085127594
C         18.8429102247       31.7588970030       13.2353719662
O         18.1843079238       29.4825787336       13.8257546161
C         19.6045660483       28.9069192276        9.6993781252
N         18.1588218034       32.3566886876       14.4194655041
C         19.1406179205       27.6441502226        9.2859009524
C         20.6509390899       29.5232733803        8.9890489852
S         18.9496659373       32.1457705700       15.9286386387
C         17.5574901481       33.6949725278       14.1576666944
C         19.7100527883       27.0087754462        8.1699069525
C         21.2242346525       28.8869834548        7.8754200043
O         18.5795213095       30.7872254011       16.3462796589
O         20.3416868157       32.5628979627       15.7232454096
C         18.1420861517       33.2853291062       17.0815551657
C         16.5412485488       33.7541373002       12.9852984121
C         20.7499678741       27.6318225822        7.4622724157
C         16.9112506374       32.9387839924       17.6714649442
C         18.7260516601       34.5316178798       17.3824698573
C         15.4080736307       32.7164037583       13.1584731963
C         15.9394662623       35.1718620874       12.8816264629
C         16.2746033937       33.8276814852       18.5510296074
C         18.0880722028       35.4220734344       18.2633228432
F         15.0927280678       33.4658485110       19.0984615483
C         16.8550496175       35.0761870944       18.8552051396
O         16.1953675084       35.9262255345       19.7255615955
C         16.6951210707       37.2252822432       20.0991619715
H         22.2222997889       21.3367088155        7.3780814656
H         21.5203015759       22.4829250147        9.4663211208
H         23.2537173466       26.1699211830        8.0040539428
H         23.0960000133       26.8287586985       10.1585755651
H         23.7262211562       25.4469242983       11.1171142363
H         22.4802806563       26.1405150414       12.9444139306
H         19.8546067244       27.6304129977       12.6691671883
H         20.7717372223       30.3620971108       11.8434060126
H         20.0708612445       30.2524872943       14.1823979766
H         18.0715687858       29.0685212105       11.2114252442
H         18.6634494340       30.6022388666       10.6090451324
H         19.7246015287       32.3623829335       12.9813764745
H         18.1711035057       31.7861513806       12.3737303384
H         17.9895161214       29.7611863696       14.7510441057
H         18.3387872550       27.1522529673        9.8303331421
H         21.0229766459       30.4946048662        9.3033830598
H         17.0082292598       34.0413042997       15.0402127340
H         18.3579771074       34.4246864149       13.9728696909
H         19.3464154686       26.0332643142        7.8561231966
H         22.0326037111       29.3686893603        7.3311642715
H         17.0609432623       33.5569857235       12.0382588948
H         21.1884058687       27.1423366572        6.5962333112
H         16.4451942578       31.9832548427       17.4461007514
H         19.6749431579       34.8124916342       16.9306747223
H         15.8031016091       31.6924331186       13.1721736723
H         14.8629197239       32.8798660456       14.0968289515
H         14.6886459432       32.7812591518       12.3323606381
H         15.3858996030       35.4371043724       13.7917542270
H         16.7263625143       35.9222475332       12.7314726371
H         15.2469781256       35.2415156430       12.0328493763
H         18.5601700698       36.3760467510       18.4767462823
H         16.7994340538       37.8696339278       19.2166064851
H         17.6709359343       37.1382235341       20.5943111505
H         15.9991418169       37.7089153320       20.7962269388
    79
VM2 Rank=30     G=216.265           E=130.412           -TS=85.852              
C         23.2886586531       23.2205475625        6.3987169041
C         23.1682571617       22.5585544144        7.6302524315
F         23.5335192919       22.5014257307        5.2805223731
C         23.1550352828       24.6197922988        6.3400586783
C         22.9112043728       23.2933348334        8.8008552544
F         23.2657889614       25.2749068244        5.1628472814
C         22.9012100067       25.3530584434        7.5099447916
C         22.7706490040       24.6948288097        8.7490006141
N         22.5097137435       25.4371832753        9.9348934831
C         23.2180008122       26.6766786830       10.2320306643
C         21.6142403798       25.1013106404       10.9328108188
C         22.6369071838       27.1146135833       11.5899139470
O         21.7031107241       26.0502468422       11.9064292473
O         20.8700606573       24.1362444322       10.9622634074
C         21.9491511752       28.4944470959       11.5398181895
N         20.7673993726       28.5912568468       12.2422049231
O         22.3863577360       29.4281357846       10.8877246976
C         19.7470604522       29.6212424677       12.0008618556
C         19.3032991214       30.2473543702       13.3534122224
C         18.5810346675       29.0196736306       11.1703395546
C         18.3623727870       31.4691773193       13.1786623366
O         18.6765824977       29.2661952198       14.1870827695
C         19.0463309348       28.3075213115        9.9048534563
N         17.8688236000       32.0531937425       14.4524611281
C         18.9315095597       26.9093269331        9.7922948013
C         19.5999186213       29.0415712392        8.8399298648
S         19.0119486195       32.3715272664       15.6917494528
C         16.6963843162       32.9429071232       14.2769620997
C         19.3570464672       26.2534056829        8.6252061340
C         20.0298453122       28.3863648564        7.6739185442
O         19.1719416741       31.0869132050       16.3849266380
O         20.1217916357       33.0598410552       15.0223787187
C         18.2369071012       33.5477532740       16.8336178938
C         15.4779678307       32.4796563201       15.1130448198
C         19.9033356766       26.9924465042        7.5641920725
C         18.3147907553       34.9327770691       16.5884868608
C         17.5719680224       33.0900877665       17.9887247326
C         14.3675193921       33.5500317411       15.0824288471
C         14.9314282396       31.1272343525       14.6036769547
C         17.7116288535       35.8424690139       17.4702749276
C         16.9672475229       34.0010170596       18.8718803918
F         17.7950892424       37.1638567929       17.1978576336
C         17.0293205858       35.3868389316       18.6167178793
O         16.4436849686       36.3148818457       19.4598139454
C         15.7059570238       35.9571678050       20.6449557577
H         23.2739351599       21.4782621993        7.6755869152
H         22.8231096579       22.7685923542        9.7491169676
H         22.7963388625       26.4313763557        7.4426328245
H         23.0227231517       27.4279549268        9.4561764187
H         24.2970150637       26.4928868073       10.3088160552
H         23.4261585387       27.1625252012       12.3499861129
H         20.4870266334       27.7692696756       12.7635746457
H         20.2000151132       30.4261427077       11.4053822392
H         20.2223627864       30.5962351205       13.8441023089
H         18.0111515863       28.3244177968       11.7998349251
H         17.8798343794       29.8124801360       10.8867728760
H         18.8924582506       32.2400434485       12.6035148934
H         17.4992310247       31.1507947958       12.5822210317
H         18.6301131123       29.6648308100       15.0872582796
H         18.5137626500       26.3284654912       10.6104611619
H         19.7009418578       30.1206338089        8.9182033392
H         16.9567044298       33.9779138933       14.5288751771
H         16.3856900828       32.9629288630       13.2233853548
H         19.2651672656       25.1729035993        8.5452651005
H         20.4569185137       28.9595558049        6.8549083289
H         15.7825010849       32.3448459091       16.1573076584
H         20.2293154067       26.4858240849        6.6592468702
H         18.8366368797       35.3058253889       15.7112943562
H         17.5155115197       32.0240861921       18.1983362558
H         13.5078927860       33.2390893582       15.6899327483
H         14.7315044097       34.5042152778       15.4850949148
H         14.0131873532       33.7251009119       14.0583420772
H         14.0729574708       30.8009239294       15.2043390655
H         14.6060250811       31.1995981297       13.5581116368
H         15.6970923976       30.3428718746       14.6661635630
H         16.4547243660       33.6185271314       19.7490580083
H         16.3467365533       35.4151586255       21.3524602792
H         14.8438782059       35.3272296559       20.3900177316
H         15.3343404721       36.8616287006       21.1429752472
