    79
VM2 Rank=1      G=209.727           E=120.601           -TS=89.126              
C         19.7733402764       22.3828277178        5.4857088478
C         20.5764165080       21.8472234263        6.5055631165
C         19.4298576894       23.7422784112        5.5124251833
C         21.0291700973       22.6731945641        7.5485862735
C         19.8830478429       24.5690432268        6.5510207722
F         18.6567737578       24.2586726009        4.5350478799
C         20.6824932905       24.0388042532        7.5826152782
N         21.1417034744       24.8733596688        8.6399916634
C         21.1622540605       24.5567098395        9.9851546688
C         21.6811752042       26.2037233766        8.3842661593
O         21.7155004411       25.6092404194       10.6503652091
O         20.7660272377       23.5294346044       10.5083895290
C         22.0477010486       26.7264395060        9.7863548699
C         21.2825713213       28.0080690586       10.1759836428
N         20.8333703920       28.0554174439       11.4780771658
O         21.0442149599       28.9034396032        9.3824695300
C         19.7489313110       28.9310942333       11.9436552737
C         18.4344071139       28.1173468216       12.0816217459
C         20.1737986977       29.6561499305       13.2515490722
C         18.0686629262       27.3488765852       10.8168082003
C         19.1187749081       30.6980682977       13.7116160558
O         20.4159475762       28.6993200169       14.2883832381
C         18.1405337866       25.9435443356       10.7925846048
C         17.6635698346       28.0385869823        9.6594836334
N         19.6094038395       31.6916927353       14.7054958907
C         17.8042335212       25.2352616897        9.6270048524
C         17.3305215189       27.3316357867        8.4919987485
C         20.7362076116       32.5644004112       14.2777727313
S         19.5965452629       31.2122967148       16.3455983549
C         17.3961961489       25.9292915803        8.4771123966
C         20.4945011346       33.3333236555       12.9530498821
C         19.7393948563       32.7732501992       17.2468878865
O         18.2277927814       30.7398900305       16.5851383760
O         20.7652365600       30.3457140510       16.5456446690
C         19.2534954464       34.2500153527       13.0497682584
C         21.7386664187       34.1731264255       12.5951395817
C         20.9228178483       33.0923697251       17.9405403091
C         18.6729901307       33.6920593242       17.2379386150
C         21.0389077624       34.3164381888       18.6218267701
C         18.7889556987       34.9141614532       17.9175711973
C         19.9707504053       35.2382621766       18.6153607219
F         17.7478313635       35.7759538437       17.8880204124
O         20.0475685997       36.4540093850       19.2721514155
C         21.2077393346       36.8869823473       20.0092573172
H         19.4184208129       21.7497393177        4.6775069949
H         20.8475786408       20.7943226647        6.4884616134
H         21.6527587525       22.2471445028        8.3306197102
H         19.5996626440       25.6166722851        6.5523218743
H         22.5708481897       26.1397388657        7.7452753542
H         20.9258011984       26.8413581432        7.9075342230
H         23.1204298633       26.9462013422        9.8485319518
H         21.0897366336       27.2746817518       12.0703832615
H         19.5811622871       29.7074248835       11.1841886683
H         18.5273999866       27.4219681035       12.9255714788
H         17.6080667873       28.7909419705       12.3370591343
H         21.1077320630       30.1840420996       13.0196400515
H         18.7513812929       31.2291854749       12.8254901156
H         18.2512270396       30.1631937165       14.1198987619
H         20.7704371943       29.1891474226       15.0676515769
H         18.4602900473       25.3981538919       11.6766876380
H         17.6116944668       29.1239275862        9.6636614989
H         17.8631924589       24.1495573875        9.6149449615
H         17.0191906165       27.8706460850        7.6007983239
H         20.9407321070       33.3170475525       15.0492619456
H         21.6518145370       31.9651094338       14.1849930667
H         17.1335418756       25.3814398398        7.5755225700
H         20.3407785240       32.6147433395       12.1365172252
H         19.0967143713       34.7958806152       12.1107049126
H         18.3439683282       33.6704490618       13.2510798902
H         19.3685944283       34.9870359405       13.8549533266
H         21.5943674246       34.6994757554       11.6428014255
H         21.9475398261       34.9239851933       13.3682389842
H         22.6261584514       33.5355695558       12.4916443594
H         21.7549673510       32.3917097675       17.9495619138
H         17.7568035995       33.4612320593       16.7009611868
H         21.9621339392       34.5373394789       19.1484528518
H         21.0301369560       37.8811187067       20.4386098159
H         21.4269564320       36.1928765991       20.8309255880
H         22.0844711743       36.9491686499       19.3516440221
    79
VM2 Rank=2      G=209.796           E=120.679           -TS=89.117              
C         19.8273022034       22.3768526636        5.4902519010
C         20.6085488206       21.8408250026        6.5267114847
C         19.4878944287       23.7374845587        5.5073787783
C         21.0436491075       22.6675768356        7.5766083858
C         19.9235364121       24.5650225176        6.5528439446
F         18.7357006849       24.2542779326        4.5140408628
C         20.7009782100       24.0343922872        7.6009138303
N         21.1423300666       24.8697417750        8.6652070128
C         21.1344563225       24.5564903067       10.0112885510
C         21.6924980888       26.1971314294        8.4170163959
O         21.6782113721       25.6086399701       10.6848946319
O         20.7238181379       23.5320508134       10.5289437536
C         22.0317768007       26.7224478003        9.8249787666
C         21.2628284989       28.0075291174       10.1952470747
N         20.7867716695       28.0599012771       11.4875699945
O         21.0439102827       28.9014776717        9.3945575685
C         19.6958189689       28.9404894401       11.9279870632
C         18.3766532120       28.1308685165       12.0437955076
C         20.0969545409       29.6707716177       13.2404217901
C         18.0335119851       27.3582541649       10.7751740912
C         19.0365630102       30.7187068884       13.6736990138
O         20.3147486228       28.7185711789       14.2868547544
C         17.6532291763       28.0443637802        9.6073348208
C         18.1016057817       25.9526297096       10.7580770009
N         19.5112985063       31.7174050305       14.6702115688
C         17.3410250152       27.3335832373        8.4364185329
C         17.7861141398       25.2405371166        9.5890040318
C         20.6493072512       32.5833455918       14.2586211102
S         19.4652686398       31.2485182181       16.3127959616
C         17.4027499846       25.9310029105        8.4285278608
C         20.4378361475       33.3416923753       12.9226513618
C         19.6012306086       32.8135487000       17.2082164356
O         18.0900009771       30.7841443021       16.5296814838
O         20.6256195181       30.3775309948       16.5402529288
C         19.1986501187       34.2637010534       12.9860991209
C         21.6922894105       34.1738733019       12.5833189936
C         18.5437002407       33.7427337759       17.1729762060
C         20.7727102517       33.1248678689       17.9242464929
C         18.6526162744       34.9706516100       17.8481033033
C         20.8811384257       34.3505207010       18.5992591300
C         19.8247350157       35.2842299153       18.5679816255
F         22.0192236971       34.6205786292       19.2769835267
O         19.9712103239       36.4828081923       19.2441883073
C         18.9599790486       37.5092292199       19.2696650389
H         19.4860856670       21.7431719804        4.6766312513
H         20.8764604775       20.7869970483        6.5171401771
H         21.6504148878       22.2412167071        8.3716013517
H         19.6436520823       25.6135792534        6.5464592099
H         22.5951029716       26.1275800540        7.7970264303
H         20.9499775700       26.8364324404        7.9226600847
H         23.1036848567       26.9390471973        9.9086900122
H         21.0282067248       27.2800028284       12.0871984437
H         19.5449366318       29.7136950104       11.1618256190
H         18.4513724071       27.4386980325       12.8921863447
H         17.5473894440       28.8077244457       12.2804606387
H         21.0372475591       30.1941749296       13.0246116052
H         18.6876182013       31.2451569161       12.7773910868
H         18.1597922448       30.1890214712       14.0688560207
H         20.6552240678       29.2112816004       15.0705517402
H         17.6045034180       29.1298574714        9.6060838101
H         18.4023562479       25.4099462084       11.6504761594
H         17.0488602208       27.8698175910        7.5370910982
H         17.8421042335       24.1546267681        9.5825016173
H         20.8397005497       33.3420594684       15.0277523166
H         21.5648622910       31.9807051498       14.1900818742
H         17.1563180309       25.3802076080        7.5241555791
H         20.2982235540       32.6167545219       12.1092126190
H         19.0632113022       34.8021282014       12.0394523788
H         18.2830221035       33.6891703035       13.1736928261
H         19.3001956339       35.0070293800       13.7872778436
H         21.5695867589       34.6926028881       11.6237996277
H         21.8881226680       34.9305336763       13.3541729509
H         22.5792789154       33.5322276302       12.5034714589
H         17.6377237293       33.5123449617       16.6164317313
H         21.5999866688       32.4209941948       17.9569245133
H         17.8224600139       35.6686767411       17.8032499010
H         18.7437504131       37.8662727002       18.2544011941
H         18.0330820177       37.1299513169       19.7190909049
H         19.3061645907       38.3624486484       19.8666266439
    79
VM2 Rank=3      G=209.853           E=120.095           -TS=89.758              
C         18.4546022526       22.3350159446        7.2026508192
C         19.4342364389       21.9107412814        8.1148757964
C         18.2423971277       23.7060254307        6.9975911533
C         20.1942862781       22.8597272654        8.8197563879
C         19.0018293275       24.6548451200        7.6980290080
F         17.3006971910       24.1161284606        6.1231734044
C         19.9811654567       24.2386972182        8.6212404452
N         20.7520968691       25.1981667389        9.3359983096
C         21.0798227565       25.1527194791       10.6779876819
C         21.3151470212       26.3704333848        8.6763699755
O         21.8639644639       26.2331951472       10.9501278586
O         20.7437854992       24.3101762937       11.4924098822
C         22.0677514186       27.1004273281        9.8050349049
C         21.5456902014       28.5295855974       10.0588551544
N         21.4463125941       28.8955325302       11.3838213832
O         21.1967369232       29.2761173464        9.1593358844
C         20.5967291822       29.9892002969       11.8747533968
C         19.2854957720       29.4113788548       12.4741267447
C         21.3983806168       30.8751549296       12.8697672204
C         18.5591297374       28.4590578058       11.5311361133
C         20.5964483359       32.1273325613       13.3147326603
O         21.7936748885       30.0991194475       14.0050640662
C         17.9537120276       28.9459210368       10.3583034678
C         18.4921483028       27.0837714857       11.8222733907
N         21.3849400407       33.1451507799       14.0660241987
C         17.2856909410       28.0686901707        9.4877303895
C         17.8210718755       26.2061699903       10.9546554362
C         22.5256245525       33.7675623115       13.3461648559
S         21.6365923950       32.9267459072       15.7444657366
C         17.2148949552       26.6991550090        9.7885070601
C         22.1745035959       34.3851792568       11.9668972515
C         20.0737034427       32.2429634338       16.3499952227
O         22.7310840628       31.9566247335       15.8794523842
O         21.7226832583       34.2888573126       16.2844965419
C         21.0930265313       35.4823668084       12.0936292921
C         23.4425785231       34.9733668206       11.3130453650
C         19.9674120845       30.8772992850       16.6789665080
C         18.9410845826       33.0711336175       16.4666335531
C         18.7427100991       30.3432251929       17.1147495971
C         17.7187816161       32.5386067087       16.9043505616
C         17.6065254058       31.1712562002       17.2299360275
F         16.6492914310       33.3598009166       17.0008423450
O         16.3825137144       30.6819021899       17.6512271162
C         16.1490462095       29.2964723702       17.9718154478
H         17.8623355525       21.6069533392        6.6557484253
H         19.6045873810       20.8489088838        8.2758525221
H         20.9518868587       22.5182021708        9.5207093058
H         18.8156190968       25.7099926467        7.5254113534
H         22.0040902392       26.0673878420        7.8779720815
H         20.5170803482       26.9988783365        8.2608353852
H         23.1370756117       27.1721599357        9.5719975950
H         21.7721512635       28.2182513532       12.0629523751
H         20.3223718033       30.6249115317       11.0213909795
H         19.5146833601       28.8970502360       13.4161489195
H         18.6058232056       30.2301928817       12.7365469218
H         22.2948193781       31.2133009877       12.3332513717
H         20.1767722533       32.5937853866       12.4155090060
H         19.7300156341       31.8028953239       13.9007555191
H         22.4102755732       30.6492210379       14.5423380293
H         18.0055400918       30.0045530842       10.1190216677
H         18.9627894698       26.6925158486       12.7204400728
H         16.8208143981       28.4511261159        8.5825770332
H         17.7740944486       25.1445671148       11.1851659577
H         22.9455756179       34.5697975114       13.9689460201
H         23.3258086073       33.0266450379       13.2156582696
H         16.6932257805       26.0206939206        9.1180616616
H         21.8009982072       33.5968945781       11.2993381036
H         20.8591189108       35.9164672325       11.1132179507
H         20.1610418652       35.0782889374       12.5078886031
H         21.4298486941       36.2932484262       12.7521855620
H         23.2161309463       35.3858812669       10.3214047951
H         23.8681269999       35.7788866643       11.9255184128
H         24.2121248031       34.2012770221       11.1845887839
H         20.8332014046       30.2250269398       16.5896071676
H         19.0057423755       34.1256016758       16.2117931549
H         18.6892621414       29.2864283912       17.3569612927
H         16.3476211241       28.6581272221       17.1010987959
H         16.7914507889       28.9764825145       18.8023892370
H         15.1035066575       29.1517375141       18.2719293521
    79
VM2 Rank=4      G=209.854           E=120.538           -TS=89.316              
C         20.7904525028       23.3923036137        5.2445096076
C         21.8905188789       23.2262767212        6.1013656780
C         19.8475539127       24.3960312304        5.5095649879
C         22.0403538241       24.0628455659        7.2206540923
C         19.9966925751       25.2339542687        6.6245655368
F         18.7885135599       24.5555978803        4.6894843460
C         21.0927436092       25.0695408997        7.4941704907
N         21.2458305631       25.9167690821        8.6273271481
C         21.6198360844       25.5275073525        9.9001040300
C         21.0322469647       27.3565412349        8.5368186305
O         21.6834901929       26.6477077381       10.6741995010
O         21.8549969577       24.3963216041       10.2887436324
C         21.3770288749       27.8656215163        9.9471532458
C         20.2288978028       28.6722691327       10.5839183760
N         19.7488573705       28.1822660118       11.7790347653
O         19.7336179787       29.6464766370       10.0438121076
C         18.3927218511       28.4545606474       12.2829553650
C         17.6751042667       27.1036595615       12.5297929220
C         18.4267193564       29.3660513898       13.5423582649
C         17.7145445272       26.1818439339       11.3156349432
C         19.0183708917       30.7671757018       13.2211055977
O         17.1071987664       29.5206961717       14.0692936112
C         18.4764373835       24.9989027893       11.3432935282
C         17.0005226665       26.5151602647       10.1499972470
N         19.4704982902       31.5443730664       14.4069894690
C         18.5169718960       24.1547327095       10.2212067041
C         17.0432826067       25.6734260280        9.0260147607
C         20.5485461706       30.9329231286       15.2312035820
S         18.2769652678       32.4352277381       15.2435388659
C         17.7986360322       24.4905828150        9.0630919212
C         21.8020120626       30.4822391114       14.4357131966
C         19.2332768721       33.5798115192       16.2658961693
O         17.6364349557       33.2607690947       14.2129225619
O         17.5179807281       31.4738597068       16.0539706300
C         22.4604839270       31.6685509977       13.6950761253
C         22.8247499739       29.8267910391       15.3872099406
C         19.9526915027       34.6316612623       15.6666441023
C         19.2859752740       33.4129076703       17.6628216593
C         20.7157774481       35.5109714779       16.4540338288
C         20.0471484306       34.2914450385       18.4492058764
C         20.7685968465       35.3470771433       17.8543054798
F         20.0784898711       34.1041884910       19.7876509198
O         21.5093751251       36.1904876762       18.6637556108
C         22.2888553568       37.2928933367       18.1598909410
H         20.6674996939       22.7479602085        4.3786837066
H         22.6257373912       22.4510509364        5.8991635315
H         22.8981226741       23.9261799799        7.8744571792
H         19.2499410472       25.9986799639        6.8129740319
H         21.6960907171       27.8004453614        7.7842495455
H         19.9855763378       27.5745606760        8.2874389772
H         22.2616113670       28.5133116153        9.9121101873
H         20.2276835928       27.3607990694       12.1276796472
H         17.8271915028       28.9900214021       11.5072596962
H         18.1269068347       26.6084007027       13.3984286524
H         16.6286379875       27.2913122505       12.8017773324
H         19.0628073657       28.8648936766       14.2829257793
H         19.8670154448       30.6477364937       12.5396910825
H         18.2713762150       31.3389514636       12.6545094309
H         17.1827919596       30.0311690964       14.9105098826
H         19.0401467419       24.7323948765       12.2333045385
H         16.4129370322       27.4286908657       10.1155509912
H         19.1096724436       23.2435373168       10.2481688904
H         16.4889662176       25.9362070611        8.1285522891
H         20.8921741345       31.6482766729       15.9885730444
H         20.1453435566       30.0723488612       15.7816245522
H         17.8303885937       23.8369831066        8.1948899133
H         21.5124320425       29.7221599798       13.6975604634
H         21.7701247732       32.1200816613       12.9717445215
H         22.7695748575       32.4511939001       14.3997486586
H         23.3496316144       31.3392914013       13.1425686939
H         23.1684939003       30.5361761197       16.1511911194
H         22.3853934714       28.9612982226       15.8997166650
H         23.7040790944       29.4740359910       14.8330336213
H         19.9224410902       34.7633577516       14.5871176141
H         18.7409251297       32.6030823185       18.1402952265
H         21.2612047502       36.3124649173       15.9656416609
H         23.0611371181       36.9368886546       17.4657466390
H         21.6475555332       38.0158749082       17.6393078984
H         22.7861920110       37.8110843670       18.9895435158
    79
VM2 Rank=5      G=209.872           E=120.723           -TS=89.149              
C         19.6300328992       22.6281969210        5.2507673985
C         19.2893991850       23.9893045877        5.3050464947
C         20.4227534461       22.0685473906        6.2633212567
C         19.7420841924       24.7836026988        6.3721912610
C         20.8749684795       22.8595655216        7.3301239640
F         20.7544902609       20.7620224194        6.2102622841
C         20.5335626055       24.2246888774        7.3960465576
N         20.9920797965       25.0310104354        8.4758330843
C         21.0198933540       24.6760033785        9.8113650914
C         21.5262848414       26.3699598296        8.2564363851
O         21.5756011610       25.7093647624       10.5040387871
O         20.6268243297       23.6337859361       10.3067253441
C         21.9215438049       26.8434795689        9.6680469503
C         21.1935400616       28.1316124960       10.1037672725
N         20.7584398536       28.1514834187       11.4113523223
O         20.9687470766       29.0551095945        9.3390245198
C         19.6897680662       29.0293444009       11.9084252157
C         18.3659358001       28.2294219178       12.0392263251
C         20.1354984971       29.7181774284       13.2288614068
C         17.9862272301       27.4844041186       10.7644145027
C         19.0974769591       30.7617391365       13.7225963675
O         20.3749218517       28.7345297428       14.2409370940
C         18.0302876106       26.0783272547       10.7228943591
C         17.5984789853       28.1962746549        9.6145466253
N         19.6087723115       31.7253568546       14.7354249424
C         17.6841499274       25.3913805416        9.5475178470
C         17.2562187296       27.5105862098        8.4370830496
C         20.7432156082       32.5935841472       14.3189201703
S         19.6030515923       31.2076241761       16.3638674803
C         17.2948258779       26.1075123315        8.4048248118
C         20.5008305381       33.3964429484       13.0146094334
C         19.7726808047       32.7450775098       17.3002287248
O         18.2304529720       30.7466225945       16.6036250857
O         20.7623697584       30.3222241495       16.5337808202
C         19.2726191455       34.3263630161       13.1431120469
C         21.7528483359       34.2284781413       12.6660626351
C         20.9655781532       33.0332265031       17.9912057876
C         18.7178323689       33.6769291107       17.3216558768
C         21.1025162301       34.2394869777       18.6998355253
C         18.8546052786       34.8812613265       18.0285929027
C         20.0459925359       35.1743379542       18.7237868999
F         17.8241653118       35.7563013804       18.0278543129
O         20.1433951290       36.3733762179       19.4079916095
C         21.3150390426       36.7748714179       20.1447691682
H         19.2839468857       22.0086569337        4.4283702529
H         18.6755152006       24.4282625504        4.5222090820
H         19.4658585671       25.8339087017        6.4026519743
H         21.4915231847       22.4065310640        8.1007884486
H         22.4016455434       26.3311092474        7.5960175139
H         20.7592708503       27.0226403137        7.8202169121
H         23.0001224324       27.0351125297        9.7216012713
H         21.0024310651       27.3477186546       11.9774776735
H         19.5249074447       29.8255216158       11.1691529504
H         18.4539558742       27.5200068434       12.8719381637
H         17.5489537616       28.9090490005       12.3085303989
H         21.0738133785       30.2398918747       13.0006841829
H         18.7294448817       31.3183173006       12.8525048341
H         18.2266895847       30.2279777444       14.1254282639
H         20.7420200660       29.2016782679       15.0282447634
H         18.3367615100       25.5157092958       11.6008627251
H         17.5682895491       29.2823062424        9.6319467033
H         17.7219347473       24.3049783625        9.5219321532
H         16.9589913959       28.0667075441        7.5516132905
H         20.9635478642       33.3252245209       15.1061044701
H         21.6502824766       31.9851051062       14.2045456312
H         17.0255324433       25.5758333175        7.4956533276
H         20.3312481047       32.6992731424       12.1827976155
H         18.3573158066       33.7538696419       13.3383901977
H         19.4037284847       35.0427185244       13.9643398697
H         19.1153692626       34.8961155644       12.2184258021
H         21.6077105038       34.7788748065       11.7275463632
H         21.9776640949       34.9582188767       13.4547549643
H         22.6311388014       33.5822495552       12.5402481417
H         21.7889282108       32.3223326118       17.9769089394
H         17.7945162652       33.4700714639       16.7871264388
H         22.0326724198       34.4365884145       19.2237069377
H         21.5325069102       36.0592566093       20.9482492410
H         22.1869089901       36.8415434906       19.4811573976
H         21.1534577128       37.7608826619       20.5984942226
    79
VM2 Rank=6      G=209.885           E=120.571           -TS=89.314              
C         20.3003095908       23.6856966303        4.9962979402
C         21.6014222733       23.8605146264        5.4947593184
C         19.2328184428       24.3849974925        5.5778661755
C         21.8278963077       24.7314168430        6.5742727585
C         19.4570378032       25.2568951008        6.6535512504
F         17.9816924330       24.2165362803        5.1026118836
C         20.7577079779       25.4324404824        7.1654260819
N         20.9881506039       26.3148139780        8.2579352993
C         21.8065286989       26.0785057745        9.3468727958
C         20.3641428806       27.6314930987        8.3188046312
O         21.7747718860       27.1882877894       10.1377756585
O         22.4502843416       25.0708450671        9.5837772115
C         20.9443934623       28.2509579466        9.6020193002
C         19.8510412848       28.7123285761       10.5849065066
N         19.8915447499       28.1335051971       11.8347817828
O         18.9702584372       29.4928115659       10.2668276487
C         18.7173458308       28.0189510311       12.7153158030
C         18.5105180713       26.5258663634       13.0741103574
C         18.8525203199       28.9334114476       13.9657489940
C         18.4568257455       25.6238044295       11.8457476331
C         18.9112058808       30.4365299107       13.5739052634
O         17.7496992750       28.7185982979       14.8491460725
C         17.3748330630       25.7102084374       10.9504960845
C         19.4942655552       24.7085477600       11.5876603101
N         19.4377191011       31.3409775989       14.6319795940
C         17.3274726346       24.8879118814        9.8123995328
C         19.4460787864       23.8833130811       10.4518718592
C         20.8287361501       31.0838645290       15.0947857886
S         18.3241147030       31.8770112979       15.8110659074
C         18.3616235161       23.9711517060        9.5651541180
C         21.8859908790       30.9921140863       13.9630690910
C         19.1633233279       33.2789544324       16.5855194910
O         17.2147108493       32.4532096353       15.0421843708
O         18.1266549743       30.7629728097       16.7475774654
C         21.9505823259       32.2989655043       13.1399835072
C         23.2742430725       30.6806671778       14.5603247220
C         19.6549062577       33.1794759131       17.9015613829
C         19.3523346585       34.4730136106       15.8643638339
C         20.3260017745       34.2637191589       18.4931857793
C         20.0225462168       35.5552399208       16.4547099716
C         20.5151617880       35.4620264547       17.7727482344
F         20.1896830657       36.6873805953       15.7350986074
O         21.1722091585       36.5503602624       18.3196865908
C         21.7186918448       36.5607062175       19.6531133912
H         20.1178923169       23.0126793916        4.1633983352
H         22.4330001534       23.3224422142        5.0460257669
H         22.8403008542       24.8604868421        6.9488141705
H         18.6138479975       25.7812644282        7.0917363910
H         20.6310305608       28.2281820542        7.4374229042
H         19.2727280682       27.5363097472        8.3894659270
H         21.5636633241       29.1226319311        9.3572627386
H         20.6596844696       27.4905022184       11.9836064299
H         17.8266281649       28.3504500849       12.1630630553
H         19.3128236279       26.2023674465       13.7490836405
H         17.5775894593       26.4131295876       13.6408661666
H         19.7870789646       28.6529669922       14.4679227665
H         19.5344340268       30.5473630013       12.6805270517
H         17.9063995428       30.7557012261       13.2665912379
H         17.9137939043       29.2525986350       15.6626626269
H         16.5705642509       26.4168263060       11.1371075251
H         20.3407002197       24.6362792350       12.2653310179
H         16.4885310974       24.9590654907        9.1247410712
H         20.2521949132       23.1801596488       10.2568106081
H         21.1530512618       31.8854650570       15.7698673051
H         20.8534226813       30.1573317182       15.6838923272
H         18.3249080583       23.3324467314        8.6861290699
H         21.6291933446       30.1631927638       13.2896688288
H         22.7065667555       32.2249692059       12.3479751644
H         20.9884445495       32.5158386668       12.6594069905
H         22.2094809785       33.1544303611       13.7770237646
H         24.0273494236       30.5813041782       13.7680343171
H         23.6021180280       31.4772223006       15.2408037637
H         23.2570180914       29.7383397002       15.1229067766
H         19.5188605197       32.2594917163       18.4659951071
H         18.9840786134       34.5607242487       14.8456686933
H         20.6948556089       34.1603100638       19.5089271067
H         22.1899866573       37.5302801437       19.8580521177
H         20.9284752562       36.3994231100       20.3977756245
H         22.4803917196       35.7784418987       19.7664970752
    79
VM2 Rank=7      G=209.899           E=120.141           -TS=89.758              
C         18.2582515726       22.4962737390        7.1077304192
C         19.1267686016       21.9988815112        8.0926806634
C         18.1773778935       23.8786079454        6.8855659288
C         19.9074583218       22.8866585186        8.8526043106
C         18.9577673178       24.7662390133        7.6410220945
F         17.3425035439       24.3590071832        5.9412169009
C         19.8258433934       24.2770523995        8.6368881684
N         20.6175860738       25.1744574364        9.4073537104
C         20.8377413431       25.1118582976       10.7704555859
C         21.3248782168       26.2909147914        8.7912537380
O         21.6864384653       26.1254043897       11.1003508323
O         20.3718778205       24.3061527537       11.5577836695
C         22.0490906878       26.9634280701        9.9729403039
C         21.6326099897       28.4335574691       10.1842990469
N         21.4643252036       28.8169222505       11.4973113832
O         21.4175565426       29.1998575251        9.2597666610
C         20.6746729475       29.9815470444       11.9204236670
C         19.2787550102       29.5197520421       12.4210321883
C         21.4711409968       30.8068171362       12.9701814210
C         18.5483460682       28.6226152508       11.4282983071
C         20.7461250420       32.1254553063       13.3501470739
O         21.7143728770       30.0113221906       14.1343083660
C         18.3427579915       27.2609153515       11.7183980062
C         18.0784077591       29.1467350328       10.2102610462
N         21.5590453903       33.0798370151       14.1565404053
C         17.6684312481       26.4341569629       10.8045818852
C         17.4073826078       28.3200592320        9.2937351757
C         22.7976637989       33.5999487780       13.5224403045
S         21.6678981755       32.8530278904       15.8491606499
C         17.1978333055       26.9644920671        9.5931123666
C         22.6022376446       34.2341310451       12.1200317471
C         20.0158791176       32.2980237216       16.3389813670
O         22.6683115616       31.7997647179       16.0661313014
O         21.8226487960       34.2075185920       16.3930288506
C         21.6091773016       35.4179113399       12.1643625359
C         23.9597408532       34.7105055514       11.5616769751
C         18.9425191261       33.2096953433       16.3610602434
C         19.7833863081       30.9496585440       16.6724462144
C         17.6504437043       32.7804225051       16.7100284655
C         18.4932699091       30.5205118802       17.0193632941
C         17.4155089136       31.4294007326       17.0412087461
F         18.3022928538       29.2185927085       17.3291814414
O         16.1574575896       30.9671485284       17.3859382569
C         14.9862181147       31.8057601959       17.4257162813
H         17.6506914149       21.8158836497        6.5179027234
H         19.1951988940       20.9277960528        8.2673613265
H         20.5783821848       22.4885898622        9.6097931813
H         18.8739195775       25.8318943337        7.4535170934
H         22.0439904752       25.9258467905        8.0472638317
H         20.6156919588       26.9808780140        8.3163479227
H         23.1351980892       26.9426181770        9.8218012632
H         21.6790015750       28.1197865484       12.2001739393
H         20.5186301335       30.6302817881       11.0472634808
H         19.3930488523       28.9964835241       13.3790518520
H         18.6519163788       30.3943536311       12.6293795055
H         22.4302301794       31.0641763053       12.5014345753
H         20.4358580124       32.6175567206       12.4207103612
H         19.8138649922       31.8800639663       13.8698449988
H         22.3383497229       30.5103152176       14.7114410920
H         18.7078796405       26.8406563048       12.6518939119
H         18.2381237901       30.1947118599        9.9717775846
H         17.5139641269       25.3827166656       11.0346969189
H         17.0476277854       28.7310367031        8.3538731489
H         23.2357933608       34.3692258594       14.1736364490
H         23.5407785539       32.7942143030       13.4527347458
H         16.6735533378       26.3255964190        8.8867967929
H         22.2151249482       33.4744237170       11.4275548611
H         20.6187296162       35.0953831617       12.5085613732
H         21.9623894421       36.2030755765       12.8451202769
H         21.4854534107       35.8624906375       11.1686706947
H         24.6699282333       33.8764785148       11.4919644824
H         23.8424663198       35.1328385237       10.5553574501
H         24.4041157265       35.4826734622       12.2030538423
H         19.1108911313       34.2524843749       16.1005435580
H         20.5974934716       30.2302792674       16.6567255523
H         16.8417381467       33.5045553397       16.7167411879
H         14.1109324578       31.2140468278       17.7222394293
H         15.1142112826       32.6171021807       18.1539294872
H         14.7871034438       32.2413189249       16.4379831204
    79
VM2 Rank=8      G=209.907           E=120.756           -TS=89.151              
C         19.6838842155       22.6112090175        5.2612636574
C         19.3505705226       23.9746287613        5.3009565142
C         20.4517493477       22.0524493544        6.2932735846
C         19.7856557138       24.7721232076        6.3730274321
C         20.8863577165       22.8466670179        7.3650057411
F         20.7764795679       20.7436688788        6.2543210646
C         20.5520380904       24.2141749478        7.4163231084
N         20.9927106322       25.0237160795        8.5011380999
C         20.9906955422       24.6757902839        9.8388243169
C         21.5391235936       26.3584125105        8.2858567017
O         21.5379258835       25.7096750660       10.5374332504
O         20.5813422369       23.6385437867       10.3314191448
C         21.9072026818       26.8375091362        9.7029329534
C         21.1768592244       28.1315844680       10.1166180649
N         20.7152714257       28.1608001749       11.4149145226
O         20.9723328270       29.0519350790        9.3424508144
C         19.6411589456       29.0466303461       11.8854093757
C         18.3105337360       28.2543810694       11.9918498594
C         20.0627132788       29.7388381513       13.2120183171
C         17.9534458757       27.5058246173       10.7125865792
C         19.0196843882       30.7892869849       13.6799664267
O         20.2763272496       28.7581833558       14.2327396212
C         17.9904953810       26.0993565344       10.6780650961
C         17.5937659253       28.2147179928        9.5518094777
N         19.5147713813       31.7554407047       14.6984308546
C         17.6651344493       25.4091243448        9.4986851128
C         17.2723240729       27.5257161855        8.3704205502
C         20.6610402504       32.6169267194       14.3007270895
S         19.4746450867       31.2447636501       16.3286655688
C         17.3037441140       26.1223218636        8.3450317207
C         20.4492351622       33.4133865753       12.9871840635
C         19.6355293982       32.7844104858       17.2630960667
O         18.0955097361       30.7910720978       16.5435964558
O         20.6260774920       30.3545913161       16.5250482319
C         19.2227656700       34.3492774335       13.0851508893
C         21.7118310335       34.2380985459       12.6600317439
C         18.5886821150       33.7262664170       17.2600703582
C         20.8158027536       33.0635315489       17.9779595671
C         18.7168668183       34.9348469936       17.9660040838
C         20.9434861300       34.2698732573       18.6836917448
C         19.8978207710       35.2161069688       18.6847942324
F         22.0895926981       34.5091186237       19.3594721017
O         20.0632007093       36.3948707347       19.3908150867
C         19.0636161562       37.4311487114       19.4519207528
H         19.3513045460       21.9891859253        4.4351759205
H         18.7559432507       24.4129069659        4.5030199889
H         19.5152964939       25.8242235218        6.3919403205
H         21.4838257406       22.3942114316        8.1508931493
H         22.4280188103       26.3109325874        7.6443511554
H         20.7853084072       27.0130059624        7.8299466502
H         22.9853944185       27.0239919576        9.7781037358
H         20.9436857370       27.3590255420       11.9902934553
H         19.4962973762       29.8403778676       11.1393651872
H         18.3772610232       27.5481707361       12.8292521616
H         17.4918015910       28.9395366557       12.2410805963
H         21.0080740610       30.2551531445       13.0013000361
H         18.6716477656       31.3433501098       12.8001010891
H         18.1386017929       30.2612512492       14.0676828869
H         20.6298550430       29.2267044620       15.0254263776
H         18.2754080004       25.5389562688       11.5646718871
H         17.5693060841       29.3009657149        9.5638870638
H         17.6973706090       24.3224270393        9.4785782048
H         16.9967658212       28.0795383529        7.4765404136
H         20.8675907381       33.3522417510       15.0882008679
H         21.5678670086       32.0043026620       14.2086913880
H         17.0505135556       25.5881141743        7.4327323121
H         20.2938520943       32.7122987807       12.1558954922
H         19.3401853188       35.0694937706       13.9050528290
H         19.0871458940       34.9145819800       12.1543317338
H         18.3011467041       33.7817834594       13.2646609940
H         22.5896958266       33.5874356088       12.5559802831
H         21.5885362574       34.7838328446       11.7156873098
H         21.9234996961       34.9712959853       13.4491584038
H         17.6759948180       33.5208342854       16.7047205849
H         21.6350169173       32.3495876492       17.9860544628
H         17.8945930753       35.6432671208       17.9456559605
H         19.4240707206       38.2644535531       20.0682530101
H         18.8430577954       37.8172886621       18.4483053647
H         18.1362901216       37.0501498011       19.8990016965
    79
VM2 Rank=9      G=209.942           E=120.152           -TS=89.789              
C         18.6133545391       25.0122495401        5.2481918787
C         19.9358652616       24.6243207608        5.5173032065
C         17.9800263400       25.9476906388        6.0792382207
C         20.6172260567       25.1715364307        6.6179464799
C         18.6592183949       26.4972790259        7.1766000542
F         16.7086604685       26.3195878200        5.8245137396
C         19.9833494102       26.1080499004        7.4589457565
N         20.6741413914       26.6620063137        8.5729787939
C         21.4734770182       25.9759543651        9.4684035149
C         20.6153806938       28.0877695882        8.8738705223
O         21.9699828049       26.8811502333       10.3585509238
O         21.7086608148       24.7799940704        9.4847081652
C         21.5498216696       28.2431481885       10.0860504608
C         20.8535147593       28.9103462130       11.2876992416
N         20.7831625644       28.1493390542       12.4343764646
O         20.3406344669       30.0141245105       11.2181752741
C         19.7512395443       28.3370353038       13.4668293592
C         19.0483232219       26.9799942761       13.7199605518
C         20.3381970238       28.9670289129       14.7615794850
C         18.5225622702       26.3403522195       12.4395968145
C         20.9510760620       30.3684214986       14.4882978672
O         19.3113633439       29.0797894592       15.7485208009
C         19.1155808135       25.1694755062       11.9317995133
C         17.4475857628       26.9258357302       11.7458679585
N         21.7500957535       30.9371849780       15.6105635558
C         18.6338035764       24.5863224413       10.7480848400
C         16.9673036079       26.3453427938       10.5601222489
C         22.9420798293       30.1587838157       16.0356355557
S         20.9413138572       31.7559634413       16.8750163443
C         17.5583519821       25.1729165857       10.0629870355
C         23.9184607803       29.7721500202       14.8927083552
C         19.6414157576       32.6989387992       16.0408827637
O         20.3759550052       30.7202833550       17.7497367683
O         21.9142524840       32.7439781361       17.3564574457
C         24.4639053656       31.0206102599       14.1624298970
C         25.0906350989       28.9420409633       15.4567779274
C         18.2966554908       32.2858759382       16.1136612316
C         19.9726243423       33.8438610593       15.2914435645
C         17.2934381730       33.0074526430       15.4441292952
C         18.9709540536       34.5650985259       14.6239352429
C         17.6237111648       34.1545670235       14.6923703518
F         19.3225707127       35.6585653062       13.9109919538
O         16.6649977151       34.8901445907       14.0177354456
C         15.2650705529       34.5484397636       14.0053251292
H         18.0801982084       24.5917781620        4.4003151089
H         20.4323079336       23.9010161716        4.8748261307
H         21.6418099976       24.8653182133        6.8138068863
H         18.1454494588       27.2135274414        7.8098027430
H         20.9734940022       28.6790630132        8.0216747337
H         19.5899539045       28.3843862985        9.1303007535
H         22.4189258319       28.8570663406        9.8196306375
H         21.2354243934       27.2450684937       12.3764732094
H         18.9917208867       29.0325139906       13.0822679853
H         19.7450295019       26.3008556927       14.2272047849
H         18.2119509020       27.1265138190       14.4151725769
H         21.1273765128       28.2950534614       15.1233028110
H         21.5990440124       30.2973307324       13.6084198198
H         20.1448407671       31.0476380136       14.1875768427
H         19.7351935582       29.3787729039       16.5872553398
H         19.9518467805       24.7102472538       12.4520604150
H         16.9849744651       27.8325715822       12.1264255128
H         19.0982657663       23.6832895148       10.3593790815
H         16.1361426827       26.8021734894       10.0288624932
H         23.5095149297       30.7467470343       16.7704646219
H         22.6173387902       29.2463433115       16.5535332792
H         17.1864275594       24.7216482492        9.1464647953
H         23.3940773050       29.1388542639       14.1641244850
H         25.0006123141       31.6798511983       14.8566511455
H         25.1574940252       30.7337293129       13.3618676103
H         23.6532911365       31.6019352564       13.7058056910
H         25.6690113726       29.5188599917       16.1901262645
H         24.7253326914       28.0327081844       15.9511887620
H         25.7731993844       28.6334394703       14.6545104060
H         18.0278080344       31.4001387683       16.6849492151
H         21.0062750872       34.1720930524       15.2219001993
H         16.2659945934       32.6644674705       15.5153620186
H         14.8537163884       34.5594122898       15.0229804530
H         14.7066299811       35.2753776581       13.4020959226
H         15.1127237784       33.5523178186       13.5699547980
    79
VM2 Rank=10     G=209.981           E=120.810           -TS=89.171              
C         20.6860416186       23.0112800837        5.5137262334
C         21.4428554650       22.4861974859        6.5736862929
C         20.1150635544       24.2867864880        5.6316187246
C         21.6222593324       23.2381256535        7.7473705555
C         20.2953814552       25.0401928210        6.8009763544
F         19.3848138231       24.7918256903        4.6161188358
C         21.0464266034       24.5182749459        7.8724019267
N         21.2282351275       25.2787965623        9.0612463821
C         21.1438805647       24.8082877053       10.3584177381
C         21.5601428851       26.6981507198        9.0148224084
O         21.4137225436       25.8499047075       11.1953976561
O         20.8775840448       23.6746181895       10.7186534499
C         21.7225536632       27.0831512493       10.4954340725
C         20.8067581087       28.2533169927       10.9033368037
N         19.8541575351       27.9616374024       11.8553039553
O         20.8705155093       29.3498194655       10.3742940656
C         18.5888862141       28.7011771417       11.9861982316
C         17.4167621174       27.6897593052       12.0169667986
C         18.5965324129       29.6481924220       13.2183646704
C         17.4328993228       26.7347595716       10.8286195789
C         19.7638257403       30.6693675498       13.1491276810
O         17.3584719177       30.3581623085       13.2982634115
C         17.7438854419       25.3744210330       11.0110212432
C         17.1517094720       27.2106495822        9.5347876879
N         19.7578051569       31.7278421479       14.2004569100
C         17.7659874349       24.4985310443        9.9129813015
C         17.1765830928       26.3360874726        8.4356102884
C         20.7586737638       32.8072883881       13.9689292481
S         19.5930146342       31.1662106848       15.8137946883
C         17.4805920404       24.9786391033        8.6253135022
C         20.6503699968       33.5385866303       12.6036237479
C         20.0062525863       32.5743951572       16.8749831462
O         18.1523388392       30.9288493312       15.9719177342
O         20.5953424579       30.1086965692       15.9885445522
C         19.2321524567       34.1094301515       12.3725495005
C         21.6896219216       34.6777980939       12.5332267273
C         21.2828404855       32.6776205418       17.4618986947
C         19.0563104611       33.5882051766       17.1048209749
C         21.6071526391       33.7809789576       18.2701276813
C         19.3800834269       34.6895096241       17.9119051360
C         20.6563901582       34.7972507637       18.5015319681
F         18.4464242491       35.6467153511       18.1106263106
O         20.9383937350       35.8995807234       19.2893123685
C         22.2103059904       36.1119290108       19.9326907607
H         20.5416546515       22.4346248435        4.6045708049
H         21.8893972059       21.4985636109        6.4866349781
H         22.2124975573       22.8217220771        8.5598636026
H         19.8367853471       26.0212813533        6.8721769182
H         22.4936935873       26.8595785618        8.4611679161
H         20.7460837417       27.2689081067        8.5493028161
H         22.7581932697       27.3815667668       10.6993677011
H         19.8916222384       27.0193300720       12.2244725630
H         18.4572844570       29.3290615629       11.0934203159
H         17.4480522000       27.1272767445       12.9585902072
H         16.4650432264       28.2362115630       12.0249387117
H         18.7229815483       29.0247290104       14.1140706733
H         20.7118818351       30.1180927533       13.2015794762
H         19.7121998245       31.1206432749       12.1527240309
H         17.3528335277       30.7866567974       14.1865819173
H         17.9710307769       24.9936644812       12.0031667817
H         16.9146482382       28.2601383836        9.3817149153
H         18.0103169590       23.4492588286       10.0600460955
H         16.9582458196       26.7096481130        7.4383290528
H         20.6550756660       33.5877237541       14.7310688098
H         21.7712317998       32.3928360600       14.0708818209
H         17.4992804701       24.3006281157        7.7756302684
H         20.8874424943       32.8378749107       11.7916160620
H         18.9558834451       34.8147325210       13.1666549394
H         19.1752002723       34.6387692477       11.4129875658
H         18.4796104256       33.3106075892       12.3537389659
H         22.7072474196       34.2892515477       12.6684545366
H         21.6523992596       35.1810239006       11.5584617697
H         21.5073014631       35.4317798712       13.3099914352
H         22.0266492910       31.9028255912       17.2891679355
H         18.0688025351       33.5259491066       16.6554067960
H         22.5985371772       33.8353248779       18.7090954492
H         22.4330460650       35.2952004231       20.6314873802
H         23.0156089211       36.1746772662       19.1893643570
H         22.1923091425       37.0518803250       20.4986966264
    79
VM2 Rank=11     G=209.995           E=120.803           -TS=89.192              
C         20.7274424638       22.9945503932        5.5547864094
C         21.4674077220       22.4765262170        6.6300065237
C         20.1547952729       24.2708078194        5.6551912481
C         21.6283795454       23.2362459252        7.8013419916
C         20.3167346941       25.0319717202        6.8222138028
F         19.4406931779       24.7690826628        4.6249730160
C         21.0507722272       24.5171935771        7.9087684185
N         21.2139355480       25.2855966286        9.0952376054
C         21.1089959782       24.8237144905       10.3939994944
C         21.5469241583       26.7045563035        9.0446341992
O         21.3660086637       25.8707797074       11.2282043609
O         20.8366365645       23.6925245218       10.7574834237
C         21.6861341896       27.0993204201       10.5250402907
C         20.7643334355       28.2722757297       10.9107984503
N         19.7969789310       27.9870077285       11.8497282843
O         20.8365784189       29.3652595006       10.3755990325
C         18.5302451255       28.7278943354       11.9565278102
C         17.3572339386       27.7172161524       11.9751231853
C         18.5194338841       29.6821894807       13.1830231901
C         17.3915399642       26.7549383471       10.7930439104
C         19.6881595927       30.7025033538       13.1255754617
O         17.2806341400       30.3931592663       13.2398435789
C         17.1304920807       27.2229031291        9.4921200344
C         17.6993250324       25.3956965392       10.9885914656
N         19.6661060824       31.7662914915       14.1712440609
C         17.1721655882       26.3415955974        8.3988525179
C         17.7382360435       24.5130751232        9.8964239756
C         20.6687900104       32.8462284363       13.9502717119
S         19.4747440299       31.2125165386       15.7843985197
C         17.4728549303       24.9852899231        8.6015758121
C         20.5854296926       33.5668515099       12.5775491685
C         19.8902671457       32.6190896783       16.8469281504
O         18.0300985995       30.9875955305       15.9233373442
O         20.4657060244       30.1472758214       15.9761983346
C         19.1712445072       34.1343198988       12.3154664325
C         21.6246223639       34.7067384844       12.5179748249
C         18.9494190687       33.6444365206       17.0658532009
C         21.1615380432       32.7086671623       17.4462543622
C         19.2734683672       34.7474650361       17.8744645374
C         21.4847130528       33.8096752543       18.2541986836
C         20.5463055395       34.8385461786       18.4758762084
F         22.7142766094       33.8667716642       18.8130675105
O         20.9039330348       35.9089238534       19.2768970439
C         20.0262665175       37.0157323477       19.5623124118
H         20.5973469920       22.4118633102        4.6473202087
H         21.9151688731       21.4883374080        6.5565718448
H         22.2057074317       22.8252643005        8.6257859774
H         19.8571662643       26.0135081247        6.8796757555
H         22.4891138110       26.8621550330        8.5046796365
H         20.7404423107       27.2723497220        8.5625923575
H         22.7185128890       27.3989223772       10.7432659455
H         19.8284532902       27.0471647221       12.2256745604
H         18.4128626880       29.3505073779       11.0580950661
H         17.3734669163       27.1604933036       12.9205423441
H         16.4058085581       28.2641412027       11.9648364787
H         18.6318053632       29.0639345239       14.0841945738
H         20.6351535172       30.1513288960       13.1953590384
H         19.6516523430       31.1484096893       12.1260919299
H         17.2625999839       30.8294927629       14.1241926127
H         16.8961055012       28.2714711884        9.3289498192
H         17.9110148688       25.0210175014       11.9864534724
H         16.9693925562       26.7090521306        7.3960327065
H         17.9800564393       23.4647012750       10.0536911798
H         20.5481643482       33.6322581074       14.7042110567
H         21.6801378079       32.4350181300       14.0748241458
H         17.5046147183       24.3020851365        7.7564522881
H         20.8385717612       32.8601966570       11.7755912128
H         19.1317061063       34.6558366477       11.3507599730
H         18.4198196792       33.3346679690       12.2891984278
H         18.8796646744       34.8457230736       13.0985630639
H         21.6051292746       35.2025326885       11.5388945274
H         21.4269912798       35.4663522829       13.2854527076
H         22.6399566028       34.3204645128       12.6751646715
H         17.9660584854       33.5874407893       16.6039434510
H         21.9011932670       31.9289860628       17.2855568875
H         18.5293240906       35.5234259673       18.0247687701
H         19.7403433255       37.5329057047       18.6372337518
H         19.1180478575       36.6694710253       20.0724292542
H         20.5325083855       37.7372863965       20.2159743056
    79
VM2 Rank=12     G=210.011           E=121.341           -TS=88.670              
C         20.8182677334       22.8323107916        5.5742922737
C         21.4968723455       22.3035353685        6.6841902499
C         20.2879682023       24.1291457143        5.6361950754
C         21.6390310972       23.0732301579        7.8514391088
C         20.4313037182       24.9001891529        6.7991641824
F         19.6328178768       24.6379397137        4.5724865783
C         21.1036167735       24.3750131061        7.9201552594
N         21.2478712131       25.1535789992        9.1024793814
C         21.0776542889       24.7134015855       10.4018754258
C         21.6314997693       26.5595103356        9.0472434531
O         21.3399322277       25.7620955941       11.2323648910
O         20.7517709179       23.5974842141       10.7685399586
C         21.7308095775       26.9687008561       10.5269821325
C         20.8398902652       28.1797529171       10.8649002054
N         19.8391771955       27.9463323844       11.7827624354
O         20.9636217653       29.2587476857       10.3110728460
C         18.5970265221       28.7326513148       11.8428826934
C         17.3883948499       27.7647290337       11.8247557934
C         18.5803507470       29.6920152446       13.0649481202
C         17.4295137883       26.7938931627       10.6498637613
C         19.7797541894       30.6768834935       13.0384540802
O         17.3610472067       30.4387698927       13.0892810407
C         17.6760920311       25.4250267492       10.8641535276
C         17.2362804676       27.2628103384        9.3374864489
N         19.7416723873       31.7343920860       14.0811576425
C         17.7212447313       24.5340955783        9.7789954223
C         17.2844168218       26.3731105575        8.2513032190
C         20.6677095354       32.8574533457       13.8010757435
S         19.4720660901       31.2374684846       15.7009173830
C         17.5235754496       25.0074840711        8.4725229064
C         19.9423822153       34.2253967328       13.7710706795
C         20.0115178236       32.6014858486       16.7670080225
O         18.0125577193       31.1191680156       15.8109624000
O         20.3800161576       30.1049966468       15.9163193546
C         20.9683104237       35.3759300422       13.7134798251
C         18.9696472922       34.3156123956       12.5742692309
C         21.3568107777       32.6989129864       17.1753070937
C         19.0850546160       33.5623849568       17.2174250812
C         21.7779393347       33.7577554992       17.9979798403
C         19.5051511026       34.6195345758       18.0389805720
C         20.8539964708       34.7303332678       18.4337711460
F         18.5921830727       35.5310982617       18.4425026643
O         21.2300407706       35.7893180530       19.2413516336
C         22.5831424385       36.0073207876       19.6866312167
H         20.7029782623       22.2420888707        4.6696982764
H         21.9117192723       21.2993375261        6.6407252940
H         22.1688942612       22.6536537557        8.7029772092
H         20.0052361737       25.8980159652        6.8261849019
H         22.5973703485       26.6778208202        8.5400918685
H         20.8628905541       27.1480097066        8.5294751264
H         22.7649688062       27.2328714690       10.7797845756
H         19.8282265289       27.0134947940       12.1768881685
H         18.5325904545       29.3552487174       10.9391445599
H         17.3510678295       27.2140947886       12.7731312392
H         16.4582941117       28.3453558820       11.7776874577
H         18.6507110082       29.0752424477       13.9714241145
H         20.7096627818       30.1021112276       13.1407032379
H         19.7978135294       31.1434839837       12.0444106116
H         17.3397865176       30.8960359054       13.9626880400
H         17.8352443900       25.0491974521       11.8713010026
H         17.0496017076       28.3185945933        9.1599428384
H         17.9154184156       23.4781433450        9.9509323379
H         17.1340782833       26.7413753153        7.2395886724
H         21.4825897856       32.8761697519       14.5347784084
H         21.1507517394       32.7197917577       12.8238308381
H         17.5598778755       24.3177458247        7.6329098881
H         19.3552690285       34.3481298903       14.6881858964
H         20.4632855164       36.3504380338       13.7122984706
H         21.6367826830       35.3487714563       14.5838212599
H         21.5850766770       35.3125601975       12.8076370623
H         19.5023935994       34.2034288270       11.6213627399
H         18.2041615389       33.5304170397       12.6278068910
H         18.4523314477       35.2833316252       12.5622479105
H         22.0795945962       31.9544699652       16.8483477143
H         18.0406483868       33.4978919949       16.9242647444
H         22.8221111524       33.8109706917       18.2900737074
H         22.6326681036       36.9099358517       20.3087384516
H         22.9362406911       35.1581956140       20.2860122571
H         23.2562301849       36.1436154188       18.8302600289
    79
VM2 Rank=13     G=210.019           E=121.027           -TS=88.992              
C         24.0530987905       24.5105189615        6.0139864333
C         23.8057967744       25.7069729277        6.7072612449
C         23.2256846966       23.3976143460        6.2266638248
C         22.7323968482       25.7844630805        7.6111888831
C         22.1535701998       23.4724517310        7.1285994723
F         23.4627972709       22.2483403947        5.5612355451
C         21.9010929824       24.6681301049        7.8269297230
N         20.8191733466       24.7469258306        8.7429649544
C         19.5035654309       24.4156442720        8.4829217116
C         21.0125805719       25.1848358507       10.1196626784
O         18.7938685518       24.6192082126        9.6288030267
O         19.0429656857       23.9994694537        7.4333809132
C         19.5764606674       25.2539086189       10.6682820640
C         19.1142013315       26.7068427477       10.8832254246
N         18.7028181576       27.0231587761       12.1606844020
O         19.1411007159       27.5453471406        9.9964381456
C         18.3796097942       28.3922407924       12.5859672907
C         17.3960745248       28.3285045316       13.7855161873
C         19.6983508742       29.1770063626       12.8608072820
C         16.7795874476       29.6681567311       14.1668466682
C         19.4860446902       30.7116009378       12.9376038160
O         20.3420469453       28.6981928212       14.0450420701
C         16.9776735368       30.2014518446       15.4543792767
C         16.0014381985       30.3826079280       13.2365774051
N         20.7120429704       31.5177918605       12.6812861828
C         16.4128150524       31.4395124831       15.8032419842
C         15.4455903559       31.6255261268       13.5816697560
C         21.3405049245       31.3701716460       11.3415224354
S         21.8232217529       31.7208530298       13.9642240631
C         15.6527190606       32.1551719858       14.8651234651
C         20.3739397149       31.4979960160       10.1338875812
C         20.7882378856       32.0660704909       15.4071274100
O         22.5406055684       30.4473014548       14.1095407711
O         22.5150917224       32.9780763171       13.6564906769
C         19.6805879278       32.8792278389       10.1039496766
C         21.1426346848       31.2684448955        8.8157051424
C         20.6416644034       31.1075809783       16.4288104259
C         20.1078617068       33.2942526478       15.5085441328
C         19.8272719598       31.3741481910       17.5424508656
C         19.2937403148       33.5601155029       16.6199341825
C         19.1467113969       32.6051604223       17.6468450690
F         18.6482400692       34.7460380586       16.6846093960
O         18.3264539894       32.8994878592       18.7216727372
C         18.0380665051       31.9644777964       19.7793956030
H         24.8809932835       24.4440239478        5.3138723890
H         24.4430733997       26.5727152670        6.5434438752
H         22.5439579500       26.7168904305        8.1371812289
H         21.5232236705       22.6014822565        7.2826066904
H         21.5074723940       26.1636940299       10.1610716186
H         21.6050725756       24.4434178519       10.6704557397
H         19.4933304809       24.7058774797       11.6149825510
H         18.7389541632       26.2966906027       12.8633012784
H         17.8637393525       28.8817933823       11.7483096767
H         16.5811616628       27.6385362675       13.5320135227
H         17.9038032758       27.8801835534       14.6490264368
H         20.3483541921       28.9773942492       11.9997880262
H         18.7173616752       30.9882585505       12.2066902690
H         19.0594250915       30.9629991065       13.9138456664
H         21.2618073608       29.0530181589       14.0380645635
H         17.5725134703       29.6584873691       16.1840650287
H         15.8286012415       29.9765467991       12.2435685915
H         16.5615946228       31.8447998284       16.8002816674
H         14.8506814705       32.1752345471       12.8565561200
H         22.1184400144       32.1376755529       11.2260637759
H         21.8540962148       30.4011014001       11.2835894812
H         15.2196789962       33.1152407208       15.1347878252
H         19.6047330708       30.7157295116       10.1966196646
H         19.0891113971       33.0496319193       11.0120029747
H         20.4180922429       33.6883646014       10.0268120546
H         19.0007969499       32.9569068427        9.2459465722
H         21.9329993169       32.0180464854        8.6801687792
H         21.6088224472       30.2747132064        8.8025430693
H         20.4663171057       31.3289377164        7.9533413719
H         21.1568948752       30.1522196838       16.3596615406
H         20.2062663325       34.0405259052       14.7247530059
H         19.7313896570       30.6168641466       18.3141353896
H         17.5628696420       31.0598374366       19.3783716311
H         18.9572351573       31.6802121036       20.3077594663
H         17.3525274214       32.4193676328       20.5055050255
    79
VM2 Rank=14     G=210.022           E=121.140           -TS=88.882              
C         18.2062994970       23.4448470069        6.6995277923
C         18.9517237867       22.6542307229        7.5891144357
C         18.3166103602       24.8420242702        6.7505145063
C         19.8012717232       23.2650358955        8.5273628838
C         19.1666360874       25.4535203013        7.6837508662
F         17.5976853249       25.6036950906        5.9004499151
C         19.9119724954       24.6686331032        8.5851827392
N         20.7685203455       25.2864233711        9.5384829149
C         20.8865921438       24.9505373905       10.8741671481
C         21.6630996397       26.3770965465        9.1669662038
O         21.8224907122       25.7737528019       11.4267401654
O         20.2784766941       24.0825915829       11.4761534598
C         22.3805160572       26.7244119356       10.4827110880
C         22.1451267257       28.1886383608       10.9000686450
N         21.2252247922       28.3801274871       11.9069583487
O         22.6694540171       29.1288379348       10.3279458885
C         20.4606733883       29.6245311917       12.0672288741
C         19.0416616486       29.2884672438       12.5952909284
C         21.2404061661       30.6288383581       12.9608908587
C         18.3359531098       28.2473137064       11.7350494264
C         20.5231459284       31.9960359313       13.0878556879
O         21.4512215571       30.0573735733       14.2492300034
C         18.2083518272       26.9198330549       12.1844845288
C         17.8245909696       28.6014839917       10.4731958811
N         21.3513963077       33.0807716746       13.6863611010
C         17.5724571287       25.9580254762       11.3822285781
C         17.1878436404       27.6402278801        9.6706040328
C         22.5747510357       33.4751193301       12.9423288695
S         21.4964015036       33.1988000122       15.3901937605
C         17.0605287093       26.3181923004       10.1259115375
C         22.3591287704       33.8129292330       11.4433761304
C         19.9668645192       32.4984242559       16.0633074834
O         22.6590988811       32.4079280892       15.8108933156
O         21.4187479645       34.6428166235       15.6444452823
C         21.3575874097       34.9761054409       11.2603781944
C         23.7067920847       34.1741825641       10.7840194879
C         18.7467170490       33.1842683862       15.9027870908
C         19.9802653392       31.2661030653       16.7441446713
C         17.5515627693       32.6390586008       16.4025223959
C         18.7874262548       30.7204356447       17.2421112207
C         17.5628016660       31.3990122660       17.0750030997
F         18.8332565234       29.5312572101       17.8836908848
O         16.4070409733       30.8272667205       17.5776591626
C         15.1016264727       31.4217943732       17.4397105109
H         17.5456843641       22.9793881184        5.9736817553
H         18.8709268011       21.5704754670        7.5528096542
H         20.3741343839       22.6424675938        9.2101252770
H         19.2270228375       26.5367316697        7.7115485306
H         22.3796535497       26.0431301611        8.4059448510
H         21.0939532181       27.2371285248        8.7911886353
H         23.4622155969       26.5726796849       10.3817912864
H         20.8408596478       27.5351113330       12.3110899552
H         20.3473696628       30.0820759942       11.0737991176
H         19.1067208474       28.9372206260       13.6333004452
H         18.4298518320       30.1977708163       12.6234726491
H         22.2115901223       30.7948759904       12.4759875324
H         20.2028545451       32.3020519828       12.0851560735
H         19.5975535057       31.8583136176       13.6560375494
H         21.8445552447       29.1764870040       14.0808349394
H         18.6040282881       26.6303276050       13.1544103626
H         17.9223099119       29.6222771558       10.1136962117
H         17.4823521468       24.9324953277       11.7320856237
H         16.7951639154       27.9187840613        8.6958766511
H         23.0117697753       34.3616522216       13.4227756558
H         23.3242526585       32.6764353146       13.0266398219
H         16.5716892328       25.5726293393        9.5036966613
H         21.9717244057       32.9264330651       10.9229283967
H         21.2172264937       35.2081370743       10.1969907247
H         20.3744652346       34.7258192637       11.6778078283
H         21.7138172987       35.8849960738       11.7620349476
H         23.5751846833       34.3855784708        9.7150284057
H         24.1532876618       35.0609670067       11.2522813952
H         24.4213670956       33.3457561723       10.8738287931
H         18.7262554606       34.1391663346       15.3819237412
H         20.9123866958       30.7232568154       16.8758445849
H         16.6256132143       33.1873929423       16.2600402579
H         15.0698044781       32.4057418987       17.9252672695
H         14.8383880913       31.5382150397       16.3803988206
H         14.3459705403       30.7817878076       17.9125147983
    79
VM2 Rank=15     G=210.028           E=120.620           -TS=89.407              
C         19.5763535784       23.7649086656        4.9353364581
C         18.5424090513       24.2660960081        5.7423834843
C         20.8987773898       24.1701211010        5.1675125264
C         18.8362281582       25.1690515683        6.7781945498
C         21.1944678590       25.0707127523        6.2018105839
F         21.8926222965       23.6928057592        4.3901324514
C         20.1645096676       25.5743243340        7.0203447079
N         20.4589474541       26.4899293804        8.0697555623
C         21.5220009719       26.4168608052        8.9508454064
C         19.6337538827       27.6688180173        8.3068599525
O         21.4610834950       27.5079394566        9.7657134579
O         22.3735889156       25.5467949116        9.0119808939
C         20.3633947986       28.4014707962        9.4460486903
C         19.4482308780       28.6861906181       10.6525029898
N         19.8615520221       28.1498050743       11.8526157800
O         18.3963487597       29.2935990533       10.5489028454
C         18.9438398215       27.8406484328       12.9614558614
C         19.0857813939       26.3396998419       13.3192038042
C         19.1808352472       28.7824061976       14.1757958508
C         18.9403774224       25.4259943236       12.1068947465
C         18.8856772431       30.2658291203       13.8171325913
O         18.3504329829       28.3866343925       15.2696550935
C         17.7030502521       25.3175015833       11.4458444493
C         20.0448048007       24.6974102950       11.6273635677
N         19.4581960922       31.2653631036       14.7594339479
C         17.5698111967       24.4877681075       10.3200609608
C         19.9115573628       23.8642479650       10.5042675809
C         20.9392266076       31.2679673970       14.9069091373
S         18.5473922844       31.6107752219       16.1625839991
C         18.6738232398       23.7582032071        9.8510346300
C         21.7271308068       31.3506425488       13.5729939636
C         19.2705448300       33.1515173365       16.7730373590
O         17.2140915672       31.9677514954       15.6637392195
O         18.7575741668       30.4933033518       17.0922123550
C         21.3796476382       32.6360465900       12.7878269915
C         23.2441213272       31.3011956511       13.8509554371
C         20.0434868193       33.1610296433       17.9503169282
C         19.0844739661       34.3493478663       16.0573928801
C         20.6224139870       34.3564471846       18.4105255334
C         19.6626388145       35.5426035886       16.5164933304
C         20.4359231579       35.5584865654       17.6956308166
F         19.4669211307       36.6756277025       15.8055302809
O         20.9910494086       36.7547467744       18.1153000978
C         21.8009072541       36.8823762107       19.3004682457
H         19.3561747078       23.0670321651        4.1325776761
H         17.5153984338       23.9551010191        5.5666390237
H         18.0263869499       25.5424264958        7.3988138674
H         22.2248962373       25.3744289097        6.3606221655
H         19.5803336709       28.2933907624        7.4062191547
H         18.6232203985       27.3726982463        8.6173516368
H         20.7555368549       29.3618753927        9.0895792095
H         20.7442204057       27.6544619812       11.8173753968
H         17.9109109862       28.0006513349       12.6213411935
H         20.0554904157       26.1750778695       13.8055113004
H         18.3264366234       26.0692988814       14.0638953495
H         20.2362683092       28.6808507154       14.4586017644
H         19.2720706553       30.4729420035       12.8137700761
H         17.7979310605       30.3956166648       13.7402727813
H         18.5882586499       28.9532411706       16.0418557519
H         16.8445741199       25.8791916462       11.8042901584
H         21.0090273909       24.7774109221       12.1221050120
H         16.6111991282       24.4084826059        9.8136614851
H         20.7695927871       23.3065303617       10.1368511408
H         21.2534392839       32.1242750739       15.5164074388
H         21.2544707504       30.3693623685       15.4539434855
H         18.5719949866       23.1147048575        8.9806864386
H         21.4829155060       30.4795967877       12.9499564361
H         21.9482146565       32.6871540538       11.8506045536
H         20.3137546518       32.6703568894       12.5301589433
H         21.6133246157       33.5330637859       13.3755545317
H         23.8144001205       31.3268453422       12.9134642494
H         23.5638323431       32.1532225506       14.4648666112
H         23.5162100233       30.3791502577       14.3806479651
H         20.1979243903       32.2399875076       18.5082559588
H         18.4960103393       34.3547182824       15.1437583183
H         21.2135925937       34.3357001327       19.3207754030
H         22.6957852374       36.2506618582       19.2289708639
H         22.1252332477       37.9235151757       19.4230809510
H         21.2309970100       36.5934654384       20.1930542289
    79
VM2 Rank=16     G=210.030           E=120.620           -TS=89.410              
C         20.2882880487       23.6370265666        5.0097463748
C         19.2828558238       24.5254860864        5.4236320647
C         21.5023950428       23.5853439755        5.7098726719
C         19.4961513641       25.3569147307        6.5361941045
C         21.7170228358       24.4137983330        6.8215666488
F         22.4709437060       22.7353663227        5.3107107851
C         20.7119371910       25.3040959989        7.2477353690
N         20.9254889848       26.1482539048        8.3738330533
C         21.5239209244       25.7907939751        9.5679181103
C         20.5337399532       27.5529834481        8.3588594505
O         21.5695484649       26.9009220989       10.3576582444
O         21.9431559097       24.6909699865        9.8850634173
C         21.0322038485       28.0849855531        9.7136399614
C         19.9172428759       28.7623058536       10.5335408592
N         19.6794078656       28.2187464290       11.7772401985
O         19.2455258031       29.6800582008       10.0946135412
C         18.3907136226       28.3335745733       12.4796483323
C         17.8690594700       26.9090496511       12.7952482732
C         18.5092628230       29.2335982550       13.7420241141
C         17.8405420379       26.0038341728       11.5682767897
C         18.8894925951       30.6944951405       13.3711361484
O         17.2726303674       29.2349984316       14.4585746508
C         18.7153130705       24.9055640332       11.4727497409
C         16.9504022563       26.2704079676       10.5117172190
N         19.4214403696       31.5096221285       14.4969221264
C         18.6949194229       24.0790038195       10.3371293041
C         16.9321173110       25.4468258457        9.3737455872
C         20.6689473385       31.0176370724       15.1426970009
S         18.2720139129       32.2550656390       15.5172582029
C         17.8025450455       24.3486097850        9.2878786292
C         21.8350346602       30.7167443293       14.1645543425
C         19.2351407995       33.4937105533       16.4161167205
O         17.4003020298       33.0096097291       14.6090962890
O         17.7506967935       31.2092415452       16.4069585867
C         22.2434164571       31.9749980815       13.3648784066
C         23.0516221876       30.1738646105       14.9431156263
C         19.7385873000       34.6235037645       15.7429529439
C         19.5095400090       33.3252631899       17.7866510458
C         20.5066713965       35.5783093136       16.4313266392
C         20.2756894773       34.2790898188       18.4742909294
C         20.7813475426       35.4128526870       17.8052220558
F         20.5227836833       34.0883847979       19.7896082825
O         21.5346959974       36.3293456172       18.5178330692
C         22.1052433805       37.5157439833       17.9315640885
H         20.1302089740       22.9918799500        4.1502537084
H         18.3396837248       24.5694782236        4.8843308706
H         18.7059294168       26.0338822158        6.8487427304
H         22.6664898478       24.3604280545        7.3458868137
H         21.0144359226       28.0816584623        7.5260739429
H         19.4425807858       27.6453871259        8.2807420571
H         21.8303314818       28.8219168062        9.5614938389
H         20.2899500048       27.4518404085       12.0318061260
H         17.6620338211       28.8085144051       11.8075806137
H         18.4905365109       26.4636219743       13.5822000707
H         16.8568061272       26.9761875654       13.2137261813
H         19.2986602911       28.8016423923       14.3701019862
H         19.6374204409       30.6756892410       12.5716674150
H         18.0092998040       31.1824362864       12.9316716965
H         17.4141313041       29.7451255589       15.2914533083
H         19.4144571849       24.6919625082       12.2767817161
H         16.2738073327       27.1186437984       10.5723490139
H         19.3756192811       23.2339266466       10.2681304474
H         16.2421300379       25.6582480101        8.5607990242
H         21.0381989112       31.7617241701       15.8592247905
H         20.4478070697       30.1132135541       15.7251378817
H         17.7886340767       23.7095139890        8.4084897582
H         21.5266105515       29.9342236185       13.4581501363
H         21.4093819887       32.3510126501       12.7593331627
H         22.5635652110       32.7824087209       14.0358647249
H         23.0733941788       31.7520098936       12.6824752087
H         23.4226160094       30.9119371241       15.6660722772
H         22.7899685904       29.2607076354       15.4930762727
H         23.8742785058       29.9264359029       14.2599008175
H         19.5365296600       34.7575422358       14.6823674166
H         19.1329630193       32.4563227127       18.3195786111
H         20.8829303309       36.4390808579       15.8873504437
H         21.3186602262       38.1650024379       17.5257013755
H         22.6581496342       38.0815581844       18.6920499416
H         22.8022882085       37.2534451017       17.1251384563
    79
VM2 Rank=17     G=210.055           E=120.255           -TS=89.800              
C         18.2665605769       22.5956711864        6.9165935929
C         18.0670046339       23.9756374658        6.7510486070
C         19.2354092991       22.1364488892        7.8206228472
C         18.8362406939       24.8893701349        7.4913178235
C         20.0038448810       23.0469921306        8.5613593285
F         19.4314887144       20.8109905062        7.9774271335
C         19.8066487065       24.4332613337        8.4064776997
N         20.5858922580       25.3604762380        9.1546665249
C         20.9205749206       25.2610478376       10.4921320878
C         21.1540719931       26.5535004031        8.5380189051
O         21.7161595605       26.3231354150       10.8010337003
O         20.5808692872       24.3911428815       11.2757013197
C         21.9368147111       27.2220780367        9.6839699172
C         21.4629776372       28.6578590742        9.9887627351
N         21.3825595632       28.9823224366       11.3257788512
O         21.1320032033       29.4442754213        9.1168335337
C         20.5595606192       30.0770526716       11.8581085906
C         19.2406415702       29.5077821866       12.4490804336
C         21.3861643795       30.9147455636       12.8742737615
C         18.4949679423       28.5892845927       11.4876487885
C         20.6118915781       32.1668101264       13.3660600917
O         21.7751784709       30.0949519772       13.9806248508
C         18.3964689814       27.2109125336       11.7541842270
C         17.9052840679       29.1099262854       10.3212841210
N         21.4248492867       33.1434483911       14.1454022505
C         17.7102953437       26.3636808914       10.8684516624
C         17.2226965534       28.2628957784        9.4322940717
C         22.5731028925       33.7671689869       13.4388564791
S         21.6824159222       32.8645660542       15.8139753650
C         17.1211719683       26.8900600233        9.7082774416
C         22.2255849099       34.4376239676       12.0835566641
C         20.1110074900       32.1891175276       16.4067143021
O         22.7597411677       31.8708133355       15.9093338505
O         21.7966138410       34.2061032871       16.3984604045
C         21.1668022549       35.5508269972       12.2545333010
C         23.5008889762       35.0226237669       11.4410001496
C         19.9818884776       30.8153630792       16.6907739536
C         18.9943055925       33.0331140162       16.5581834405
C         18.7502654712       30.2890729852       17.1163903080
C         17.7651163666       32.5082634053       16.9857786156
C         17.6299691081       31.1330265270       17.2663481595
F         16.7112733624       33.3448200004       17.1164106317
O         16.3997506425       30.6518770630       17.6789217166
C         16.1429821232       29.2608585886       17.9543277602
H         17.6758084820       21.8839159009        6.3470688737
H         17.3176128821       24.3369533965        6.0508807691
H         18.6664945956       25.9538251082        7.3554328854
H         20.7518110839       22.6691103759        9.2520338018
H         21.8233623034       26.2788434791        7.7130756267
H         20.3565872902       27.2105598745        8.1679646854
H         23.0060182680       27.2672310901        9.4437958323
H         21.6916007583       28.2727908694       11.9793343716
H         20.2922586703       30.7449826338       11.0274289348
H         19.4644342657       28.9680728170       13.3781008128
H         18.5760988765       30.3319011684       12.7329119292
H         22.2847861367       31.2529196260       12.3414296632
H         20.1960113233       32.6710777693       12.4856802257
H         19.7427768965       31.8399381154       13.9467456466
H         22.4061125629       30.6155889133       14.5304458937
H         18.8548605091       26.7934766296       12.6468605285
H         17.9815825655       30.1711563835       10.1007757965
H         17.6392468188       25.2994326569       11.0797465117
H         16.7706662153       28.6712932791        8.5320041844
H         23.0128437265       34.5395822938       14.0852346778
H         23.3575398371       33.0154582553       13.2779899364
H         16.5887131238       26.2346335826        9.0236897924
H         21.8323874943       33.6797059438       11.3925501875
H         21.5236886204       36.3323206219       12.9375960553
H         20.9353759318       36.0222064608       11.2908916306
H         20.2296330814       35.1512879091       12.6614345152
H         23.2763968965       35.4726302774       10.4653490646
H         23.9461037011       35.7986084183       12.0771674656
H         24.2542178827       34.2404205507       11.2813774923
H         20.8351680391       30.1510148838       16.5742057714
H         19.0765889217       34.0941732854       16.3381591975
H         18.6790805709       29.2259054837       17.3236338750
H         15.0967627080       29.1249414343       18.2561910688
H         16.3247809947       28.6487317446       17.0614023685
H         16.7843182621       28.9015543294       18.7695084463
    79
VM2 Rank=18     G=210.079           E=121.407           -TS=88.672              
C         20.8184445987       22.8599278039        5.5782185236
C         21.5110747507       22.3425815766        6.6848353028
C         20.2693726382       24.1488504916        5.6416836244
C         21.6484271419       23.1156909783        7.8504042154
C         20.4078668820       24.9233255095        6.8029560406
F         19.6007353728       24.6466168494        4.5811546314
C         21.0942105627       24.4094964909        7.9206994998
N         21.2335582904       25.1915203297        9.1013281627
C         21.0770310850       24.7504538424       10.4021416251
C         21.5960469443       26.6029010094        9.0423736795
O         21.3281470270       25.8039727353       11.2299722885
O         20.7698854639       23.6302425480       10.7718747681
C         21.6966408894       27.0155500618       10.5210669540
C         20.7887138187       28.2130523544       10.8620312280
N         19.7967351371       27.9654498155       11.7856437003
O         20.8925540539       29.2929887159       10.3059562683
C         18.5427666237       28.7323264798       11.8513288608
C         17.3493867882       27.7455473228       11.8414824608
C         18.5177786094       29.6934858151       13.0718485465
C         17.3988925031       26.7739062494       10.6675815684
C         19.7013187541       30.6971334491       13.0368561821
O         17.2869701049       30.4209314106       13.1017730679
C         17.6676655180       25.4092722434       10.8821647313
C         17.1910868173       27.2380626620        9.3557363973
N         19.6519495476       31.7564220181       14.0773469441
C         17.7203821570       24.5177081422        9.7978661582
C         17.2467708856       26.3477773862        8.2703952572
C         20.5596277859       32.8925923492       13.7896176045
S         19.3994031325       31.2578131124       15.6994875082
C         17.5081192863       24.9862783577        8.4919461171
C         19.8172043505       34.2516182568       13.7728735248
C         19.9272543152       32.6291723431       16.7619262384
O         17.9426065500       31.1170070903       15.8187125376
O         20.3259479295       30.1396184371       15.9101950865
C         20.8280018840       35.4146294188       13.6998357640
C         18.8243730201       34.3310514044       12.5918962897
C         18.9912171783       33.5750874228       17.2258340479
C         21.2751373836       32.7464460041       17.1541861388
C         19.4004513274       34.6408189903       18.0457003360
C         21.6839149212       33.8101265851       17.9729251411
C         20.7535038680       34.7689421705       18.4229019009
F         22.9874051699       33.8991279619       18.3196777092
O         21.1961692459       35.8057776013       19.2254271067
C         20.3352496858       36.8496982028       19.7211362612
H         20.7067744459       22.2669768868        4.6749549831
H         21.9404836340       21.3445784821        6.6401339879
H         22.1892335809       22.7050134028        8.6993989905
H         19.9672164732       25.9147629056        6.8312824057
H         22.5575541059       26.7347528908        8.5302935969
H         20.8163015567       27.1792921407        8.5276500777
H         22.7278447169       27.2961182424       10.7682128636
H         19.8025149957       27.0331738952       12.1812056728
H         18.4636094097       29.3522525880       10.9469246160
H         17.3262181931       27.1956915821       12.7907612136
H         16.4100246319       28.3114343122       11.7990784191
H         18.6029489427       29.0795219970       13.9789603906
H         20.6407427990       30.1373660892       13.1353591759
H         19.7066046784       31.1615728832       12.0416531821
H         17.2636246844       30.8799002566       13.9742422232
H         17.8382370312       25.0372572670       11.8888594320
H         16.9871983180       28.2906165685        9.1779457400
H         17.9317219023       23.4650906054        9.9700066224
H         17.0851051462       26.7123554830        7.2590917537
H         21.3837774864       32.9190126286       14.5126293602
H         21.0314976702       32.7644932001       12.8056364025
H         17.5502963391       24.2960726118        7.6529922791
H         19.2435720072       34.3666894435       14.6993955487
H         21.5108178998       35.3950637751       14.5591769296
H         21.4307379602       35.3595184821       12.7840609140
H         20.3111781644       36.3828908423       13.7077204506
H         19.3430897869       34.2259965636       11.6304753675
H         18.0693380535       33.5366630078       12.6568853545
H         18.2953409224       35.2924823480       12.5890791448
H         17.9444551012       33.4899445153       16.9421531082
H         22.0087572942       32.0177176440       16.8199607181
H         18.6584197402       35.3589514254       18.3805066419
H         19.5395197118       36.4306235317       20.3505286927
H         20.9144995202       37.5576328606       20.3273362210
H         19.8785072862       37.4030632364       18.8903631906
    79
VM2 Rank=19     G=210.083           E=120.284           -TS=89.799              
C         18.0843767079       22.8065625759        6.7783669147
C         18.0584011911       24.1979759147        6.5917465359
C         18.8980512369       22.2538720493        7.7780134598
C         18.8450748772       25.0297581577        7.4065520441
C         19.6835361110       23.0825802843        8.5932024369
F         18.9275862469       20.9168985395        7.9555080808
C         19.6595018032       24.4801282311        8.4174245091
N         20.4568528011       25.3243188397        9.2410154996
C         20.6397271723       25.2051516072       10.6059668754
C         21.2151260766       26.4388175461        8.6848872411
O         21.5133086097       26.1760641620       10.9940619977
O         20.1265876533       24.3882242686       11.3512367953
C         21.9468773854       27.0302422783        9.9045589877
C         21.6092234950       28.5138629628       10.1569640972
N         21.4293995579       28.8625548887       11.4780962656
O         21.4599085160       29.3210283595        9.2544909915
C         20.6837268177       30.0486805921       11.9210750845
C         19.2569026333       29.6366160968       12.3762600473
C         21.4918691322       30.8044981779       13.0133310222
C         18.5149026344       28.7927253937       11.3460023185
C         20.8164280724       32.1412813853       13.4202577658
O         21.6739842001       29.9630242988       14.1561051457
C         18.1112132597       29.3579271504       10.1225450927
C         18.2341872180       27.4384061209       11.6061129776
N         21.6511485517       33.0326662320       14.2750133696
C         17.4326635551       28.5789423870        9.1704699477
C         17.5517192053       26.6596741188       10.6569061176
C         22.9255851252       33.5173524427       13.6854005907
S         21.7107264810       32.7477295778       15.9612914684
C         17.1487105236       27.2305827851        9.4396198095
C         22.7904489063       34.2040154804       12.3007122330
C         20.0255218883       32.2498569725       16.3964482453
O         22.6597896373       31.6455349400       16.1655303928
O         21.9106392795       34.0762649698       16.5524027683
C         21.8490330253       35.4285190295       12.3623827228
C         24.1799449111       34.6374952972       11.7879734331
C         18.9919172492       33.2062000870       16.4248040662
C         19.7278559144       30.9029900625       16.6805074075
C         17.6748873665       32.8226954099       16.7311866232
C         18.4128332796       30.5195855516       16.9848569268
C         17.3747267734       31.4733530012       17.0128118200
F         18.1591736569       29.2180341340       17.2476739362
O         16.0903787305       31.0555770211       17.3146721491
C         14.9555425306       31.9427306186       17.3565537854
H         17.4792164457       22.1577914256        6.1516153138
H         17.4298218990       24.6315398077        5.8176136308
H         18.8102386446       26.1047025148        7.2528352983
H         20.3098504612       22.6325994248        9.3577463252
H         21.9300328883       26.0810825174        7.9333209652
H         20.5382269853       27.1759691087        8.2342607015
H         23.0332724700       26.9522658872        9.7757860971
H         21.5880260293       28.1313662835       12.1609429039
H         20.5772891237       30.7302776883       11.0656850251
H         19.3242999319       29.0883802889       13.3247075467
H         18.6627844236       30.5328318782       12.5887691342
H         22.4715406874       31.0336588217       12.5733943881
H         20.5496522646       32.6758537615       12.5008329954
H         19.8624543772       31.9210465516       13.9110505359
H         22.3060570906       30.4155472800       14.7620051686
H         18.3293166952       30.4003533751        9.9070783268
H         18.5477439200       26.9862743176       12.5434324419
H         17.1250078086       29.0213288536        8.2263923191
H         17.3394170357       25.6135112663       10.8637515183
H         23.3816406128       34.2452840630       14.3709159918
H         23.6342791728       32.6821077799       13.6053542458
H         16.6191796211       26.6282935345        8.7057261402
H         22.3868159318       33.4846595635       11.5753555903
H         20.8377872823       35.1392602059       12.6741463918
H         22.2201711193       36.1751537604       13.0761508437
H         21.7678676175       35.9097157822       11.3794167565
H         24.8546379487       33.7755462387       11.7063630173
H         24.1044841480       35.0964535532       10.7937601309
H         24.6424764447       35.3684395343       12.4638880406
H         19.2107622343       34.2484117001       16.2022550471
H         20.5105876838       30.1497325559       16.6591391640
H         16.8979627789       33.5807488370       16.7438630169
H         15.1013626654       32.7241384167       18.1135824701
H         14.7980995110       32.4177622903       16.3795536895
H         14.0491035199       31.3805795508       17.6144876154
    79
VM2 Rank=20     G=210.085           E=120.311           -TS=89.774              
C         19.0040843152       25.1844656025        5.1031321130
C         20.1949542529       24.5910964998        5.5522207714
C         18.4230937751       26.2246060312        5.8429647989
C         20.7970728639       25.0388547055        6.7405286501
C         19.0239391289       26.6750017680        7.0277388712
F         17.2775739269       26.7940994112        5.4151523888
C         20.2143344105       26.0803029851        7.4901620200
N         20.8249446510       26.5334181468        8.6930716528
C         21.3695494497       25.7418466184        9.6871653851
C         20.9585906094       27.9546661536        8.9913989416
O         21.8791746507       26.5692668660       10.6431515464
O         21.4014858229       24.5240124636        9.7291117558
C         21.7298654776       27.9766016767       10.3223135212
C         20.9939198952       28.7696231442       11.4193221567
N         20.6406620563       28.0501003721       12.5402200039
O         20.6852324666       29.9414247834       11.2858716035
C         19.5208893570       28.4223087078       13.4197516902
C         18.5757909000       27.2035048773       13.5646739571
C         20.0186746726       28.9697469846       14.7873114393
C         18.1348986810       26.6360157885       12.2198858338
C         20.8870097590       30.2459336274       14.6102985255
O         18.8979136073       29.2674251942       15.6217500833
C         17.2769790897       27.3767512562       11.3862813380
C         18.5926272529       25.3754812672       11.7932383732
N         21.6007510799       30.6981470933       15.8380446636
C         16.8770804604       26.8617946116       10.1418756751
C         18.1905638007       24.8581919293       10.5506175447
C         22.5763457634       29.7441490408       16.4258132775
S         20.7657404261       31.6610132106       16.9778600595
C         17.3311460447       25.6002361495        9.7254991777
C         23.6289242461       29.1825678626       15.4329451298
C         19.7600988398       32.7803067158       15.9724394552
O         19.9255755094       30.7469523428       17.7627226612
O         21.8080598981       32.4914833119       17.5930349236
C         24.4693697078       30.3118414522       14.7943032462
C         24.5573096944       28.1838488325       16.1553840281
C         20.3694452202       33.8369208510       15.2682263277
C         18.3684625314       32.5921581608       15.8675875177
C         19.5986328414       34.6968276430       14.4670627098
C         17.5987441059       33.4503782963       15.0674631847
C         18.2045556484       34.5091309968       14.3600888922
F         16.2654202949       33.2423713978       14.9862443347
O         17.4116230226       35.3328814943       13.5803005470
C         17.9288897919       36.4332436758       12.8067692231
H         18.5323389914       24.8419436303        4.1865718547
H         20.6507645440       23.7857471184        4.9812108925
H         21.7205098483       24.5733445212        7.0758881156
H         18.5513647707       27.4760810171        7.5870814071
H         19.9698033698       28.4179508868        9.1050540899
H         21.5221837110       28.4656856846        8.2006184711
H         22.7162775948       28.4354971235       10.1822336704
H         20.9409118025       27.0829147459       12.5402822950
H         18.9469856940       29.2261314428       12.9370717473
H         19.0737727723       26.4284800031       14.1607221418
H         17.6866611903       27.4974836220       14.1368228223
H         20.6279139501       28.1835559898       15.2520309135
H         21.6328221312       30.0519501924       13.8323177758
H         20.2553351630       31.0421301664       14.1994160914
H         19.2445745956       29.5030987481       16.5143381861
H         16.9209448463       28.3532397309       11.7036921710
H         19.2620818831       24.7951881376       12.4225179776
H         16.2137207309       27.4386969303        9.5024262401
H         18.5501242525       23.8849149755       10.2254514634
H         23.1218302339       30.2455671990       17.2374136408
H         22.0362081317       28.9064928809       16.8871304687
H         17.0209973184       25.1998093542        8.7634967122
H         23.1171066961       28.6292275272       14.6337337756
H         25.0023175603       30.8881393578       15.5614029522
H         25.2134596124       29.9010596797       14.1001458895
H         23.8379657366       31.0083806292       14.2288801916
H         23.9817020066       27.3554384367       16.5880360341
H         25.2873044224       27.7533679039       15.4578470897
H         25.1119467096       28.6727722039       16.9667839742
H         21.4445781237       33.9874189282       15.3392559128
H         17.8813204567       31.7794144339       16.3993606540
H         20.0951114130       35.5018411761       13.9342803298
H         17.1113181576       36.9333872672       12.2723413636
H         18.4146744786       37.1712478361       13.4581692197
H         18.6565747272       36.0782357943       12.0655254353
    79
VM2 Rank=21     G=210.118           E=121.259           -TS=88.860              
C         18.2548726731       23.3034477890        6.8026276504
C         19.1254929813       22.5684216500        7.6235155128
C         18.2609189185       24.7046887902        6.8606472915
C         19.9955220146       23.2384018839        8.5006112171
C         19.1309780564       25.3754234453        7.7327228565
F         17.4219144249       25.4126974718        6.0768115378
C         20.0020061742       24.6460312041        8.5654529980
N         20.8796534825       25.3234152629        9.4570591831
C         21.1257784623       24.9910361870       10.7760490311
C         21.6566786432       26.4817564749        9.0300618095
O         22.0356100776       25.8813750840       11.2643416630
O         20.6342104330       24.0757414596       11.4133251271
C         22.4444160728       26.8771517559       10.2908687140
C         22.1297487422       28.3165786516       10.7409577876
N         21.2772879368       28.4310880369       11.8165731699
O         22.5351626599       29.2974940040       10.1412407678
C         20.4339336916       29.6117853187       12.0478421709
C         19.0897523429       29.1645798628       12.6790462016
C         21.2004325423       30.6693815641       12.8899994893
C         18.4017742937       28.0762184897       11.8640594970
C         20.3909677680       31.9754544559       13.0871152808
O         21.5539931594       30.1094831533       14.1519587634
C         17.7675834155       28.3962919590       10.6497491475
C         18.4126421566       26.7404032502       12.3067538006
N         21.1792374413       33.1226908726       13.6195205710
C         17.1463324991       27.3926911760        9.8878770612
C         17.7922904767       25.7363225294       11.5451543989
C         22.2993035345       33.6127341658       12.7762376358
S         21.4599619221       33.2516744768       15.3053585302
C         17.1574745944       26.0623119937       10.3364935680
C         21.9303683589       33.9302509240       11.3029576538
C         20.0410780057       32.4525067498       16.0994955612
O         22.7050994539       32.5421663793       15.6223533255
O         21.3060816912       34.6872785771       15.5723008428
C         20.8276004209       35.0097194930       11.2122891025
C         23.1838389437       34.3968140003       10.5331700934
C         20.1874439197       31.2189024141       16.7630181600
C         18.7725631477       33.0621778596       16.0501299794
C         19.0782647612       30.5925601102       17.3567967486
C         17.6651017092       32.4384521507       16.6446757454
C         17.8054860272       31.1978839361       17.2999593370
F         16.4599866409       33.0466384013       16.5717503957
O         16.6883715604       30.6108309467       17.8679819261
C         16.7127837678       29.3280456387       18.5240886951
H         17.5778986589       22.7919253444        6.1244182650
H         19.1257825833       21.4818692197        7.5813879207
H         20.6656891169       22.6586253427        9.1304237078
H         19.1097759130       26.4598965630        7.7679613345
H         22.3360769255       26.2078233857        8.2130458630
H         20.9960376557       27.2970104363        8.7080279031
H         23.5235971630       26.8103835625       10.1059550666
H         20.9908641752       27.5568046696       12.2392806304
H         20.2097743992       30.0637521386       11.0708193214
H         19.2613504905       28.8144401611       13.7051502472
H         18.4141554662       30.0238748245       12.7637529553
H         22.1152378976       30.9130632569       12.3335929827
H         19.9624164588       32.2551254567       12.1176934695
H         19.5315616275       31.7642830015       13.7317386033
H         22.0006457177       29.2631796562       13.9438977258
H         17.7577166198       29.4235365972       10.2955120122
H         18.9041356042       26.4773090744       13.2396495988
H         16.6584101512       27.6450725542        8.9497289029
H         17.8093507595       24.7049933763       11.8891032885
H         22.7035702701       34.5320322736       13.2225706685
H         23.1146815700       32.8767678263       12.7919903633
H         16.6807165542       25.2842889844        9.7454243789
H         21.5716911473       33.0150011054       10.8125516942
H         21.1520297607       35.9447972407       11.6866510245
H         20.5789636792       35.2283545637       10.1660037154
H         19.9067027700       34.6825788905       11.7106240100
H         23.5968285947       35.3169347646       10.9665661656
H         23.9670072917       33.6280182804       10.5571670881
H         22.9450592124       34.5956854594        9.4804662240
H         21.1621608263       30.7377487908       16.8062234133
H         18.6437077626       34.0154459262       15.5445245034
H         19.2203508835       29.6380696125       17.8537180525
H         17.0395581476       28.5434004760       17.8293878739
H         17.3915602674       29.3458641525       19.3865647705
H         15.7083708733       29.0712822069       18.8837918945
    79
VM2 Rank=22     G=210.140           E=120.262           -TS=89.879              
C         17.8721004555       24.9231861433        5.4745083304
C         17.2610560325       25.7671063880        6.4157758380
C         19.2577162141       24.7124237207        5.5251551396
C         18.0385159443       26.3950981668        7.4035690210
C         20.0356489066       25.3375717288        6.5111937318
F         19.8467461008       23.9052631222        4.6188358416
C         19.4306042305       26.1812990104        7.4632718025
N         20.2155842416       26.8193379269        8.4647330332
C         21.2421763964       26.2474638837        9.1933215810
C         20.0134167097       28.2208327322        8.8139940978
O         21.7551250458       27.2089490441       10.0122644630
O         21.6377701344       25.0958800420        9.1359631650
C         21.1206767745       28.5030395358        9.8439975983
C         20.5715273667       29.0815301246       11.1621621819
N         20.8142420200       28.3285890633       12.2904315206
O         19.9105538907       30.1050397036       11.2041609836
C         19.9663716695       28.3789199486       13.4924096162
C         19.5006082051       26.9412660971       13.8332260278
C         20.6879877264       29.0809674358       14.6771759499
C         18.8553186509       26.2337841929       12.6465369023
C         21.0471289785       30.5534341223       14.3350998256
O         19.8518632993       29.0511937431       15.8352458402
C         19.4967731887       25.1418130227       12.0328590279
C         17.6194675114       26.6797132938       12.1430431764
N         21.9655801658       31.2189416270       15.3019851523
C         18.9056365671       24.4986891920       10.9327572129
C         17.0294181411       26.0397265569       11.0404059122
C         23.3096583702       30.6074318060       15.4666897218
S         21.3144019897       31.9102785362       16.7236813918
C         17.6714331028       24.9467514027       10.4368089994
C         24.0880912877       30.3612042889       14.1466174389
C         19.7701305061       32.6819254169       16.1811647207
O         21.0632787548       30.8003817674       17.6524019668
O         22.2264459208       33.0135321972       17.0486447225
C         24.3120732823       31.6749809908       13.3634797778
C         25.4464337428       29.6948522157       14.4501214019
C         18.5275372265       32.0963100347       16.4930855368
C         19.8040084087       33.8664573042       15.4209520828
C         17.3315024108       32.6864930608       16.0497063582
C         18.6099160092       34.4564516284       14.9792038490
C         17.3637231240       33.8732195034       15.2876383340
F         18.6771382518       35.5924139295       14.2493679491
O         16.2082467432       34.4832577202       14.8314928673
C         14.8863663006       33.9639986283       15.0758599081
H         17.2771293247       24.4349840262        4.7079606942
H         16.1871102460       25.9337748386        6.3810373907
H         17.5502943127       27.0392787712        8.1295669371
H         21.1074335983       25.1637533200        6.5288380644
H         20.1237555637       28.8616325934        7.9300757323
H         19.0203468544       28.3651756150        9.2592557273
H         21.8419639524       29.2225715015        9.4374973966
H         21.3657425857       27.4932824281       12.1361794818
H         19.0672406721       28.9686844035       13.2640717140
H         20.3562880674       26.3623108341       14.2027431543
H         18.7819337487       26.9775913430       14.6617807393
H         21.6123685326       28.5222434648       14.8733866179
H         21.5165160839       30.5751013941       13.3459989675
H         20.1158577003       31.1192430872       14.2149971675
H         20.3798455129       29.3979471257       16.5926083044
H         20.4555645420       24.7911533389       12.4052104653
H         17.1173060656       27.5248768935       12.6061977127
H         19.4080205415       23.6577391699       10.4608725963
H         16.0745729159       26.3891824011       10.6559560339
H         23.9262271746       31.2637351122       16.0965696924
H         23.2150920621       29.6572918135       16.0093667514
H         17.2157553082       24.4500274116        9.5838123554
H         23.5205526544       29.6658090965       13.5132175424
H         24.8687286951       31.4878159316       12.4364584461
H         23.3588796422       32.1433648439       13.0885809359
H         24.8816893163       32.3977779227       13.9615555721
H         26.0748930294       30.3414734890       15.0761862036
H         25.3071187030       28.7423850435       14.9775401882
H         25.9949954628       29.4847781078       13.5229149111
H         18.4874364390       31.1783846395       17.0753071039
H         20.7551919508       34.3273526735       15.1682925682
H         16.3885562235       32.2118608912       16.3025548108
H         14.1352427787       34.6171014558       14.6138540859
H         14.7785008682       32.9596447565       14.6461556280
H         14.6816755602       33.9146721749       16.1531845310
    79
VM2 Rank=23     G=210.155           E=120.893           -TS=89.262              
C         20.5335452345       23.2440348246        5.3181869108
C         19.9611942102       24.5191983501        5.4521910943
C         21.2802691187       22.7020785948        6.3744300967
C         20.1376076276       25.2455112622        6.6421021052
C         21.4566948593       23.4250632539        7.5637323658
F         21.8341494093       21.4787749818        6.2454932179
C         20.8815460318       24.7026743113        7.7093259209
N         21.0583130256       25.4407637690        8.9134477247
C         20.9841390511       24.9429511185       10.2011724523
C         21.3768230181       26.8639196125        8.8957547668
O         21.2509200360       25.9687869014       11.0583776109
O         20.7279398111       23.8000758684       10.5389935922
C         21.5607999425       27.2148605709       10.3822460813
C         20.6622248999       28.3841293487       10.8288902158
N         19.7232325809       28.0809480574       11.7906577673
O         20.7258788734       29.4904024836       10.3205457325
C         18.4614421389       28.8212130134       11.9483315762
C         17.2862397557       27.8130426479       11.9671651654
C         18.4829699573       29.7425000265       13.1994804969
C         17.2964289117       26.8766305872       10.7639776395
C         19.6526052690       30.7616355952       13.1398904074
O         17.2476068201       30.4538123861       13.3052437505
C         17.5912451522       25.5101926180       10.9264663491
C         17.0290751250       27.3762738817        9.4761654485
N         19.6587618487       31.7983373104       14.2126537744
C         17.6119556438       24.6520250572        9.8145272521
C         17.0531013864       26.5195124188        8.3630897911
C         20.6586795077       32.8814393561       13.9946152858
S         19.5060183962       31.2039576710       15.8154469063
C         17.3421850109       25.1561442654        8.5327023300
C         20.5421784648       33.6382696294       12.6439713828
C         19.9453003504       32.5842031724       16.9026363123
O         18.0651639593       30.9744303786       15.9832483582
O         20.5015304267       30.1351169826       15.9570368637
C         19.1232318133       34.2151598382       12.4332470447
C         21.5824689100       34.7773328097       12.5879182451
C         19.0100995765       33.6041604693       17.1663412642
C         21.2291527018       32.6589789937       17.4766283882
C         19.3521467737       34.6872491437       17.9942522075
C         21.5703125133       33.7400703987       18.3038571461
C         20.6376110716       34.7634968385       18.5703306219
F         22.8115748411       33.7833829790       18.8375352659
O         21.0130503465       35.8141556273       19.3891138931
C         20.1425855972       36.9141025951       19.7195791776
H         20.4014817221       22.6773418656        4.4009393734
H         19.3810052657       24.9438246970        4.6364641879
H         19.6819163743       26.2274918070        6.7340581665
H         22.0422155470       22.9880093156        8.3671052880
H         22.2986192168       27.0484877581        8.3297741121
H         20.5486330022       27.4370608005        8.4589288759
H         22.6019935255       27.4985750868       10.5787743098
H         19.7600643709       27.1310200541       12.1399486426
H         18.3242008171       29.4682298839       11.0702025675
H         17.3191938205       27.2357971721       12.8997507714
H         16.3362765620       28.3622481344       11.9869014371
H         18.6159192665       29.1004794814       14.0810229360
H         20.5995425266       30.2068858965       13.1723653150
H         19.5931018307       31.2331361706       12.1533410128
H         17.2520237995       30.8661214573       14.2012224733
H         17.8077149036       25.1111130453       11.9137792435
H         16.8045334083       28.4306141563        9.3383883584
H         17.8443116130       23.5980048472        9.9461497024
H         16.8461031538       26.9116707329        7.3706034092
H         20.5598937500       33.6475605728       14.7718415444
H         21.6716632687       32.4647636859       14.0822461894
H         17.3615243549       24.4919537059        7.6721845388
H         20.7728960143       32.9525949755       11.8174224224
H         18.8534924766       34.9059640856       13.2421873122
H         19.0604626424       34.7622854458       11.4840816983
H         18.3693717074       33.4178713842       12.4048899320
H         21.4064782035       35.5167543185       13.3799891000
H         22.6004785811       34.3850821462       12.7088154471
H         21.5392667321       35.2988927912       11.6230875903
H         18.0170621180       33.5585544651       16.7242956036
H         21.9646329622       31.8832531597       17.2813509409
H         18.6119446888       35.4595050258       18.1791282012
H         19.8374988889       37.4534092623       18.8134545545
H         19.2451185835       36.5560228807       20.2404517791
H         20.6632136301       37.6196070150       20.3794294932
    79
VM2 Rank=24     G=210.189           E=120.945           -TS=89.244              
C         20.5071758274       23.2410809444        5.2985343281
C         19.9331396308       24.5142986953        5.4434075083
C         21.2699941364       22.6988564732        6.3430717295
C         20.1239756914       25.2384087084        6.6324381225
C         21.4608446839       23.4196383144        7.5314804577
F         21.8254804834       21.4774315674        6.2036536847
C         20.8841568968       24.6952666598        7.6879933133
N         21.0755242567       25.4310900351        8.8912708334
C         21.0208906872       24.9300154191       10.1787054515
C         21.3895724307       26.8552319452        8.8725405715
O         21.2970274355       25.9545152330       11.0345304483
O         20.7725076988       23.7856598653       10.5173534682
C         21.5939074177       27.2030508302       10.3571061923
C         20.6987952385       28.3688119347       10.8195917417
N         19.7743566178       28.0605660714       11.7937570889
O         20.7525118253       29.4766674533       10.3135540872
C         18.5135558640       28.7977420648       11.9723586501
C         17.3406941212       27.7871711610       12.0041271781
C         18.5515121349       29.7140023919       13.2267869449
C         17.3359538411       26.8548993404       10.7976918855
C         19.7176903024       30.7362096239       13.1539416288
O         17.3162316089       30.4218591181       13.3541394739
C         17.6368401123       25.4887400232       10.9511791130
C         17.0487518781       27.3582209704        9.5156015956
N         19.7385175470       31.7678592035       14.2314021342
C         17.6439095285       24.6344519991        9.8360888873
C         17.0591122611       26.5053507738        8.3993273605
C         20.7337390145       32.8530546122       14.0025314531
S         19.6126411079       31.1656296303       15.8335708682
C         17.3543158018       25.1422131092        8.5600380926
C         20.5918712637       33.6185521524       12.6592251522
C         20.0575577288       32.5447638662       16.9198178257
O         18.1756456321       30.9277765952       16.0216566587
O         20.6157929711       30.1015368869       15.9557965180
C         19.1685593975       34.1946675920       12.4778583115
C         21.6294389308       34.7594814006       12.5918514516
C         21.3497211838       32.6303400264       17.4746133637
C         19.1165419217       33.5537095736       17.2018554568
C         21.6982824799       33.7113940163       18.3026351507
C         19.4645296729       34.6327473062       18.0287062622
C         20.7564900839       34.7227401076       18.5863592690
F         18.5388167421       35.5858902833       18.2777532788
O         21.0621915818       35.8033365896       19.3951320484
C         22.3512343279       35.9960694318       20.0099649598
H         20.3640119263       22.6760980930        4.3818974971
H         19.3404996695       24.9391155527        4.6367815267
H         19.6668401069       26.2188779964        6.7329740047
H         22.0586805160       22.9824252188        8.3256434105
H         22.3025656744       27.0439535441        8.2938036970
H         20.5534673676       27.4269615518        8.4491412720
H         22.6370718417       27.4890310097       10.5393844104
H         19.8184088014       27.1097308882       12.1397244890
H         18.3624665655       29.4479402743       11.0988635467
H         17.3878108762       27.2067799733       12.9341504733
H         16.3900408315       28.3344282639       12.0390548257
H         18.6992063007       29.0686322855       14.1035212136
H         20.6662517451       30.1834928232       13.1690044894
H         19.6418491320       31.2122900198       12.1707090595
H         17.3326469365       30.8289026613       14.2523594887
H         17.8686107283       25.0868925862       11.9338860809
H         16.8194032465       28.4124076859        9.3847323425
H         17.8810028738       23.5806336454        9.9606998491
H         16.8368004906       26.9003390914        7.4112845989
H         20.6491988321       33.6139793372       14.7864494844
H         21.7483765791       32.4364736958       14.0689250056
H         17.3630464657       24.4810270351        7.6970373882
H         20.8084856446       32.9386132916       11.8241752688
H         18.9123147667       34.8796287300       13.2961183905
H         19.0880300110       34.7480547530       11.5336749741
H         18.4154820372       33.3963862712       12.4575484337
H         21.4666844047       35.4935626370       13.3916833873
H         22.6499790541       34.3679523111       12.6919483354
H         21.5682139125       35.2871445769       11.6313238522
H         22.0867787862       31.8591505934       17.2615196925
H         18.1171363788       33.5049729651       16.7777881053
H         22.7012515594       33.7524660338       18.7159830716
H         22.5902219019       35.1606468608       20.6807345711
H         23.1367618974       36.0769640248       19.2474780509
H         22.3506984677       36.9206968434       20.6009451397
    79
VM2 Rank=25     G=210.190           E=121.346           -TS=88.844              
C         18.1160633132       23.6037536672        6.5092070812
C         18.1437465979       25.0044378211        6.6035459509
C         18.9523150048       22.8343564390        7.3312294343
C         19.0069191649       25.6285742705        7.5200035429
C         19.8139723897       23.4554387816        8.2477671242
F         18.9292780367       21.4886696428        7.2391181232
C         19.8446683262       24.8597307845        8.3530275877
N         20.7155016527       25.4945948165        9.2825761195
C         20.9438199034       25.1072987584       10.5898931750
C         21.5097147903       26.6604754283        8.9110430704
O         21.8622246182       25.9633994361       11.1213177784
O         20.4320551406       24.1755217956       11.1861325605
C         22.3123690982       26.9764960648       10.1847865031
C         22.0628354322       28.4108304575       10.6883937409
N         21.2272712431       28.5212589346       11.7773670441
O         22.5015039495       29.3951789677       10.1184182375
C         20.4248742969       29.7212293458       12.0511999936
C         19.0604417545       29.2968642451       12.6541536444
C         21.2222165152       30.7165421161       12.9390149509
C         18.3485541674       28.2587333416       11.7953022174
C         20.4572623318       32.0411767236       13.1844258903
O         21.5481998139       30.0939923522       14.1788111689
C         18.3047536350       26.9106770944       12.1969596214
C         17.7513846110       28.6368300492       10.5789487911
N         21.2771086707       33.1333002638       13.7812323510
C         17.6676762323       25.9517928487       11.3921574123
C         17.1139437480       27.6783963359        9.7736670807
C         22.4299912364       33.6175978847       12.9800502773
S         21.5295165272       33.1788764733       15.4759496905
C         17.0716310887       26.3353140101       10.1806349353
C         22.0997329745       34.0159718048       11.5172811821
C         20.0720859730       32.3902883410       16.2086414169
O         22.7455198922       32.4163550028       15.7828355311
O         21.4155157956       34.6054914310       15.8040755916
C         21.0403565461       35.1401946505       11.4589321104
C         23.3834982039       34.4684416557       10.7901863482
C         20.1670669660       31.1224343846       16.8144647169
C         18.8248087895       33.0429431844       16.1681761803
C         19.0280170856       30.5052684560       17.3592770790
C         17.6875556693       32.4283258502       16.7139688519
C         17.7764610108       31.1540059782       17.3108821521
F         16.5039924012       33.0784685093       16.6507381576
O         16.6311602937       30.5774748648       17.8315647185
C         16.6024151080       29.2639967358       18.4236408647
H         17.4513813465       23.1147915050        5.8027986447
H         17.4965720769       25.6056124817        5.9694852446
H         19.0098694743       26.7127930684        7.5887817800
H         20.4553350760       22.8406763926        8.8722538912
H         22.1781988971       26.4206195836        8.0745388036
H         20.8590324956       27.5017373241        8.6394195596
H         23.3874194352       26.8682042545        9.9954859872
H         20.9106684669       27.6436489802       12.1708764715
H         20.2241537045       30.2198326729       11.0919298645
H         19.2098725387       28.9070215509       13.6693537172
H         18.4114985828       30.1740584751       12.7610471102
H         22.1484816971       30.9502169433       12.3973704424
H         20.0555597288       32.3803349315       12.2225031267
H         19.5799870540       31.8326996884       13.8052846581
H         21.9672532794       29.2420923648       13.9386311134
H         18.7676584257       26.6028908338       13.1308036027
H         17.7840514955       29.6739281361       10.2561952619
H         17.6427268111       24.9105675926       11.7043380230
H         16.6550432253       27.9757801903        8.8341900465
H         22.8606078582       34.4993027558       13.4749459586
H         23.2164304843       32.8506286441       12.9751167381
H         16.5831562449       25.5918937489        9.5555447054
H         21.7153791386       33.1386176703       10.9793771120
H         20.0989542528       34.8263161539       11.9265469397
H         21.3912889447       36.0393771525       11.9813894807
H         20.8189952858       35.4159028585       10.4200299433
H         24.1365629422       33.6697809252       10.7913264582
H         23.1712702206       34.7240798177        9.7440684646
H         23.8230840975       35.3512962723       11.2722132269
H         21.1249498759       30.6080218961       16.8503147793
H         18.7354703908       34.0228233111       15.7068604031
H         19.1306217399       29.5240775099       17.8119466782
H         17.2661290427       29.2169559921       19.2966751185
H         15.5840302342       29.0234829734       18.7541033164
H         16.9157342860       28.5038902620       17.6962270186
    79
VM2 Rank=26     G=210.214           E=121.834           -TS=88.380              
C         20.4154565461       23.9013374137        5.0104599148
C         20.6211484076       22.8620843800        5.9322921520
C         20.4371378057       25.2337178441        5.4477393232
C         20.8444421721       23.1604667984        7.2873674108
C         20.6633106999       25.5338648256        6.7991076233
F         20.2347151013       26.2333828245        4.5649664189
C         20.8629126029       24.4974855089        7.7319261269
N         21.0848676091       24.7984639756        9.1045121124
C         20.5057298519       24.1637779399       10.1872855185
C         22.0098287580       25.8487310922        9.5156175734
O         20.9968758367       24.7445614365       11.3187871818
O         19.6997573473       23.2497016939       10.1657060299
C         21.9362027578       25.8183871852       11.0519610526
C         21.4817303108       27.1696591898       11.6363908947
N         20.1846534922       27.2132803332       12.0972285851
O         22.1874229331       28.1634204730       11.6207902734
C         19.3987921798       28.4535843380       12.1646317595
C         17.9240903307       28.1433330992       11.8007340219
C         19.5729353556       29.1378025464       13.5495001944
C         17.7975204080       27.4300460573       10.4598809712
C         18.8064335069       30.4835227143       13.6483438177
O         19.1459319665       28.2435414049       14.5785111466
C         17.5025710290       26.0549201052       10.4090645929
C         17.9959654920       28.1384078918        9.2606287793
N         19.2892117438       31.3991350315       14.7178972730
C         17.4022712800       25.3966809762        9.1722114145
C         17.8959002270       27.4807439855        8.0232383942
C         19.0484595757       30.9734330717       16.1215292473
S         20.7678163551       32.2023724115       14.4231087664
C         17.5970425632       26.1096338553        7.9789590603
C         17.5578516973       30.7380115189       16.4758846319
C         20.6934275572       33.6220632216       15.5399932725
O         21.8589506599       31.2831121375       14.7652034167
O         20.6273858791       32.7532716917       13.0695155424
C         17.4273522076       30.3036450987       17.9509418056
C         16.7071931854       32.0040921967       16.2233559078
C         19.7438240955       34.6397813084       15.3269611007
C         21.5641350118       33.7074150712       16.6429016271
C         19.6648130706       35.7343993267       16.2050021061
C         21.4860558662       34.8009080698       17.5191354765
C         20.5374730198       35.8232951073       17.3099840819
F         22.3352769993       34.8536889506       18.5696354839
O         20.4901604578       36.8836715210       18.1980643472
C         19.5549660467       37.9741643765       18.0840435688
H         20.2396688342       23.6776939314        3.9621255377
H         20.6066859748       21.8274122222        5.5981947772
H         21.0035619581       22.3475889759        7.9915394505
H         20.6648256376       26.5718990785        7.1158379079
H         23.0256734314       25.6235051701        9.1670987374
H         21.6897239024       26.8237930776        9.1262437366
H         22.9184689615       25.5806629465       11.4784659739
H         19.6799997687       26.3364727721       12.0537788083
H         19.7901836456       29.1447376368       11.4040964586
H         17.4682484560       27.5378291157       12.5946756101
H         17.3464336896       29.0746315056       11.7637453191
H         20.6460177203       29.3391416065       13.6666205488
H         18.8899136578       30.9964905286       12.6813726370
H         17.7397685139       30.2711297750       13.7826824769
H         19.6001308825       27.3965952769       14.3883471188
H         17.3534356092       25.4931866472       11.3273755087
H         18.2296060722       29.1993224966        9.2879085464
H         17.1797309335       24.3328790394        9.1395173178
H         18.0509490875       28.0326362507        7.0995168003
H         19.6185149360       30.0583068295       16.3309305068
H         19.4263951662       31.7366079804       16.8130639821
H         17.5226236330       25.5990843907        7.0219804331
H         17.1663893328       29.9180630418       15.8582674711
H         18.0017335396       29.3873735099       18.1395640188
H         17.7965123291       31.0833076578       18.6296772757
H         16.3799911784       30.0987172824       18.2070605255
H         16.7325232847       32.2947962223       15.1657164291
H         15.6578696846       31.8299951857       16.4932125242
H         17.0745507451       32.8515493364       16.8162015450
H         19.0629669260       34.5773563173       14.4807308064
H         22.2988560664       32.9275543187       16.8242708404
H         18.9223705010       36.5038560970       16.0176518569
H         19.6928992646       38.5061204907       17.1337976605
H         18.5219938168       37.6070196281       18.1403496618
H         19.7099301301       38.6886336999       18.9024000021
    79
VM2 Rank=27     G=210.230           E=121.538           -TS=88.692              
C         21.6173895036       23.2691812739        6.1091822274
C         22.6688076284       23.4658346864        7.0190475480
C         20.4820726694       24.0902994041        6.1699421598
C         22.5781689638       24.4807784010        7.9869204039
C         20.3908540347       25.1058344522        7.1332473531
F         19.4693427989       23.9009991558        5.2992560380
C         21.4373764434       25.3053536754        8.0547753903
N         21.3471933315       26.3325783427        9.0351676999
C         21.6883172825       26.2248037022       10.3703294594
C         20.8851652377       27.6732769705        8.6949996864
O         21.4887061762       27.4428479228       10.9485206977
O         22.0973511736       25.2344344013       10.9514056900
C         20.9684705516       28.4371306654       10.0284464655
C         19.6048351907       28.9998296439       10.4749055409
N         19.2019754530       28.6408232220       11.7425508322
O         18.9065475748       29.6838013364        9.7466014545
C         17.8066076870       28.6923134849       12.2092389548
C         17.3613413299       27.2628713565       12.6070664924
C         17.6480442452       29.7237746543       13.3611730239
C         17.6093641592       26.2378201591       11.5056970580
C         17.9331243639       31.1759199476       12.8938892768
O         16.3348416362       29.6691891748       13.9196437571
C         18.6068215421       25.2564833536       11.6568062714
C         16.8536877496       26.2761728978       10.3196160073
N         18.7795939541       31.9267503149       13.8558695791
C         18.8399478920       24.3187171425       10.6371879274
C         17.0877203902       25.3404380082        9.2981396102
C         19.8022321172       32.7984409875       13.2236296813
S         17.9951546711       32.5685984852       15.2341328095
C         18.0781513866       24.3584494147        9.4589206903
C         20.9269515880       32.0188633087       12.4906443793
C         19.3682319517       32.9591496279       16.3436790213
O         17.2705141257       33.7701654666       14.8044706229
O         17.2980196583       31.4346676026       15.8547967079
C         21.9682343179       33.0031566331       11.9184323225
C         21.6226626775       31.0010854135       13.4235381727
C         20.1416911718       31.9222661558       16.8999673176
C         19.6905538499       34.2976623835       16.6375579833
C         21.2270223293       32.2175841983       17.7425734252
C         20.7734687046       34.5926208142       17.4801308365
C         21.5516532736       33.5580350677       18.0395278712
F         21.0588598604       35.8877827737       17.7420667632
O         22.6133493226       33.8900416976       18.8628544471
C         23.4795800310       32.9141722193       19.4744503427
H         21.6799623678       22.4852433422        5.3598659914
H         23.5521243277       22.8332024987        6.9750423692
H         23.3998111354       24.6248666949        8.6841330939
H         19.4988759394       25.7233913720        7.1657095005
H         21.5416883195       28.1262518357        7.9414356084
H         19.8532819748       27.6443187632        8.3216642388
H         21.6669197525       29.2791120783        9.9476072832
H         19.8565777278       28.0634605989       12.2555487078
H         17.1630237987       29.0208339954       11.3810672790
H         17.8812608536       26.9658111113       13.5265015313
H         16.2925116459       27.2711928926       12.8556499081
H         18.3816376433       29.4546833029       14.1340100565
H         18.4167019685       31.1342456281       11.9133803902
H         16.9853849745       31.7064418052       12.7297439882
H         16.3821581835       30.1946244765       14.7552093324
H         19.2053170596       25.2206362176       12.5631708871
H         16.0857583905       27.0339918390       10.1893248611
H         19.6138767850       23.5647467316       10.7592526343
H         16.5000240606       25.3749532018        8.3842637871
H         19.3143828930       33.4873634175       12.5202222765
H         20.2896507253       33.4224345499       13.9827586305
H         18.2577997255       23.6318428493        8.6704040091
H         20.4971512699       31.4720372027       11.6425734599
H         22.4540756462       33.5768250799       12.7183824491
H         22.7495928965       32.4679202227       11.3637994939
H         21.4970893859       33.7143866728       11.2277970816
H         22.4270213743       30.4729263270       12.8960548196
H         22.0602390201       31.5008459439       14.2972311765
H         20.9146212931       30.2449842497       13.7845659591
H         19.9025965064       30.8856510177       16.6724927606
H         19.1066099032       35.1094619319       16.2123417862
H         21.8073983246       31.3986509220       18.1559257024
H         22.9086415670       32.2467747240       20.1329128368
H         23.9867315971       32.3119537042       18.7095123279
H         24.2454639001       33.4178416372       20.0777090799
    79
VM2 Rank=28     G=210.240           E=121.165           -TS=89.075              
C         20.0950686764       22.1852691862        5.6345198707
C         20.3368375044       21.5580276059        6.8673766917
C         20.1488471511       23.5836644212        5.5433094145
C         20.6278454686       22.3326345752        8.0033378549
C         20.4418267151       24.3585306783        6.6752872423
F         19.9153397902       24.1886718069        4.3605032443
C         20.6776334421       23.7385944563        7.9181697991
N         20.9732008197       24.5213333624        9.0696598733
C         20.4707439377       24.3307793424       10.3431555674
C         21.9008015389       25.6449592060        9.0117715869
O         21.0401658452       25.2630302136       11.1574855275
O         19.6648055483       23.4891223261       10.7011962438
C         21.9366188285       26.1662922507       10.4607969422
C         21.4949169542       27.6386446615       10.5882103485
N         20.6784401543       27.9197493306       11.6622980457
O         21.8011229330       28.4936328771        9.7737209589
C         19.8045478098       29.0984879083       11.7466880501
C         18.3409349897       28.6893969843       11.4266708112
C         19.9837104390       29.7862397806       13.1302229118
C         18.2042388218       27.9105595204       10.1229430709
C         19.2386037869       31.1441481908       13.2355289442
O         19.5615719828       28.9185795775       14.1873614318
C         17.8564735324       26.5469393440       10.1419970139
C         18.4316261205       28.5468091187        8.8889250755
N         19.3324580183       31.8196447256       14.5629782811
C         17.7294863165       25.8295963379        8.9408898041
C         18.3090988296       27.8294779826        7.6872070502
C         18.4444971729       33.0084790266       14.7016342705
S         20.9095453168       31.9491439753       15.2290136890
C         17.9528623054       26.4717234930        7.7128483219
C         16.9360517784       32.7523421858       14.4378637041
C         20.7872302425       33.1477788021       16.5813290476
O         21.1544352892       30.6368921522       15.8414247730
O         21.7582358158       32.5013494610       14.1666116763
C         16.3873671251       31.6091332144       15.3226571659
C         16.1304320987       34.0437252080       14.6948202785
C         20.2877086964       32.7511012309       17.8373699411
C         21.1720569898       34.4879082649       16.3829864817
C         20.1734645241       33.6816858131       18.8845085209
C         21.0586087176       35.4168009310       17.4287993539
C         20.5587845750       35.0243841951       18.6875675228
F         21.4343941880       36.6959553092       17.2052467065
O         20.4599442632       35.9705933562       19.6926355647
C         19.9574149459       35.6791876102       21.0114713248
H         19.8679214765       21.5927597153        4.7528741445
H         20.2989416357       20.4739398756        6.9431335427
H         20.8165676637       21.8345119053        8.9510609515
H         20.4731533312       25.4391622330        6.5800682682
H         22.8944036289       25.3069323853        8.6917303015
H         21.5294874608       26.4148147111        8.3232436101
H         22.9491957710       26.0845344093       10.8742352494
H         20.4862385466       27.1500742752       12.2921970092
H         20.1227614498       29.8216452686       10.9828828822
H         17.9425003649       28.0944948681       12.2583833134
H         17.7098825044       29.5831052123       11.3663894731
H         21.0601295946       29.9795366543       13.2348675609
H         19.6293303698       31.8139273181       12.4578471112
H         18.1897198539       30.9481593192       12.9990275702
H         19.9261819851       29.3102337931       15.0152572522
H         17.6866964682       26.0402380901       11.0884161313
H         18.7085505831       29.5971794741        8.8618927630
H         17.4613755620       24.7760391934        8.9630427905
H         18.4869881392       28.3268965968        6.7371416639
H         18.5011523611       33.4041839411       15.7218681013
H         18.7935794795       33.8046821708       14.0296360850
H         17.8520153191       25.9175444584        6.7829805100
H         16.7874149849       32.4869433743       13.3827304977
H         16.9017622777       30.6619251092       15.1154489209
H         16.5177882132       31.8372812923       16.3881806285
H         15.3173116504       31.4506730542       15.1379722718
H         16.2172680461       34.3657590100       15.7407078092
H         16.4869532893       34.8622862296       14.0563192625
H         15.0658231920       33.8904184910       14.4759200164
H         19.9833446364       31.7193556609       18.0000948236
H         21.5561910318       34.8126908642       15.4197818532
H         19.7840548330       33.3483306424       19.8414257290
H         19.9747238281       36.5863866315       21.6286287084
H         18.9219183668       35.3183339669       20.9612881137
H         20.5767101048       34.9180095931       21.5034651565
    79
VM2 Rank=29     G=210.265           E=118.139           -TS=92.125              
C         21.0068649154       22.7550722920        8.1868118037
C         21.0257937832       22.4662710469        9.5609903355
C         20.9894155909       24.0897808985        7.7564735593
C         21.0241561190       23.5137671348       10.4979290793
C         20.9911005542       25.1368222279        8.6898522707
F         20.9667064023       24.3694766405        6.4370788341
C         21.0022909313       24.8562206008       10.0701201282
N         20.9992043538       25.9159074942       11.0191367852
C         20.2367097391       25.9845414217       12.1699855225
C         21.8595104096       27.0830291976       10.8617689405
O         20.5494626687       27.1489580643       12.8040090787
O         19.4203271321       25.1717154507       12.5674176736
C         21.5815434709       27.9110663306       12.1271167676
C         21.1405960816       29.3502205568       11.8034799480
N         19.8066985319       29.6242479988       12.0040354483
O         21.8914812195       30.1867424696       11.3335040047
C         19.0711148990       30.6637376686       11.2655163293
C         17.6672602064       30.1302643662       10.8916157595
C         19.0332385483       32.0145857192       12.0368761839
C         17.7425961669       28.8321993645       10.0964726059
C         18.3005341051       31.9078865800       13.4030819442
O         20.3686836915       32.4836319308       12.2117852537
C         18.1213984169       28.8520601444        8.7418253721
C         17.4594328965       27.6005006827       10.7163860747
N         18.4263446668       33.0961966545       14.2924184036
C         18.2104733083       27.6545323875        8.0125269211
C         17.5482725300       26.4027778629        9.9880249866
C         17.9228687922       34.3828200551       13.7512730543
S         19.7526872429       33.2369992048       15.3726151153
C         17.9206076346       26.4298382103        8.6349372034
C         16.4493463810       34.3575276100       13.2665272291
C         20.5521665363       31.6092670207       15.4297414408
O         20.6962510280       34.2085040042       14.8055876718
O         19.1218889123       33.4515613681       16.6807231612
C         15.4829739587       33.9577433255       14.4047550240
C         16.0535430157       35.7388389856       12.7037246211
C         19.9335611779       30.5403171162       16.1087963032
C         21.7978627261       31.3991302383       14.8070986769
C         20.5313967860       29.2685503133       16.1327406375
C         22.4023213216       30.1337868828       14.8444939243
C         21.7703221600       29.0545448199       15.4943304876
F         23.5919747541       29.9607209668       14.2266242664
O         22.3831650181       27.8140994888       15.4785491881
C         21.7558512152       26.6145372028       15.9722419806
H         21.0055749949       21.9502712273        7.4572700584
H         21.0409988780       21.4331480899        9.8998417455
H         21.0408145443       23.2777557712       11.5590548020
H         20.9677894752       26.1617021733        8.3332038601
H         22.9139577320       26.7833307031       10.8110368253
H         21.5860168384       27.6445150446        9.9589149595
H         22.4830943302       27.9631827474       12.7497494641
H         19.2717178617       28.8666174125       12.4096622536
H         19.6022491932       30.8503305891       10.3206515056
H         17.0691390109       29.9710631601       11.7968000973
H         17.1352576475       30.8896026439       10.3043072855
H         18.4893988449       32.7413342922       11.4188004221
H         17.2376682299       31.7400149132       13.1975853402
H         18.6314189780       31.0011625231       13.9167770088
H         20.9590443739       31.7376016573       11.9476050035
H         18.3491856071       29.7963422222        8.2545745317
H         17.1730119649       27.5681311218       11.7641943689
H         18.5035476315       27.6757310853        6.9658728167
H         17.3322828954       25.4541506806       10.4736767477
H         18.0036189959       35.1532377183       14.5306891910
H         18.5716408654       34.7053228633       12.9251295542
H         17.9899298517       25.5027411659        8.0712572620
H         16.3485765746       33.6316876564       12.4486121720
H         15.5508668331       34.6611332985       15.2445362423
H         14.4439698570       33.9495516194       14.0516182271
H         15.7112443098       32.9550567883       14.7871380781
H         15.0231345716       35.7270150183       12.3257571797
H         16.1223086393       36.5164676872       13.4754629482
H         16.7102775468       36.0261967310       11.8724745821
H         18.9768535034       30.6940359470       16.6033037716
H         22.2940338541       32.2121711022       14.2839286184
H         20.0237147754       28.4595127722       16.6484614754
H         21.5493130211       26.6982170008       17.0469299128
H         20.8136394413       26.4231641778       15.4422193488
H         22.4183100005       25.7537702371       15.8169535990
    79
VM2 Rank=30     G=210.277           E=120.421           -TS=89.856              
C         18.3390657628       25.3190822702        5.1709409934
C         17.7626709314       26.2916381428        6.0036866799
C         19.6198487179       24.8261808790        5.4600256740
C         18.4695023084       26.7655757392        7.1218638164
C         20.3268325586       25.2971717881        6.5765439628
F         20.1766110318       23.8949013782        4.6583936630
C         19.7543030001       26.2685625891        7.4209343803
N         20.4680089080       26.7510206245        8.5540880076
C         21.2090344654       25.9940693362        9.4427234472
C         20.5050624199       28.1712154924        8.8837801486
O         21.7596250119       26.8453617850       10.3540016982
O         21.3596786427       24.7844371735        9.4377987721
C         21.4489343504       28.2391836772       10.0966355754
C         20.8102602888       28.9484074519       11.3061072166
N         20.6816102164       28.1845469842       12.4457689438
O         20.3858217048       30.0897732128       11.2479198020
C         19.6610209059       28.4377451767       13.4754995279
C         18.8555729489       27.1352429222       13.7089849152
C         20.2859232720       29.0073231004       14.7802516074
C         18.2991137339       26.5470503425       12.4169221671
C         21.0058001728       30.3603086792       14.5250272455
O         19.2640501339       29.1877973631       15.7621901338
C         17.2896420622       27.2240331154       11.7081652110
C         18.8010865456       25.3331202058       11.9121006138
N         21.8286838132       30.8612390190       15.6622300080
C         16.7850929766       26.6925316836       10.5096329645
C         18.2944004775       24.7988424354       10.7158161935
C         22.9535446795       29.9939196942       16.0977845444
S         21.0653485871       31.7296367208       16.9219222649
C         17.2856821307       25.4777886132       10.0147398767
C         23.9160513915       29.5452420349       14.9658502509
C         19.8383319032       32.7601370885       16.0807452226
O         20.4222354277       30.7325107609       17.7876765340
O         22.0988021361       32.6475264832       17.4158755523
C         24.5621200355       30.7557714898       14.2540402224
C         25.0158611084       28.6274752416       15.5397746250
C         20.2507127055       33.8767408874       15.3278841725
C         18.4681662483       32.4429627590       16.1521432395
C         19.3060948529       34.6685084274       14.6524123024
C         17.5249239684       33.2331474560       15.4775365046
C         17.9332232839       34.3514531767       14.7218815094
F         16.2172541051       32.9013446081       15.5642671203
O         16.9729020102       35.1047888323       14.0694697084
C         17.2814880642       36.2556831582       13.2589629804
H         17.7984135018       24.9487192726        4.3046537090
H         16.7698647936       26.6769779399        5.7841526893
H         18.0072370628       27.5126057882        7.7611268312
H         21.3190081552       24.9048635311        6.7788491350
H         20.8999072263       28.7553633374        8.0429595669
H         19.5017806401       28.5290347474        9.1496156071
H         22.3643454863       28.7836619167        9.8343559377
H         21.0615435165       27.2482227348       12.3777701849
H         18.9584993258       29.1930119009       13.0953848235
H         19.4937246113       26.4019297805       14.2178408995
H         18.0244834300       27.3386607484       14.3961891781
H         21.0193212518       28.2735677151       15.1394013545
H         21.6590802618       30.2454582168       13.6536616361
H         20.2573407210       31.0998419226       14.2173925147
H         19.7035280159       29.4431959774       16.6071914151
H         16.8976096238       28.1643929412       12.0863886757
H         19.5864082010       24.8028157672       12.4440167766
H         16.0053862083       27.2205233003        9.9665552114
H         18.6889678720       23.8623129351       10.3291788702
H         23.5514016973       30.5329730786       16.8458927072
H         22.5547696384       29.1039245703       16.6028792053
H         16.8959305721       25.0649734875        9.0875610436
H         23.3577208851       28.9574065600       14.2244931167
H         23.8030309821       31.3980260536       13.7905330130
H         25.1349011378       31.3689963094       14.9614802627
H         25.2449597380       30.4248042523       13.4612886849
H         25.6859793343       28.2755973346       14.7448619035
H         25.6238008828       29.1550585869       16.2861691489
H         24.5777289766       27.7437394766       16.0212581117
H         21.3074796416       34.1270051580       15.2629403720
H         18.1314647043       31.5824464855       16.7237966508
H         19.6525843104       35.5221701384       14.0783042162
H         17.9352951638       35.9770306279       12.4223678807
H         16.3586496002       36.6819610360       12.8456392297
H         17.7787245708       37.0299732764       13.8574489519
